NAME          UC0
ROWS
 N  COST
 G  MIN0_0
 L  MAX0_0
 G  MIN0_1
 L  MAX0_1
 L  SU0_1
 L  RU0_1
 L  RD0_1
 G  MIN0_2
 L  MAX0_2
 L  SU0_2
 L  RU0_2
 L  RD0_2
 G  MIN0_3
 L  MAX0_3
 L  SU0_3
 L  RU0_3
 L  RD0_3
 G  MIN0_4
 L  MAX0_4
 L  SU0_4
 L  RU0_4
 L  RD0_4
 G  MIN0_5
 L  MAX0_5
 L  SU0_5
 L  RU0_5
 L  RD0_5
 G  MIN0_6
 L  MAX0_6
 L  SU0_6
 L  RU0_6
 L  RD0_6
 G  MIN0_7
 L  MAX0_7
 L  SU0_7
 L  RU0_7
 L  RD0_7
 G  MIN0_8
 L  MAX0_8
 L  SU0_8
 L  RU0_8
 L  RD0_8
 G  MIN0_9
 L  MAX0_9
 L  SU0_9
 L  RU0_9
 L  RD0_9
 G  MIN0_10
 L  MAX0_10
 L  SU0_10
 L  RU0_10
 L  RD0_10
 G  MIN0_11
 L  MAX0_11
 L  SU0_11
 L  RU0_11
 L  RD0_11
 G  MIN0_12
 L  MAX0_12
 L  SU0_12
 L  RU0_12
 L  RD0_12
 G  MIN0_13
 L  MAX0_13
 L  SU0_13
 L  RU0_13
 L  RD0_13
 G  MIN0_14
 L  MAX0_14
 L  SU0_14
 L  RU0_14
 L  RD0_14
 G  MIN0_15
 L  MAX0_15
 L  SU0_15
 L  RU0_15
 L  RD0_15
 G  MIN1_0
 L  MAX1_0
 G  MIN1_1
 L  MAX1_1
 L  SU1_1
 L  RU1_1
 L  RD1_1
 G  MIN1_2
 L  MAX1_2
 L  SU1_2
 L  RU1_2
 L  RD1_2
 G  MIN1_3
 L  MAX1_3
 L  SU1_3
 L  RU1_3
 L  RD1_3
 G  MIN1_4
 L  MAX1_4
 L  SU1_4
 L  RU1_4
 L  RD1_4
 G  MIN1_5
 L  MAX1_5
 L  SU1_5
 L  RU1_5
 L  RD1_5
 G  MIN1_6
 L  MAX1_6
 L  SU1_6
 L  RU1_6
 L  RD1_6
 G  MIN1_7
 L  MAX1_7
 L  SU1_7
 L  RU1_7
 L  RD1_7
 G  MIN1_8
 L  MAX1_8
 L  SU1_8
 L  RU1_8
 L  RD1_8
 G  MIN1_9
 L  MAX1_9
 L  SU1_9
 L  RU1_9
 L  RD1_9
 G  MIN1_10
 L  MAX1_10
 L  SU1_10
 L  RU1_10
 L  RD1_10
 G  MIN1_11
 L  MAX1_11
 L  SU1_11
 L  RU1_11
 L  RD1_11
 G  MIN1_12
 L  MAX1_12
 L  SU1_12
 L  RU1_12
 L  RD1_12
 G  MIN1_13
 L  MAX1_13
 L  SU1_13
 L  RU1_13
 L  RD1_13
 G  MIN1_14
 L  MAX1_14
 L  SU1_14
 L  RU1_14
 L  RD1_14
 G  MIN1_15
 L  MAX1_15
 L  SU1_15
 L  RU1_15
 L  RD1_15
 G  MIN2_0
 L  MAX2_0
 G  MIN2_1
 L  MAX2_1
 L  SU2_1
 L  RU2_1
 L  RD2_1
 G  MIN2_2
 L  MAX2_2
 L  SU2_2
 L  RU2_2
 L  RD2_2
 G  MIN2_3
 L  MAX2_3
 L  SU2_3
 L  RU2_3
 L  RD2_3
 G  MIN2_4
 L  MAX2_4
 L  SU2_4
 L  RU2_4
 L  RD2_4
 G  MIN2_5
 L  MAX2_5
 L  SU2_5
 L  RU2_5
 L  RD2_5
 G  MIN2_6
 L  MAX2_6
 L  SU2_6
 L  RU2_6
 L  RD2_6
 G  MIN2_7
 L  MAX2_7
 L  SU2_7
 L  RU2_7
 L  RD2_7
 G  MIN2_8
 L  MAX2_8
 L  SU2_8
 L  RU2_8
 L  RD2_8
 G  MIN2_9
 L  MAX2_9
 L  SU2_9
 L  RU2_9
 L  RD2_9
 G  MIN2_10
 L  MAX2_10
 L  SU2_10
 L  RU2_10
 L  RD2_10
 G  MIN2_11
 L  MAX2_11
 L  SU2_11
 L  RU2_11
 L  RD2_11
 G  MIN2_12
 L  MAX2_12
 L  SU2_12
 L  RU2_12
 L  RD2_12
 G  MIN2_13
 L  MAX2_13
 L  SU2_13
 L  RU2_13
 L  RD2_13
 G  MIN2_14
 L  MAX2_14
 L  SU2_14
 L  RU2_14
 L  RD2_14
 G  MIN2_15
 L  MAX2_15
 L  SU2_15
 L  RU2_15
 L  RD2_15
 G  MIN3_0
 L  MAX3_0
 G  MIN3_1
 L  MAX3_1
 L  SU3_1
 L  RU3_1
 L  RD3_1
 G  MIN3_2
 L  MAX3_2
 L  SU3_2
 L  RU3_2
 L  RD3_2
 G  MIN3_3
 L  MAX3_3
 L  SU3_3
 L  RU3_3
 L  RD3_3
 G  MIN3_4
 L  MAX3_4
 L  SU3_4
 L  RU3_4
 L  RD3_4
 G  MIN3_5
 L  MAX3_5
 L  SU3_5
 L  RU3_5
 L  RD3_5
 G  MIN3_6
 L  MAX3_6
 L  SU3_6
 L  RU3_6
 L  RD3_6
 G  MIN3_7
 L  MAX3_7
 L  SU3_7
 L  RU3_7
 L  RD3_7
 G  MIN3_8
 L  MAX3_8
 L  SU3_8
 L  RU3_8
 L  RD3_8
 G  MIN3_9
 L  MAX3_9
 L  SU3_9
 L  RU3_9
 L  RD3_9
 G  MIN3_10
 L  MAX3_10
 L  SU3_10
 L  RU3_10
 L  RD3_10
 G  MIN3_11
 L  MAX3_11
 L  SU3_11
 L  RU3_11
 L  RD3_11
 G  MIN3_12
 L  MAX3_12
 L  SU3_12
 L  RU3_12
 L  RD3_12
 G  MIN3_13
 L  MAX3_13
 L  SU3_13
 L  RU3_13
 L  RD3_13
 G  MIN3_14
 L  MAX3_14
 L  SU3_14
 L  RU3_14
 L  RD3_14
 G  MIN3_15
 L  MAX3_15
 L  SU3_15
 L  RU3_15
 L  RD3_15
 G  MIN4_0
 L  MAX4_0
 G  MIN4_1
 L  MAX4_1
 L  SU4_1
 L  RU4_1
 L  RD4_1
 G  MIN4_2
 L  MAX4_2
 L  SU4_2
 L  RU4_2
 L  RD4_2
 G  MIN4_3
 L  MAX4_3
 L  SU4_3
 L  RU4_3
 L  RD4_3
 G  MIN4_4
 L  MAX4_4
 L  SU4_4
 L  RU4_4
 L  RD4_4
 G  MIN4_5
 L  MAX4_5
 L  SU4_5
 L  RU4_5
 L  RD4_5
 G  MIN4_6
 L  MAX4_6
 L  SU4_6
 L  RU4_6
 L  RD4_6
 G  MIN4_7
 L  MAX4_7
 L  SU4_7
 L  RU4_7
 L  RD4_7
 G  MIN4_8
 L  MAX4_8
 L  SU4_8
 L  RU4_8
 L  RD4_8
 G  MIN4_9
 L  MAX4_9
 L  SU4_9
 L  RU4_9
 L  RD4_9
 G  MIN4_10
 L  MAX4_10
 L  SU4_10
 L  RU4_10
 L  RD4_10
 G  MIN4_11
 L  MAX4_11
 L  SU4_11
 L  RU4_11
 L  RD4_11
 G  MIN4_12
 L  MAX4_12
 L  SU4_12
 L  RU4_12
 L  RD4_12
 G  MIN4_13
 L  MAX4_13
 L  SU4_13
 L  RU4_13
 L  RD4_13
 G  MIN4_14
 L  MAX4_14
 L  SU4_14
 L  RU4_14
 L  RD4_14
 G  MIN4_15
 L  MAX4_15
 L  SU4_15
 L  RU4_15
 L  RD4_15
 G  MIN5_0
 L  MAX5_0
 G  MIN5_1
 L  MAX5_1
 L  SU5_1
 L  RU5_1
 L  RD5_1
 G  MIN5_2
 L  MAX5_2
 L  SU5_2
 L  RU5_2
 L  RD5_2
 G  MIN5_3
 L  MAX5_3
 L  SU5_3
 L  RU5_3
 L  RD5_3
 G  MIN5_4
 L  MAX5_4
 L  SU5_4
 L  RU5_4
 L  RD5_4
 G  MIN5_5
 L  MAX5_5
 L  SU5_5
 L  RU5_5
 L  RD5_5
 G  MIN5_6
 L  MAX5_6
 L  SU5_6
 L  RU5_6
 L  RD5_6
 G  MIN5_7
 L  MAX5_7
 L  SU5_7
 L  RU5_7
 L  RD5_7
 G  MIN5_8
 L  MAX5_8
 L  SU5_8
 L  RU5_8
 L  RD5_8
 G  MIN5_9
 L  MAX5_9
 L  SU5_9
 L  RU5_9
 L  RD5_9
 G  MIN5_10
 L  MAX5_10
 L  SU5_10
 L  RU5_10
 L  RD5_10
 G  MIN5_11
 L  MAX5_11
 L  SU5_11
 L  RU5_11
 L  RD5_11
 G  MIN5_12
 L  MAX5_12
 L  SU5_12
 L  RU5_12
 L  RD5_12
 G  MIN5_13
 L  MAX5_13
 L  SU5_13
 L  RU5_13
 L  RD5_13
 G  MIN5_14
 L  MAX5_14
 L  SU5_14
 L  RU5_14
 L  RD5_14
 G  MIN5_15
 L  MAX5_15
 L  SU5_15
 L  RU5_15
 L  RD5_15
 G  MIN6_0
 L  MAX6_0
 G  MIN6_1
 L  MAX6_1
 L  SU6_1
 L  RU6_1
 L  RD6_1
 G  MIN6_2
 L  MAX6_2
 L  SU6_2
 L  RU6_2
 L  RD6_2
 G  MIN6_3
 L  MAX6_3
 L  SU6_3
 L  RU6_3
 L  RD6_3
 G  MIN6_4
 L  MAX6_4
 L  SU6_4
 L  RU6_4
 L  RD6_4
 G  MIN6_5
 L  MAX6_5
 L  SU6_5
 L  RU6_5
 L  RD6_5
 G  MIN6_6
 L  MAX6_6
 L  SU6_6
 L  RU6_6
 L  RD6_6
 G  MIN6_7
 L  MAX6_7
 L  SU6_7
 L  RU6_7
 L  RD6_7
 G  MIN6_8
 L  MAX6_8
 L  SU6_8
 L  RU6_8
 L  RD6_8
 G  MIN6_9
 L  MAX6_9
 L  SU6_9
 L  RU6_9
 L  RD6_9
 G  MIN6_10
 L  MAX6_10
 L  SU6_10
 L  RU6_10
 L  RD6_10
 G  MIN6_11
 L  MAX6_11
 L  SU6_11
 L  RU6_11
 L  RD6_11
 G  MIN6_12
 L  MAX6_12
 L  SU6_12
 L  RU6_12
 L  RD6_12
 G  MIN6_13
 L  MAX6_13
 L  SU6_13
 L  RU6_13
 L  RD6_13
 G  MIN6_14
 L  MAX6_14
 L  SU6_14
 L  RU6_14
 L  RD6_14
 G  MIN6_15
 L  MAX6_15
 L  SU6_15
 L  RU6_15
 L  RD6_15
 G  MIN7_0
 L  MAX7_0
 G  MIN7_1
 L  MAX7_1
 L  SU7_1
 L  RU7_1
 L  RD7_1
 G  MIN7_2
 L  MAX7_2
 L  SU7_2
 L  RU7_2
 L  RD7_2
 G  MIN7_3
 L  MAX7_3
 L  SU7_3
 L  RU7_3
 L  RD7_3
 G  MIN7_4
 L  MAX7_4
 L  SU7_4
 L  RU7_4
 L  RD7_4
 G  MIN7_5
 L  MAX7_5
 L  SU7_5
 L  RU7_5
 L  RD7_5
 G  MIN7_6
 L  MAX7_6
 L  SU7_6
 L  RU7_6
 L  RD7_6
 G  MIN7_7
 L  MAX7_7
 L  SU7_7
 L  RU7_7
 L  RD7_7
 G  MIN7_8
 L  MAX7_8
 L  SU7_8
 L  RU7_8
 L  RD7_8
 G  MIN7_9
 L  MAX7_9
 L  SU7_9
 L  RU7_9
 L  RD7_9
 G  MIN7_10
 L  MAX7_10
 L  SU7_10
 L  RU7_10
 L  RD7_10
 G  MIN7_11
 L  MAX7_11
 L  SU7_11
 L  RU7_11
 L  RD7_11
 G  MIN7_12
 L  MAX7_12
 L  SU7_12
 L  RU7_12
 L  RD7_12
 G  MIN7_13
 L  MAX7_13
 L  SU7_13
 L  RU7_13
 L  RD7_13
 G  MIN7_14
 L  MAX7_14
 L  SU7_14
 L  RU7_14
 L  RD7_14
 G  MIN7_15
 L  MAX7_15
 L  SU7_15
 L  RU7_15
 L  RD7_15
 G  MIN8_0
 L  MAX8_0
 G  MIN8_1
 L  MAX8_1
 L  SU8_1
 L  RU8_1
 L  RD8_1
 G  MIN8_2
 L  MAX8_2
 L  SU8_2
 L  RU8_2
 L  RD8_2
 G  MIN8_3
 L  MAX8_3
 L  SU8_3
 L  RU8_3
 L  RD8_3
 G  MIN8_4
 L  MAX8_4
 L  SU8_4
 L  RU8_4
 L  RD8_4
 G  MIN8_5
 L  MAX8_5
 L  SU8_5
 L  RU8_5
 L  RD8_5
 G  MIN8_6
 L  MAX8_6
 L  SU8_6
 L  RU8_6
 L  RD8_6
 G  MIN8_7
 L  MAX8_7
 L  SU8_7
 L  RU8_7
 L  RD8_7
 G  MIN8_8
 L  MAX8_8
 L  SU8_8
 L  RU8_8
 L  RD8_8
 G  MIN8_9
 L  MAX8_9
 L  SU8_9
 L  RU8_9
 L  RD8_9
 G  MIN8_10
 L  MAX8_10
 L  SU8_10
 L  RU8_10
 L  RD8_10
 G  MIN8_11
 L  MAX8_11
 L  SU8_11
 L  RU8_11
 L  RD8_11
 G  MIN8_12
 L  MAX8_12
 L  SU8_12
 L  RU8_12
 L  RD8_12
 G  MIN8_13
 L  MAX8_13
 L  SU8_13
 L  RU8_13
 L  RD8_13
 G  MIN8_14
 L  MAX8_14
 L  SU8_14
 L  RU8_14
 L  RD8_14
 G  MIN8_15
 L  MAX8_15
 L  SU8_15
 L  RU8_15
 L  RD8_15
 G  MIN9_0
 L  MAX9_0
 G  MIN9_1
 L  MAX9_1
 L  SU9_1
 L  RU9_1
 L  RD9_1
 G  MIN9_2
 L  MAX9_2
 L  SU9_2
 L  RU9_2
 L  RD9_2
 G  MIN9_3
 L  MAX9_3
 L  SU9_3
 L  RU9_3
 L  RD9_3
 G  MIN9_4
 L  MAX9_4
 L  SU9_4
 L  RU9_4
 L  RD9_4
 G  MIN9_5
 L  MAX9_5
 L  SU9_5
 L  RU9_5
 L  RD9_5
 G  MIN9_6
 L  MAX9_6
 L  SU9_6
 L  RU9_6
 L  RD9_6
 G  MIN9_7
 L  MAX9_7
 L  SU9_7
 L  RU9_7
 L  RD9_7
 G  MIN9_8
 L  MAX9_8
 L  SU9_8
 L  RU9_8
 L  RD9_8
 G  MIN9_9
 L  MAX9_9
 L  SU9_9
 L  RU9_9
 L  RD9_9
 G  MIN9_10
 L  MAX9_10
 L  SU9_10
 L  RU9_10
 L  RD9_10
 G  MIN9_11
 L  MAX9_11
 L  SU9_11
 L  RU9_11
 L  RD9_11
 G  MIN9_12
 L  MAX9_12
 L  SU9_12
 L  RU9_12
 L  RD9_12
 G  MIN9_13
 L  MAX9_13
 L  SU9_13
 L  RU9_13
 L  RD9_13
 G  MIN9_14
 L  MAX9_14
 L  SU9_14
 L  RU9_14
 L  RD9_14
 G  MIN9_15
 L  MAX9_15
 L  SU9_15
 L  RU9_15
 L  RD9_15
 G  BAL0
 G  RES0
 G  BAL1
 G  RES1
 G  BAL2
 G  RES2
 G  BAL3
 G  RES3
 G  BAL4
 G  RES4
 G  BAL5
 G  RES5
 G  BAL6
 G  RES6
 G  BAL7
 G  RES7
 G  BAL8
 G  RES8
 G  BAL9
 G  RES9
 G  BAL10
 G  RES10
 G  BAL11
 G  RES11
 G  BAL12
 G  RES12
 G  BAL13
 G  RES13
 G  BAL14
 G  RES14
 G  BAL15
 G  RES15
COLUMNS
    MARKER0  'MARKER'  'INTORG'
    U0_0  MIN0_0  -8.17100435941
    U0_0  MAX0_0  -75.9576377134
    U0_0  SU0_1  -1
    U0_0  RES0  75.9576377134
    MARKER1  'MARKER'  'INTEND'
    P0_0  COST  21.0082915638
    P0_0  MIN0_0  1
    P0_0  MAX0_0  1
    P0_0  RU0_1  -1
    P0_0  RD0_1  1
    P0_0  BAL0  1
    MARKER2  'MARKER'  'INTORG'
    V0_0  COST  496.292656388
    U0_1  MIN0_1  -8.17100435941
    U0_1  MAX0_1  -75.9576377134
    U0_1  SU0_1  1
    U0_1  SU0_2  -1
    U0_1  RES1  75.9576377134
    MARKER3  'MARKER'  'INTEND'
    P0_1  COST  21.0082915638
    P0_1  MIN0_1  1
    P0_1  MAX0_1  1
    P0_1  RU0_1  1
    P0_1  RD0_1  -1
    P0_1  RU0_2  -1
    P0_1  RD0_2  1
    P0_1  BAL1  1
    MARKER4  'MARKER'  'INTORG'
    V0_1  COST  496.292656388
    V0_1  SU0_1  -1
    U0_2  MIN0_2  -8.17100435941
    U0_2  MAX0_2  -75.9576377134
    U0_2  SU0_2  1
    U0_2  SU0_3  -1
    U0_2  RES2  75.9576377134
    MARKER5  'MARKER'  'INTEND'
    P0_2  COST  21.0082915638
    P0_2  MIN0_2  1
    P0_2  MAX0_2  1
    P0_2  RU0_2  1
    P0_2  RD0_2  -1
    P0_2  RU0_3  -1
    P0_2  RD0_3  1
    P0_2  BAL2  1
    MARKER6  'MARKER'  'INTORG'
    V0_2  COST  496.292656388
    V0_2  SU0_2  -1
    U0_3  MIN0_3  -8.17100435941
    U0_3  MAX0_3  -75.9576377134
    U0_3  SU0_3  1
    U0_3  SU0_4  -1
    U0_3  RES3  75.9576377134
    MARKER7  'MARKER'  'INTEND'
    P0_3  COST  21.0082915638
    P0_3  MIN0_3  1
    P0_3  MAX0_3  1
    P0_3  RU0_3  1
    P0_3  RD0_3  -1
    P0_3  RU0_4  -1
    P0_3  RD0_4  1
    P0_3  BAL3  1
    MARKER8  'MARKER'  'INTORG'
    V0_3  COST  496.292656388
    V0_3  SU0_3  -1
    U0_4  MIN0_4  -8.17100435941
    U0_4  MAX0_4  -75.9576377134
    U0_4  SU0_4  1
    U0_4  SU0_5  -1
    U0_4  RES4  75.9576377134
    MARKER9  'MARKER'  'INTEND'
    P0_4  COST  21.0082915638
    P0_4  MIN0_4  1
    P0_4  MAX0_4  1
    P0_4  RU0_4  1
    P0_4  RD0_4  -1
    P0_4  RU0_5  -1
    P0_4  RD0_5  1
    P0_4  BAL4  1
    MARKER10  'MARKER'  'INTORG'
    V0_4  COST  496.292656388
    V0_4  SU0_4  -1
    U0_5  MIN0_5  -8.17100435941
    U0_5  MAX0_5  -75.9576377134
    U0_5  SU0_5  1
    U0_5  SU0_6  -1
    U0_5  RES5  75.9576377134
    MARKER11  'MARKER'  'INTEND'
    P0_5  COST  21.0082915638
    P0_5  MIN0_5  1
    P0_5  MAX0_5  1
    P0_5  RU0_5  1
    P0_5  RD0_5  -1
    P0_5  RU0_6  -1
    P0_5  RD0_6  1
    P0_5  BAL5  1
    MARKER12  'MARKER'  'INTORG'
    V0_5  COST  496.292656388
    V0_5  SU0_5  -1
    U0_6  MIN0_6  -8.17100435941
    U0_6  MAX0_6  -75.9576377134
    U0_6  SU0_6  1
    U0_6  SU0_7  -1
    U0_6  RES6  75.9576377134
    MARKER13  'MARKER'  'INTEND'
    P0_6  COST  21.0082915638
    P0_6  MIN0_6  1
    P0_6  MAX0_6  1
    P0_6  RU0_6  1
    P0_6  RD0_6  -1
    P0_6  RU0_7  -1
    P0_6  RD0_7  1
    P0_6  BAL6  1
    MARKER14  'MARKER'  'INTORG'
    V0_6  COST  496.292656388
    V0_6  SU0_6  -1
    U0_7  MIN0_7  -8.17100435941
    U0_7  MAX0_7  -75.9576377134
    U0_7  SU0_7  1
    U0_7  SU0_8  -1
    U0_7  RES7  75.9576377134
    MARKER15  'MARKER'  'INTEND'
    P0_7  COST  21.0082915638
    P0_7  MIN0_7  1
    P0_7  MAX0_7  1
    P0_7  RU0_7  1
    P0_7  RD0_7  -1
    P0_7  RU0_8  -1
    P0_7  RD0_8  1
    P0_7  BAL7  1
    MARKER16  'MARKER'  'INTORG'
    V0_7  COST  496.292656388
    V0_7  SU0_7  -1
    U0_8  MIN0_8  -8.17100435941
    U0_8  MAX0_8  -75.9576377134
    U0_8  SU0_8  1
    U0_8  SU0_9  -1
    U0_8  RES8  75.9576377134
    MARKER17  'MARKER'  'INTEND'
    P0_8  COST  21.0082915638
    P0_8  MIN0_8  1
    P0_8  MAX0_8  1
    P0_8  RU0_8  1
    P0_8  RD0_8  -1
    P0_8  RU0_9  -1
    P0_8  RD0_9  1
    P0_8  BAL8  1
    MARKER18  'MARKER'  'INTORG'
    V0_8  COST  496.292656388
    V0_8  SU0_8  -1
    U0_9  MIN0_9  -8.17100435941
    U0_9  MAX0_9  -75.9576377134
    U0_9  SU0_9  1
    U0_9  SU0_10  -1
    U0_9  RES9  75.9576377134
    MARKER19  'MARKER'  'INTEND'
    P0_9  COST  21.0082915638
    P0_9  MIN0_9  1
    P0_9  MAX0_9  1
    P0_9  RU0_9  1
    P0_9  RD0_9  -1
    P0_9  RU0_10  -1
    P0_9  RD0_10  1
    P0_9  BAL9  1
    MARKER20  'MARKER'  'INTORG'
    V0_9  COST  496.292656388
    V0_9  SU0_9  -1
    U0_10  MIN0_10  -8.17100435941
    U0_10  MAX0_10  -75.9576377134
    U0_10  SU0_10  1
    U0_10  SU0_11  -1
    U0_10  RES10  75.9576377134
    MARKER21  'MARKER'  'INTEND'
    P0_10  COST  21.0082915638
    P0_10  MIN0_10  1
    P0_10  MAX0_10  1
    P0_10  RU0_10  1
    P0_10  RD0_10  -1
    P0_10  RU0_11  -1
    P0_10  RD0_11  1
    P0_10  BAL10  1
    MARKER22  'MARKER'  'INTORG'
    V0_10  COST  496.292656388
    V0_10  SU0_10  -1
    U0_11  MIN0_11  -8.17100435941
    U0_11  MAX0_11  -75.9576377134
    U0_11  SU0_11  1
    U0_11  SU0_12  -1
    U0_11  RES11  75.9576377134
    MARKER23  'MARKER'  'INTEND'
    P0_11  COST  21.0082915638
    P0_11  MIN0_11  1
    P0_11  MAX0_11  1
    P0_11  RU0_11  1
    P0_11  RD0_11  -1
    P0_11  RU0_12  -1
    P0_11  RD0_12  1
    P0_11  BAL11  1
    MARKER24  'MARKER'  'INTORG'
    V0_11  COST  496.292656388
    V0_11  SU0_11  -1
    U0_12  MIN0_12  -8.17100435941
    U0_12  MAX0_12  -75.9576377134
    U0_12  SU0_12  1
    U0_12  SU0_13  -1
    U0_12  RES12  75.9576377134
    MARKER25  'MARKER'  'INTEND'
    P0_12  COST  21.0082915638
    P0_12  MIN0_12  1
    P0_12  MAX0_12  1
    P0_12  RU0_12  1
    P0_12  RD0_12  -1
    P0_12  RU0_13  -1
    P0_12  RD0_13  1
    P0_12  BAL12  1
    MARKER26  'MARKER'  'INTORG'
    V0_12  COST  496.292656388
    V0_12  SU0_12  -1
    U0_13  MIN0_13  -8.17100435941
    U0_13  MAX0_13  -75.9576377134
    U0_13  SU0_13  1
    U0_13  SU0_14  -1
    U0_13  RES13  75.9576377134
    MARKER27  'MARKER'  'INTEND'
    P0_13  COST  21.0082915638
    P0_13  MIN0_13  1
    P0_13  MAX0_13  1
    P0_13  RU0_13  1
    P0_13  RD0_13  -1
    P0_13  RU0_14  -1
    P0_13  RD0_14  1
    P0_13  BAL13  1
    MARKER28  'MARKER'  'INTORG'
    V0_13  COST  496.292656388
    V0_13  SU0_13  -1
    U0_14  MIN0_14  -8.17100435941
    U0_14  MAX0_14  -75.9576377134
    U0_14  SU0_14  1
    U0_14  SU0_15  -1
    U0_14  RES14  75.9576377134
    MARKER29  'MARKER'  'INTEND'
    P0_14  COST  21.0082915638
    P0_14  MIN0_14  1
    P0_14  MAX0_14  1
    P0_14  RU0_14  1
    P0_14  RD0_14  -1
    P0_14  RU0_15  -1
    P0_14  RD0_15  1
    P0_14  BAL14  1
    MARKER30  'MARKER'  'INTORG'
    V0_14  COST  496.292656388
    V0_14  SU0_14  -1
    U0_15  MIN0_15  -8.17100435941
    U0_15  MAX0_15  -75.9576377134
    U0_15  SU0_15  1
    U0_15  RES15  75.9576377134
    MARKER31  'MARKER'  'INTEND'
    P0_15  COST  21.0082915638
    P0_15  MIN0_15  1
    P0_15  MAX0_15  1
    P0_15  RU0_15  1
    P0_15  RD0_15  -1
    P0_15  BAL15  1
    MARKER32  'MARKER'  'INTORG'
    V0_15  COST  496.292656388
    V0_15  SU0_15  -1
    U1_0  MIN1_0  -9.42388832945
    U1_0  MAX1_0  -73.0974629125
    U1_0  SU1_1  -1
    U1_0  RES0  73.0974629125
    MARKER33  'MARKER'  'INTEND'
    P1_0  COST  13.3441113039
    P1_0  MIN1_0  1
    P1_0  MAX1_0  1
    P1_0  RU1_1  -1
    P1_0  RD1_1  1
    P1_0  BAL0  1
    MARKER34  'MARKER'  'INTORG'
    V1_0  COST  474.40690906
    U1_1  MIN1_1  -9.42388832945
    U1_1  MAX1_1  -73.0974629125
    U1_1  SU1_1  1
    U1_1  SU1_2  -1
    U1_1  RES1  73.0974629125
    MARKER35  'MARKER'  'INTEND'
    P1_1  COST  13.3441113039
    P1_1  MIN1_1  1
    P1_1  MAX1_1  1
    P1_1  RU1_1  1
    P1_1  RD1_1  -1
    P1_1  RU1_2  -1
    P1_1  RD1_2  1
    P1_1  BAL1  1
    MARKER36  'MARKER'  'INTORG'
    V1_1  COST  474.40690906
    V1_1  SU1_1  -1
    U1_2  MIN1_2  -9.42388832945
    U1_2  MAX1_2  -73.0974629125
    U1_2  SU1_2  1
    U1_2  SU1_3  -1
    U1_2  RES2  73.0974629125
    MARKER37  'MARKER'  'INTEND'
    P1_2  COST  13.3441113039
    P1_2  MIN1_2  1
    P1_2  MAX1_2  1
    P1_2  RU1_2  1
    P1_2  RD1_2  -1
    P1_2  RU1_3  -1
    P1_2  RD1_3  1
    P1_2  BAL2  1
    MARKER38  'MARKER'  'INTORG'
    V1_2  COST  474.40690906
    V1_2  SU1_2  -1
    U1_3  MIN1_3  -9.42388832945
    U1_3  MAX1_3  -73.0974629125
    U1_3  SU1_3  1
    U1_3  SU1_4  -1
    U1_3  RES3  73.0974629125
    MARKER39  'MARKER'  'INTEND'
    P1_3  COST  13.3441113039
    P1_3  MIN1_3  1
    P1_3  MAX1_3  1
    P1_3  RU1_3  1
    P1_3  RD1_3  -1
    P1_3  RU1_4  -1
    P1_3  RD1_4  1
    P1_3  BAL3  1
    MARKER40  'MARKER'  'INTORG'
    V1_3  COST  474.40690906
    V1_3  SU1_3  -1
    U1_4  MIN1_4  -9.42388832945
    U1_4  MAX1_4  -73.0974629125
    U1_4  SU1_4  1
    U1_4  SU1_5  -1
    U1_4  RES4  73.0974629125
    MARKER41  'MARKER'  'INTEND'
    P1_4  COST  13.3441113039
    P1_4  MIN1_4  1
    P1_4  MAX1_4  1
    P1_4  RU1_4  1
    P1_4  RD1_4  -1
    P1_4  RU1_5  -1
    P1_4  RD1_5  1
    P1_4  BAL4  1
    MARKER42  'MARKER'  'INTORG'
    V1_4  COST  474.40690906
    V1_4  SU1_4  -1
    U1_5  MIN1_5  -9.42388832945
    U1_5  MAX1_5  -73.0974629125
    U1_5  SU1_5  1
    U1_5  SU1_6  -1
    U1_5  RES5  73.0974629125
    MARKER43  'MARKER'  'INTEND'
    P1_5  COST  13.3441113039
    P1_5  MIN1_5  1
    P1_5  MAX1_5  1
    P1_5  RU1_5  1
    P1_5  RD1_5  -1
    P1_5  RU1_6  -1
    P1_5  RD1_6  1
    P1_5  BAL5  1
    MARKER44  'MARKER'  'INTORG'
    V1_5  COST  474.40690906
    V1_5  SU1_5  -1
    U1_6  MIN1_6  -9.42388832945
    U1_6  MAX1_6  -73.0974629125
    U1_6  SU1_6  1
    U1_6  SU1_7  -1
    U1_6  RES6  73.0974629125
    MARKER45  'MARKER'  'INTEND'
    P1_6  COST  13.3441113039
    P1_6  MIN1_6  1
    P1_6  MAX1_6  1
    P1_6  RU1_6  1
    P1_6  RD1_6  -1
    P1_6  RU1_7  -1
    P1_6  RD1_7  1
    P1_6  BAL6  1
    MARKER46  'MARKER'  'INTORG'
    V1_6  COST  474.40690906
    V1_6  SU1_6  -1
    U1_7  MIN1_7  -9.42388832945
    U1_7  MAX1_7  -73.0974629125
    U1_7  SU1_7  1
    U1_7  SU1_8  -1
    U1_7  RES7  73.0974629125
    MARKER47  'MARKER'  'INTEND'
    P1_7  COST  13.3441113039
    P1_7  MIN1_7  1
    P1_7  MAX1_7  1
    P1_7  RU1_7  1
    P1_7  RD1_7  -1
    P1_7  RU1_8  -1
    P1_7  RD1_8  1
    P1_7  BAL7  1
    MARKER48  'MARKER'  'INTORG'
    V1_7  COST  474.40690906
    V1_7  SU1_7  -1
    U1_8  MIN1_8  -9.42388832945
    U1_8  MAX1_8  -73.0974629125
    U1_8  SU1_8  1
    U1_8  SU1_9  -1
    U1_8  RES8  73.0974629125
    MARKER49  'MARKER'  'INTEND'
    P1_8  COST  13.3441113039
    P1_8  MIN1_8  1
    P1_8  MAX1_8  1
    P1_8  RU1_8  1
    P1_8  RD1_8  -1
    P1_8  RU1_9  -1
    P1_8  RD1_9  1
    P1_8  BAL8  1
    MARKER50  'MARKER'  'INTORG'
    V1_8  COST  474.40690906
    V1_8  SU1_8  -1
    U1_9  MIN1_9  -9.42388832945
    U1_9  MAX1_9  -73.0974629125
    U1_9  SU1_9  1
    U1_9  SU1_10  -1
    U1_9  RES9  73.0974629125
    MARKER51  'MARKER'  'INTEND'
    P1_9  COST  13.3441113039
    P1_9  MIN1_9  1
    P1_9  MAX1_9  1
    P1_9  RU1_9  1
    P1_9  RD1_9  -1
    P1_9  RU1_10  -1
    P1_9  RD1_10  1
    P1_9  BAL9  1
    MARKER52  'MARKER'  'INTORG'
    V1_9  COST  474.40690906
    V1_9  SU1_9  -1
    U1_10  MIN1_10  -9.42388832945
    U1_10  MAX1_10  -73.0974629125
    U1_10  SU1_10  1
    U1_10  SU1_11  -1
    U1_10  RES10  73.0974629125
    MARKER53  'MARKER'  'INTEND'
    P1_10  COST  13.3441113039
    P1_10  MIN1_10  1
    P1_10  MAX1_10  1
    P1_10  RU1_10  1
    P1_10  RD1_10  -1
    P1_10  RU1_11  -1
    P1_10  RD1_11  1
    P1_10  BAL10  1
    MARKER54  'MARKER'  'INTORG'
    V1_10  COST  474.40690906
    V1_10  SU1_10  -1
    U1_11  MIN1_11  -9.42388832945
    U1_11  MAX1_11  -73.0974629125
    U1_11  SU1_11  1
    U1_11  SU1_12  -1
    U1_11  RES11  73.0974629125
    MARKER55  'MARKER'  'INTEND'
    P1_11  COST  13.3441113039
    P1_11  MIN1_11  1
    P1_11  MAX1_11  1
    P1_11  RU1_11  1
    P1_11  RD1_11  -1
    P1_11  RU1_12  -1
    P1_11  RD1_12  1
    P1_11  BAL11  1
    MARKER56  'MARKER'  'INTORG'
    V1_11  COST  474.40690906
    V1_11  SU1_11  -1
    U1_12  MIN1_12  -9.42388832945
    U1_12  MAX1_12  -73.0974629125
    U1_12  SU1_12  1
    U1_12  SU1_13  -1
    U1_12  RES12  73.0974629125
    MARKER57  'MARKER'  'INTEND'
    P1_12  COST  13.3441113039
    P1_12  MIN1_12  1
    P1_12  MAX1_12  1
    P1_12  RU1_12  1
    P1_12  RD1_12  -1
    P1_12  RU1_13  -1
    P1_12  RD1_13  1
    P1_12  BAL12  1
    MARKER58  'MARKER'  'INTORG'
    V1_12  COST  474.40690906
    V1_12  SU1_12  -1
    U1_13  MIN1_13  -9.42388832945
    U1_13  MAX1_13  -73.0974629125
    U1_13  SU1_13  1
    U1_13  SU1_14  -1
    U1_13  RES13  73.0974629125
    MARKER59  'MARKER'  'INTEND'
    P1_13  COST  13.3441113039
    P1_13  MIN1_13  1
    P1_13  MAX1_13  1
    P1_13  RU1_13  1
    P1_13  RD1_13  -1
    P1_13  RU1_14  -1
    P1_13  RD1_14  1
    P1_13  BAL13  1
    MARKER60  'MARKER'  'INTORG'
    V1_13  COST  474.40690906
    V1_13  SU1_13  -1
    U1_14  MIN1_14  -9.42388832945
    U1_14  MAX1_14  -73.0974629125
    U1_14  SU1_14  1
    U1_14  SU1_15  -1
    U1_14  RES14  73.0974629125
    MARKER61  'MARKER'  'INTEND'
    P1_14  COST  13.3441113039
    P1_14  MIN1_14  1
    P1_14  MAX1_14  1
    P1_14  RU1_14  1
    P1_14  RD1_14  -1
    P1_14  RU1_15  -1
    P1_14  RD1_15  1
    P1_14  BAL14  1
    MARKER62  'MARKER'  'INTORG'
    V1_14  COST  474.40690906
    V1_14  SU1_14  -1
    U1_15  MIN1_15  -9.42388832945
    U1_15  MAX1_15  -73.0974629125
    U1_15  SU1_15  1
    U1_15  RES15  73.0974629125
    MARKER63  'MARKER'  'INTEND'
    P1_15  COST  13.3441113039
    P1_15  MIN1_15  1
    P1_15  MAX1_15  1
    P1_15  RU1_15  1
    P1_15  RD1_15  -1
    P1_15  BAL15  1
    MARKER64  'MARKER'  'INTORG'
    V1_15  COST  474.40690906
    V1_15  SU1_15  -1
    U2_0  MIN2_0  -37.0363278468
    U2_0  MAX2_0  -85.3400955994
    U2_0  SU2_1  -1
    U2_0  RES0  85.3400955994
    MARKER65  'MARKER'  'INTEND'
    P2_0  COST  15.5890881896
    P2_0  MIN2_0  1
    P2_0  MAX2_0  1
    P2_0  RU2_1  -1
    P2_0  RD2_1  1
    P2_0  BAL0  1
    MARKER66  'MARKER'  'INTORG'
    V2_0  COST  224.740032579
    U2_1  MIN2_1  -37.0363278468
    U2_1  MAX2_1  -85.3400955994
    U2_1  SU2_1  1
    U2_1  SU2_2  -1
    U2_1  RES1  85.3400955994
    MARKER67  'MARKER'  'INTEND'
    P2_1  COST  15.5890881896
    P2_1  MIN2_1  1
    P2_1  MAX2_1  1
    P2_1  RU2_1  1
    P2_1  RD2_1  -1
    P2_1  RU2_2  -1
    P2_1  RD2_2  1
    P2_1  BAL1  1
    MARKER68  'MARKER'  'INTORG'
    V2_1  COST  224.740032579
    V2_1  SU2_1  -1
    U2_2  MIN2_2  -37.0363278468
    U2_2  MAX2_2  -85.3400955994
    U2_2  SU2_2  1
    U2_2  SU2_3  -1
    U2_2  RES2  85.3400955994
    MARKER69  'MARKER'  'INTEND'
    P2_2  COST  15.5890881896
    P2_2  MIN2_2  1
    P2_2  MAX2_2  1
    P2_2  RU2_2  1
    P2_2  RD2_2  -1
    P2_2  RU2_3  -1
    P2_2  RD2_3  1
    P2_2  BAL2  1
    MARKER70  'MARKER'  'INTORG'
    V2_2  COST  224.740032579
    V2_2  SU2_2  -1
    U2_3  MIN2_3  -37.0363278468
    U2_3  MAX2_3  -85.3400955994
    U2_3  SU2_3  1
    U2_3  SU2_4  -1
    U2_3  RES3  85.3400955994
    MARKER71  'MARKER'  'INTEND'
    P2_3  COST  15.5890881896
    P2_3  MIN2_3  1
    P2_3  MAX2_3  1
    P2_3  RU2_3  1
    P2_3  RD2_3  -1
    P2_3  RU2_4  -1
    P2_3  RD2_4  1
    P2_3  BAL3  1
    MARKER72  'MARKER'  'INTORG'
    V2_3  COST  224.740032579
    V2_3  SU2_3  -1
    U2_4  MIN2_4  -37.0363278468
    U2_4  MAX2_4  -85.3400955994
    U2_4  SU2_4  1
    U2_4  SU2_5  -1
    U2_4  RES4  85.3400955994
    MARKER73  'MARKER'  'INTEND'
    P2_4  COST  15.5890881896
    P2_4  MIN2_4  1
    P2_4  MAX2_4  1
    P2_4  RU2_4  1
    P2_4  RD2_4  -1
    P2_4  RU2_5  -1
    P2_4  RD2_5  1
    P2_4  BAL4  1
    MARKER74  'MARKER'  'INTORG'
    V2_4  COST  224.740032579
    V2_4  SU2_4  -1
    U2_5  MIN2_5  -37.0363278468
    U2_5  MAX2_5  -85.3400955994
    U2_5  SU2_5  1
    U2_5  SU2_6  -1
    U2_5  RES5  85.3400955994
    MARKER75  'MARKER'  'INTEND'
    P2_5  COST  15.5890881896
    P2_5  MIN2_5  1
    P2_5  MAX2_5  1
    P2_5  RU2_5  1
    P2_5  RD2_5  -1
    P2_5  RU2_6  -1
    P2_5  RD2_6  1
    P2_5  BAL5  1
    MARKER76  'MARKER'  'INTORG'
    V2_5  COST  224.740032579
    V2_5  SU2_5  -1
    U2_6  MIN2_6  -37.0363278468
    U2_6  MAX2_6  -85.3400955994
    U2_6  SU2_6  1
    U2_6  SU2_7  -1
    U2_6  RES6  85.3400955994
    MARKER77  'MARKER'  'INTEND'
    P2_6  COST  15.5890881896
    P2_6  MIN2_6  1
    P2_6  MAX2_6  1
    P2_6  RU2_6  1
    P2_6  RD2_6  -1
    P2_6  RU2_7  -1
    P2_6  RD2_7  1
    P2_6  BAL6  1
    MARKER78  'MARKER'  'INTORG'
    V2_6  COST  224.740032579
    V2_6  SU2_6  -1
    U2_7  MIN2_7  -37.0363278468
    U2_7  MAX2_7  -85.3400955994
    U2_7  SU2_7  1
    U2_7  SU2_8  -1
    U2_7  RES7  85.3400955994
    MARKER79  'MARKER'  'INTEND'
    P2_7  COST  15.5890881896
    P2_7  MIN2_7  1
    P2_7  MAX2_7  1
    P2_7  RU2_7  1
    P2_7  RD2_7  -1
    P2_7  RU2_8  -1
    P2_7  RD2_8  1
    P2_7  BAL7  1
    MARKER80  'MARKER'  'INTORG'
    V2_7  COST  224.740032579
    V2_7  SU2_7  -1
    U2_8  MIN2_8  -37.0363278468
    U2_8  MAX2_8  -85.3400955994
    U2_8  SU2_8  1
    U2_8  SU2_9  -1
    U2_8  RES8  85.3400955994
    MARKER81  'MARKER'  'INTEND'
    P2_8  COST  15.5890881896
    P2_8  MIN2_8  1
    P2_8  MAX2_8  1
    P2_8  RU2_8  1
    P2_8  RD2_8  -1
    P2_8  RU2_9  -1
    P2_8  RD2_9  1
    P2_8  BAL8  1
    MARKER82  'MARKER'  'INTORG'
    V2_8  COST  224.740032579
    V2_8  SU2_8  -1
    U2_9  MIN2_9  -37.0363278468
    U2_9  MAX2_9  -85.3400955994
    U2_9  SU2_9  1
    U2_9  SU2_10  -1
    U2_9  RES9  85.3400955994
    MARKER83  'MARKER'  'INTEND'
    P2_9  COST  15.5890881896
    P2_9  MIN2_9  1
    P2_9  MAX2_9  1
    P2_9  RU2_9  1
    P2_9  RD2_9  -1
    P2_9  RU2_10  -1
    P2_9  RD2_10  1
    P2_9  BAL9  1
    MARKER84  'MARKER'  'INTORG'
    V2_9  COST  224.740032579
    V2_9  SU2_9  -1
    U2_10  MIN2_10  -37.0363278468
    U2_10  MAX2_10  -85.3400955994
    U2_10  SU2_10  1
    U2_10  SU2_11  -1
    U2_10  RES10  85.3400955994
    MARKER85  'MARKER'  'INTEND'
    P2_10  COST  15.5890881896
    P2_10  MIN2_10  1
    P2_10  MAX2_10  1
    P2_10  RU2_10  1
    P2_10  RD2_10  -1
    P2_10  RU2_11  -1
    P2_10  RD2_11  1
    P2_10  BAL10  1
    MARKER86  'MARKER'  'INTORG'
    V2_10  COST  224.740032579
    V2_10  SU2_10  -1
    U2_11  MIN2_11  -37.0363278468
    U2_11  MAX2_11  -85.3400955994
    U2_11  SU2_11  1
    U2_11  SU2_12  -1
    U2_11  RES11  85.3400955994
    MARKER87  'MARKER'  'INTEND'
    P2_11  COST  15.5890881896
    P2_11  MIN2_11  1
    P2_11  MAX2_11  1
    P2_11  RU2_11  1
    P2_11  RD2_11  -1
    P2_11  RU2_12  -1
    P2_11  RD2_12  1
    P2_11  BAL11  1
    MARKER88  'MARKER'  'INTORG'
    V2_11  COST  224.740032579
    V2_11  SU2_11  -1
    U2_12  MIN2_12  -37.0363278468
    U2_12  MAX2_12  -85.3400955994
    U2_12  SU2_12  1
    U2_12  SU2_13  -1
    U2_12  RES12  85.3400955994
    MARKER89  'MARKER'  'INTEND'
    P2_12  COST  15.5890881896
    P2_12  MIN2_12  1
    P2_12  MAX2_12  1
    P2_12  RU2_12  1
    P2_12  RD2_12  -1
    P2_12  RU2_13  -1
    P2_12  RD2_13  1
    P2_12  BAL12  1
    MARKER90  'MARKER'  'INTORG'
    V2_12  COST  224.740032579
    V2_12  SU2_12  -1
    U2_13  MIN2_13  -37.0363278468
    U2_13  MAX2_13  -85.3400955994
    U2_13  SU2_13  1
    U2_13  SU2_14  -1
    U2_13  RES13  85.3400955994
    MARKER91  'MARKER'  'INTEND'
    P2_13  COST  15.5890881896
    P2_13  MIN2_13  1
    P2_13  MAX2_13  1
    P2_13  RU2_13  1
    P2_13  RD2_13  -1
    P2_13  RU2_14  -1
    P2_13  RD2_14  1
    P2_13  BAL13  1
    MARKER92  'MARKER'  'INTORG'
    V2_13  COST  224.740032579
    V2_13  SU2_13  -1
    U2_14  MIN2_14  -37.0363278468
    U2_14  MAX2_14  -85.3400955994
    U2_14  SU2_14  1
    U2_14  SU2_15  -1
    U2_14  RES14  85.3400955994
    MARKER93  'MARKER'  'INTEND'
    P2_14  COST  15.5890881896
    P2_14  MIN2_14  1
    P2_14  MAX2_14  1
    P2_14  RU2_14  1
    P2_14  RD2_14  -1
    P2_14  RU2_15  -1
    P2_14  RD2_15  1
    P2_14  BAL14  1
    MARKER94  'MARKER'  'INTORG'
    V2_14  COST  224.740032579
    V2_14  SU2_14  -1
    U2_15  MIN2_15  -37.0363278468
    U2_15  MAX2_15  -85.3400955994
    U2_15  SU2_15  1
    U2_15  RES15  85.3400955994
    MARKER95  'MARKER'  'INTEND'
    P2_15  COST  15.5890881896
    P2_15  MIN2_15  1
    P2_15  MAX2_15  1
    P2_15  RU2_15  1
    P2_15  RD2_15  -1
    P2_15  BAL15  1
    MARKER96  'MARKER'  'INTORG'
    V2_15  COST  224.740032579
    V2_15  SU2_15  -1
    U3_0  MIN3_0  -13.1981228056
    U3_0  MAX3_0  -166.752972829
    U3_0  SU3_1  -1
    U3_0  RES0  166.752972829
    MARKER97  'MARKER'  'INTEND'
    P3_0  COST  12.3602174109
    P3_0  MIN3_0  1
    P3_0  MAX3_0  1
    P3_0  RU3_1  -1
    P3_0  RD3_1  1
    P3_0  BAL0  1
    MARKER98  'MARKER'  'INTORG'
    V3_0  COST  646.427466003
    U3_1  MIN3_1  -13.1981228056
    U3_1  MAX3_1  -166.752972829
    U3_1  SU3_1  1
    U3_1  SU3_2  -1
    U3_1  RES1  166.752972829
    MARKER99  'MARKER'  'INTEND'
    P3_1  COST  12.3602174109
    P3_1  MIN3_1  1
    P3_1  MAX3_1  1
    P3_1  RU3_1  1
    P3_1  RD3_1  -1
    P3_1  RU3_2  -1
    P3_1  RD3_2  1
    P3_1  BAL1  1
    MARKER100  'MARKER'  'INTORG'
    V3_1  COST  646.427466003
    V3_1  SU3_1  -1
    U3_2  MIN3_2  -13.1981228056
    U3_2  MAX3_2  -166.752972829
    U3_2  SU3_2  1
    U3_2  SU3_3  -1
    U3_2  RES2  166.752972829
    MARKER101  'MARKER'  'INTEND'
    P3_2  COST  12.3602174109
    P3_2  MIN3_2  1
    P3_2  MAX3_2  1
    P3_2  RU3_2  1
    P3_2  RD3_2  -1
    P3_2  RU3_3  -1
    P3_2  RD3_3  1
    P3_2  BAL2  1
    MARKER102  'MARKER'  'INTORG'
    V3_2  COST  646.427466003
    V3_2  SU3_2  -1
    U3_3  MIN3_3  -13.1981228056
    U3_3  MAX3_3  -166.752972829
    U3_3  SU3_3  1
    U3_3  SU3_4  -1
    U3_3  RES3  166.752972829
    MARKER103  'MARKER'  'INTEND'
    P3_3  COST  12.3602174109
    P3_3  MIN3_3  1
    P3_3  MAX3_3  1
    P3_3  RU3_3  1
    P3_3  RD3_3  -1
    P3_3  RU3_4  -1
    P3_3  RD3_4  1
    P3_3  BAL3  1
    MARKER104  'MARKER'  'INTORG'
    V3_3  COST  646.427466003
    V3_3  SU3_3  -1
    U3_4  MIN3_4  -13.1981228056
    U3_4  MAX3_4  -166.752972829
    U3_4  SU3_4  1
    U3_4  SU3_5  -1
    U3_4  RES4  166.752972829
    MARKER105  'MARKER'  'INTEND'
    P3_4  COST  12.3602174109
    P3_4  MIN3_4  1
    P3_4  MAX3_4  1
    P3_4  RU3_4  1
    P3_4  RD3_4  -1
    P3_4  RU3_5  -1
    P3_4  RD3_5  1
    P3_4  BAL4  1
    MARKER106  'MARKER'  'INTORG'
    V3_4  COST  646.427466003
    V3_4  SU3_4  -1
    U3_5  MIN3_5  -13.1981228056
    U3_5  MAX3_5  -166.752972829
    U3_5  SU3_5  1
    U3_5  SU3_6  -1
    U3_5  RES5  166.752972829
    MARKER107  'MARKER'  'INTEND'
    P3_5  COST  12.3602174109
    P3_5  MIN3_5  1
    P3_5  MAX3_5  1
    P3_5  RU3_5  1
    P3_5  RD3_5  -1
    P3_5  RU3_6  -1
    P3_5  RD3_6  1
    P3_5  BAL5  1
    MARKER108  'MARKER'  'INTORG'
    V3_5  COST  646.427466003
    V3_5  SU3_5  -1
    U3_6  MIN3_6  -13.1981228056
    U3_6  MAX3_6  -166.752972829
    U3_6  SU3_6  1
    U3_6  SU3_7  -1
    U3_6  RES6  166.752972829
    MARKER109  'MARKER'  'INTEND'
    P3_6  COST  12.3602174109
    P3_6  MIN3_6  1
    P3_6  MAX3_6  1
    P3_6  RU3_6  1
    P3_6  RD3_6  -1
    P3_6  RU3_7  -1
    P3_6  RD3_7  1
    P3_6  BAL6  1
    MARKER110  'MARKER'  'INTORG'
    V3_6  COST  646.427466003
    V3_6  SU3_6  -1
    U3_7  MIN3_7  -13.1981228056
    U3_7  MAX3_7  -166.752972829
    U3_7  SU3_7  1
    U3_7  SU3_8  -1
    U3_7  RES7  166.752972829
    MARKER111  'MARKER'  'INTEND'
    P3_7  COST  12.3602174109
    P3_7  MIN3_7  1
    P3_7  MAX3_7  1
    P3_7  RU3_7  1
    P3_7  RD3_7  -1
    P3_7  RU3_8  -1
    P3_7  RD3_8  1
    P3_7  BAL7  1
    MARKER112  'MARKER'  'INTORG'
    V3_7  COST  646.427466003
    V3_7  SU3_7  -1
    U3_8  MIN3_8  -13.1981228056
    U3_8  MAX3_8  -166.752972829
    U3_8  SU3_8  1
    U3_8  SU3_9  -1
    U3_8  RES8  166.752972829
    MARKER113  'MARKER'  'INTEND'
    P3_8  COST  12.3602174109
    P3_8  MIN3_8  1
    P3_8  MAX3_8  1
    P3_8  RU3_8  1
    P3_8  RD3_8  -1
    P3_8  RU3_9  -1
    P3_8  RD3_9  1
    P3_8  BAL8  1
    MARKER114  'MARKER'  'INTORG'
    V3_8  COST  646.427466003
    V3_8  SU3_8  -1
    U3_9  MIN3_9  -13.1981228056
    U3_9  MAX3_9  -166.752972829
    U3_9  SU3_9  1
    U3_9  SU3_10  -1
    U3_9  RES9  166.752972829
    MARKER115  'MARKER'  'INTEND'
    P3_9  COST  12.3602174109
    P3_9  MIN3_9  1
    P3_9  MAX3_9  1
    P3_9  RU3_9  1
    P3_9  RD3_9  -1
    P3_9  RU3_10  -1
    P3_9  RD3_10  1
    P3_9  BAL9  1
    MARKER116  'MARKER'  'INTORG'
    V3_9  COST  646.427466003
    V3_9  SU3_9  -1
    U3_10  MIN3_10  -13.1981228056
    U3_10  MAX3_10  -166.752972829
    U3_10  SU3_10  1
    U3_10  SU3_11  -1
    U3_10  RES10  166.752972829
    MARKER117  'MARKER'  'INTEND'
    P3_10  COST  12.3602174109
    P3_10  MIN3_10  1
    P3_10  MAX3_10  1
    P3_10  RU3_10  1
    P3_10  RD3_10  -1
    P3_10  RU3_11  -1
    P3_10  RD3_11  1
    P3_10  BAL10  1
    MARKER118  'MARKER'  'INTORG'
    V3_10  COST  646.427466003
    V3_10  SU3_10  -1
    U3_11  MIN3_11  -13.1981228056
    U3_11  MAX3_11  -166.752972829
    U3_11  SU3_11  1
    U3_11  SU3_12  -1
    U3_11  RES11  166.752972829
    MARKER119  'MARKER'  'INTEND'
    P3_11  COST  12.3602174109
    P3_11  MIN3_11  1
    P3_11  MAX3_11  1
    P3_11  RU3_11  1
    P3_11  RD3_11  -1
    P3_11  RU3_12  -1
    P3_11  RD3_12  1
    P3_11  BAL11  1
    MARKER120  'MARKER'  'INTORG'
    V3_11  COST  646.427466003
    V3_11  SU3_11  -1
    U3_12  MIN3_12  -13.1981228056
    U3_12  MAX3_12  -166.752972829
    U3_12  SU3_12  1
    U3_12  SU3_13  -1
    U3_12  RES12  166.752972829
    MARKER121  'MARKER'  'INTEND'
    P3_12  COST  12.3602174109
    P3_12  MIN3_12  1
    P3_12  MAX3_12  1
    P3_12  RU3_12  1
    P3_12  RD3_12  -1
    P3_12  RU3_13  -1
    P3_12  RD3_13  1
    P3_12  BAL12  1
    MARKER122  'MARKER'  'INTORG'
    V3_12  COST  646.427466003
    V3_12  SU3_12  -1
    U3_13  MIN3_13  -13.1981228056
    U3_13  MAX3_13  -166.752972829
    U3_13  SU3_13  1
    U3_13  SU3_14  -1
    U3_13  RES13  166.752972829
    MARKER123  'MARKER'  'INTEND'
    P3_13  COST  12.3602174109
    P3_13  MIN3_13  1
    P3_13  MAX3_13  1
    P3_13  RU3_13  1
    P3_13  RD3_13  -1
    P3_13  RU3_14  -1
    P3_13  RD3_14  1
    P3_13  BAL13  1
    MARKER124  'MARKER'  'INTORG'
    V3_13  COST  646.427466003
    V3_13  SU3_13  -1
    U3_14  MIN3_14  -13.1981228056
    U3_14  MAX3_14  -166.752972829
    U3_14  SU3_14  1
    U3_14  SU3_15  -1
    U3_14  RES14  166.752972829
    MARKER125  'MARKER'  'INTEND'
    P3_14  COST  12.3602174109
    P3_14  MIN3_14  1
    P3_14  MAX3_14  1
    P3_14  RU3_14  1
    P3_14  RD3_14  -1
    P3_14  RU3_15  -1
    P3_14  RD3_15  1
    P3_14  BAL14  1
    MARKER126  'MARKER'  'INTORG'
    V3_14  COST  646.427466003
    V3_14  SU3_14  -1
    U3_15  MIN3_15  -13.1981228056
    U3_15  MAX3_15  -166.752972829
    U3_15  SU3_15  1
    U3_15  RES15  166.752972829
    MARKER127  'MARKER'  'INTEND'
    P3_15  COST  12.3602174109
    P3_15  MIN3_15  1
    P3_15  MAX3_15  1
    P3_15  RU3_15  1
    P3_15  RD3_15  -1
    P3_15  BAL15  1
    MARKER128  'MARKER'  'INTORG'
    V3_15  COST  646.427466003
    V3_15  SU3_15  -1
    U4_0  MIN4_0  -32.476896021
    U4_0  MAX4_0  -88.8568904332
    U4_0  SU4_1  -1
    U4_0  RES0  88.8568904332
    MARKER129  'MARKER'  'INTEND'
    P4_0  COST  31.8824450951
    P4_0  MIN4_0  1
    P4_0  MAX4_0  1
    P4_0  RU4_1  -1
    P4_0  RD4_1  1
    P4_0  BAL0  1
    MARKER130  'MARKER'  'INTORG'
    V4_0  COST  517.385185309
    U4_1  MIN4_1  -32.476896021
    U4_1  MAX4_1  -88.8568904332
    U4_1  SU4_1  1
    U4_1  SU4_2  -1
    U4_1  RES1  88.8568904332
    MARKER131  'MARKER'  'INTEND'
    P4_1  COST  31.8824450951
    P4_1  MIN4_1  1
    P4_1  MAX4_1  1
    P4_1  RU4_1  1
    P4_1  RD4_1  -1
    P4_1  RU4_2  -1
    P4_1  RD4_2  1
    P4_1  BAL1  1
    MARKER132  'MARKER'  'INTORG'
    V4_1  COST  517.385185309
    V4_1  SU4_1  -1
    U4_2  MIN4_2  -32.476896021
    U4_2  MAX4_2  -88.8568904332
    U4_2  SU4_2  1
    U4_2  SU4_3  -1
    U4_2  RES2  88.8568904332
    MARKER133  'MARKER'  'INTEND'
    P4_2  COST  31.8824450951
    P4_2  MIN4_2  1
    P4_2  MAX4_2  1
    P4_2  RU4_2  1
    P4_2  RD4_2  -1
    P4_2  RU4_3  -1
    P4_2  RD4_3  1
    P4_2  BAL2  1
    MARKER134  'MARKER'  'INTORG'
    V4_2  COST  517.385185309
    V4_2  SU4_2  -1
    U4_3  MIN4_3  -32.476896021
    U4_3  MAX4_3  -88.8568904332
    U4_3  SU4_3  1
    U4_3  SU4_4  -1
    U4_3  RES3  88.8568904332
    MARKER135  'MARKER'  'INTEND'
    P4_3  COST  31.8824450951
    P4_3  MIN4_3  1
    P4_3  MAX4_3  1
    P4_3  RU4_3  1
    P4_3  RD4_3  -1
    P4_3  RU4_4  -1
    P4_3  RD4_4  1
    P4_3  BAL3  1
    MARKER136  'MARKER'  'INTORG'
    V4_3  COST  517.385185309
    V4_3  SU4_3  -1
    U4_4  MIN4_4  -32.476896021
    U4_4  MAX4_4  -88.8568904332
    U4_4  SU4_4  1
    U4_4  SU4_5  -1
    U4_4  RES4  88.8568904332
    MARKER137  'MARKER'  'INTEND'
    P4_4  COST  31.8824450951
    P4_4  MIN4_4  1
    P4_4  MAX4_4  1
    P4_4  RU4_4  1
    P4_4  RD4_4  -1
    P4_4  RU4_5  -1
    P4_4  RD4_5  1
    P4_4  BAL4  1
    MARKER138  'MARKER'  'INTORG'
    V4_4  COST  517.385185309
    V4_4  SU4_4  -1
    U4_5  MIN4_5  -32.476896021
    U4_5  MAX4_5  -88.8568904332
    U4_5  SU4_5  1
    U4_5  SU4_6  -1
    U4_5  RES5  88.8568904332
    MARKER139  'MARKER'  'INTEND'
    P4_5  COST  31.8824450951
    P4_5  MIN4_5  1
    P4_5  MAX4_5  1
    P4_5  RU4_5  1
    P4_5  RD4_5  -1
    P4_5  RU4_6  -1
    P4_5  RD4_6  1
    P4_5  BAL5  1
    MARKER140  'MARKER'  'INTORG'
    V4_5  COST  517.385185309
    V4_5  SU4_5  -1
    U4_6  MIN4_6  -32.476896021
    U4_6  MAX4_6  -88.8568904332
    U4_6  SU4_6  1
    U4_6  SU4_7  -1
    U4_6  RES6  88.8568904332
    MARKER141  'MARKER'  'INTEND'
    P4_6  COST  31.8824450951
    P4_6  MIN4_6  1
    P4_6  MAX4_6  1
    P4_6  RU4_6  1
    P4_6  RD4_6  -1
    P4_6  RU4_7  -1
    P4_6  RD4_7  1
    P4_6  BAL6  1
    MARKER142  'MARKER'  'INTORG'
    V4_6  COST  517.385185309
    V4_6  SU4_6  -1
    U4_7  MIN4_7  -32.476896021
    U4_7  MAX4_7  -88.8568904332
    U4_7  SU4_7  1
    U4_7  SU4_8  -1
    U4_7  RES7  88.8568904332
    MARKER143  'MARKER'  'INTEND'
    P4_7  COST  31.8824450951
    P4_7  MIN4_7  1
    P4_7  MAX4_7  1
    P4_7  RU4_7  1
    P4_7  RD4_7  -1
    P4_7  RU4_8  -1
    P4_7  RD4_8  1
    P4_7  BAL7  1
    MARKER144  'MARKER'  'INTORG'
    V4_7  COST  517.385185309
    V4_7  SU4_7  -1
    U4_8  MIN4_8  -32.476896021
    U4_8  MAX4_8  -88.8568904332
    U4_8  SU4_8  1
    U4_8  SU4_9  -1
    U4_8  RES8  88.8568904332
    MARKER145  'MARKER'  'INTEND'
    P4_8  COST  31.8824450951
    P4_8  MIN4_8  1
    P4_8  MAX4_8  1
    P4_8  RU4_8  1
    P4_8  RD4_8  -1
    P4_8  RU4_9  -1
    P4_8  RD4_9  1
    P4_8  BAL8  1
    MARKER146  'MARKER'  'INTORG'
    V4_8  COST  517.385185309
    V4_8  SU4_8  -1
    U4_9  MIN4_9  -32.476896021
    U4_9  MAX4_9  -88.8568904332
    U4_9  SU4_9  1
    U4_9  SU4_10  -1
    U4_9  RES9  88.8568904332
    MARKER147  'MARKER'  'INTEND'
    P4_9  COST  31.8824450951
    P4_9  MIN4_9  1
    P4_9  MAX4_9  1
    P4_9  RU4_9  1
    P4_9  RD4_9  -1
    P4_9  RU4_10  -1
    P4_9  RD4_10  1
    P4_9  BAL9  1
    MARKER148  'MARKER'  'INTORG'
    V4_9  COST  517.385185309
    V4_9  SU4_9  -1
    U4_10  MIN4_10  -32.476896021
    U4_10  MAX4_10  -88.8568904332
    U4_10  SU4_10  1
    U4_10  SU4_11  -1
    U4_10  RES10  88.8568904332
    MARKER149  'MARKER'  'INTEND'
    P4_10  COST  31.8824450951
    P4_10  MIN4_10  1
    P4_10  MAX4_10  1
    P4_10  RU4_10  1
    P4_10  RD4_10  -1
    P4_10  RU4_11  -1
    P4_10  RD4_11  1
    P4_10  BAL10  1
    MARKER150  'MARKER'  'INTORG'
    V4_10  COST  517.385185309
    V4_10  SU4_10  -1
    U4_11  MIN4_11  -32.476896021
    U4_11  MAX4_11  -88.8568904332
    U4_11  SU4_11  1
    U4_11  SU4_12  -1
    U4_11  RES11  88.8568904332
    MARKER151  'MARKER'  'INTEND'
    P4_11  COST  31.8824450951
    P4_11  MIN4_11  1
    P4_11  MAX4_11  1
    P4_11  RU4_11  1
    P4_11  RD4_11  -1
    P4_11  RU4_12  -1
    P4_11  RD4_12  1
    P4_11  BAL11  1
    MARKER152  'MARKER'  'INTORG'
    V4_11  COST  517.385185309
    V4_11  SU4_11  -1
    U4_12  MIN4_12  -32.476896021
    U4_12  MAX4_12  -88.8568904332
    U4_12  SU4_12  1
    U4_12  SU4_13  -1
    U4_12  RES12  88.8568904332
    MARKER153  'MARKER'  'INTEND'
    P4_12  COST  31.8824450951
    P4_12  MIN4_12  1
    P4_12  MAX4_12  1
    P4_12  RU4_12  1
    P4_12  RD4_12  -1
    P4_12  RU4_13  -1
    P4_12  RD4_13  1
    P4_12  BAL12  1
    MARKER154  'MARKER'  'INTORG'
    V4_12  COST  517.385185309
    V4_12  SU4_12  -1
    U4_13  MIN4_13  -32.476896021
    U4_13  MAX4_13  -88.8568904332
    U4_13  SU4_13  1
    U4_13  SU4_14  -1
    U4_13  RES13  88.8568904332
    MARKER155  'MARKER'  'INTEND'
    P4_13  COST  31.8824450951
    P4_13  MIN4_13  1
    P4_13  MAX4_13  1
    P4_13  RU4_13  1
    P4_13  RD4_13  -1
    P4_13  RU4_14  -1
    P4_13  RD4_14  1
    P4_13  BAL13  1
    MARKER156  'MARKER'  'INTORG'
    V4_13  COST  517.385185309
    V4_13  SU4_13  -1
    U4_14  MIN4_14  -32.476896021
    U4_14  MAX4_14  -88.8568904332
    U4_14  SU4_14  1
    U4_14  SU4_15  -1
    U4_14  RES14  88.8568904332
    MARKER157  'MARKER'  'INTEND'
    P4_14  COST  31.8824450951
    P4_14  MIN4_14  1
    P4_14  MAX4_14  1
    P4_14  RU4_14  1
    P4_14  RD4_14  -1
    P4_14  RU4_15  -1
    P4_14  RD4_15  1
    P4_14  BAL14  1
    MARKER158  'MARKER'  'INTORG'
    V4_14  COST  517.385185309
    V4_14  SU4_14  -1
    U4_15  MIN4_15  -32.476896021
    U4_15  MAX4_15  -88.8568904332
    U4_15  SU4_15  1
    U4_15  RES15  88.8568904332
    MARKER159  'MARKER'  'INTEND'
    P4_15  COST  31.8824450951
    P4_15  MIN4_15  1
    P4_15  MAX4_15  1
    P4_15  RU4_15  1
    P4_15  RD4_15  -1
    P4_15  BAL15  1
    MARKER160  'MARKER'  'INTORG'
    V4_15  COST  517.385185309
    V4_15  SU4_15  -1
    U5_0  MIN5_0  -23.9391526316
    U5_0  MAX5_0  -111.730622908
    U5_0  SU5_1  -1
    U5_0  RES0  111.730622908
    MARKER161  'MARKER'  'INTEND'
    P5_0  COST  25.8431538377
    P5_0  MIN5_0  1
    P5_0  MAX5_0  1
    P5_0  RU5_1  -1
    P5_0  RD5_1  1
    P5_0  BAL0  1
    MARKER162  'MARKER'  'INTORG'
    V5_0  COST  184.941883957
    U5_1  MIN5_1  -23.9391526316
    U5_1  MAX5_1  -111.730622908
    U5_1  SU5_1  1
    U5_1  SU5_2  -1
    U5_1  RES1  111.730622908
    MARKER163  'MARKER'  'INTEND'
    P5_1  COST  25.8431538377
    P5_1  MIN5_1  1
    P5_1  MAX5_1  1
    P5_1  RU5_1  1
    P5_1  RD5_1  -1
    P5_1  RU5_2  -1
    P5_1  RD5_2  1
    P5_1  BAL1  1
    MARKER164  'MARKER'  'INTORG'
    V5_1  COST  184.941883957
    V5_1  SU5_1  -1
    U5_2  MIN5_2  -23.9391526316
    U5_2  MAX5_2  -111.730622908
    U5_2  SU5_2  1
    U5_2  SU5_3  -1
    U5_2  RES2  111.730622908
    MARKER165  'MARKER'  'INTEND'
    P5_2  COST  25.8431538377
    P5_2  MIN5_2  1
    P5_2  MAX5_2  1
    P5_2  RU5_2  1
    P5_2  RD5_2  -1
    P5_2  RU5_3  -1
    P5_2  RD5_3  1
    P5_2  BAL2  1
    MARKER166  'MARKER'  'INTORG'
    V5_2  COST  184.941883957
    V5_2  SU5_2  -1
    U5_3  MIN5_3  -23.9391526316
    U5_3  MAX5_3  -111.730622908
    U5_3  SU5_3  1
    U5_3  SU5_4  -1
    U5_3  RES3  111.730622908
    MARKER167  'MARKER'  'INTEND'
    P5_3  COST  25.8431538377
    P5_3  MIN5_3  1
    P5_3  MAX5_3  1
    P5_3  RU5_3  1
    P5_3  RD5_3  -1
    P5_3  RU5_4  -1
    P5_3  RD5_4  1
    P5_3  BAL3  1
    MARKER168  'MARKER'  'INTORG'
    V5_3  COST  184.941883957
    V5_3  SU5_3  -1
    U5_4  MIN5_4  -23.9391526316
    U5_4  MAX5_4  -111.730622908
    U5_4  SU5_4  1
    U5_4  SU5_5  -1
    U5_4  RES4  111.730622908
    MARKER169  'MARKER'  'INTEND'
    P5_4  COST  25.8431538377
    P5_4  MIN5_4  1
    P5_4  MAX5_4  1
    P5_4  RU5_4  1
    P5_4  RD5_4  -1
    P5_4  RU5_5  -1
    P5_4  RD5_5  1
    P5_4  BAL4  1
    MARKER170  'MARKER'  'INTORG'
    V5_4  COST  184.941883957
    V5_4  SU5_4  -1
    U5_5  MIN5_5  -23.9391526316
    U5_5  MAX5_5  -111.730622908
    U5_5  SU5_5  1
    U5_5  SU5_6  -1
    U5_5  RES5  111.730622908
    MARKER171  'MARKER'  'INTEND'
    P5_5  COST  25.8431538377
    P5_5  MIN5_5  1
    P5_5  MAX5_5  1
    P5_5  RU5_5  1
    P5_5  RD5_5  -1
    P5_5  RU5_6  -1
    P5_5  RD5_6  1
    P5_5  BAL5  1
    MARKER172  'MARKER'  'INTORG'
    V5_5  COST  184.941883957
    V5_5  SU5_5  -1
    U5_6  MIN5_6  -23.9391526316
    U5_6  MAX5_6  -111.730622908
    U5_6  SU5_6  1
    U5_6  SU5_7  -1
    U5_6  RES6  111.730622908
    MARKER173  'MARKER'  'INTEND'
    P5_6  COST  25.8431538377
    P5_6  MIN5_6  1
    P5_6  MAX5_6  1
    P5_6  RU5_6  1
    P5_6  RD5_6  -1
    P5_6  RU5_7  -1
    P5_6  RD5_7  1
    P5_6  BAL6  1
    MARKER174  'MARKER'  'INTORG'
    V5_6  COST  184.941883957
    V5_6  SU5_6  -1
    U5_7  MIN5_7  -23.9391526316
    U5_7  MAX5_7  -111.730622908
    U5_7  SU5_7  1
    U5_7  SU5_8  -1
    U5_7  RES7  111.730622908
    MARKER175  'MARKER'  'INTEND'
    P5_7  COST  25.8431538377
    P5_7  MIN5_7  1
    P5_7  MAX5_7  1
    P5_7  RU5_7  1
    P5_7  RD5_7  -1
    P5_7  RU5_8  -1
    P5_7  RD5_8  1
    P5_7  BAL7  1
    MARKER176  'MARKER'  'INTORG'
    V5_7  COST  184.941883957
    V5_7  SU5_7  -1
    U5_8  MIN5_8  -23.9391526316
    U5_8  MAX5_8  -111.730622908
    U5_8  SU5_8  1
    U5_8  SU5_9  -1
    U5_8  RES8  111.730622908
    MARKER177  'MARKER'  'INTEND'
    P5_8  COST  25.8431538377
    P5_8  MIN5_8  1
    P5_8  MAX5_8  1
    P5_8  RU5_8  1
    P5_8  RD5_8  -1
    P5_8  RU5_9  -1
    P5_8  RD5_9  1
    P5_8  BAL8  1
    MARKER178  'MARKER'  'INTORG'
    V5_8  COST  184.941883957
    V5_8  SU5_8  -1
    U5_9  MIN5_9  -23.9391526316
    U5_9  MAX5_9  -111.730622908
    U5_9  SU5_9  1
    U5_9  SU5_10  -1
    U5_9  RES9  111.730622908
    MARKER179  'MARKER'  'INTEND'
    P5_9  COST  25.8431538377
    P5_9  MIN5_9  1
    P5_9  MAX5_9  1
    P5_9  RU5_9  1
    P5_9  RD5_9  -1
    P5_9  RU5_10  -1
    P5_9  RD5_10  1
    P5_9  BAL9  1
    MARKER180  'MARKER'  'INTORG'
    V5_9  COST  184.941883957
    V5_9  SU5_9  -1
    U5_10  MIN5_10  -23.9391526316
    U5_10  MAX5_10  -111.730622908
    U5_10  SU5_10  1
    U5_10  SU5_11  -1
    U5_10  RES10  111.730622908
    MARKER181  'MARKER'  'INTEND'
    P5_10  COST  25.8431538377
    P5_10  MIN5_10  1
    P5_10  MAX5_10  1
    P5_10  RU5_10  1
    P5_10  RD5_10  -1
    P5_10  RU5_11  -1
    P5_10  RD5_11  1
    P5_10  BAL10  1
    MARKER182  'MARKER'  'INTORG'
    V5_10  COST  184.941883957
    V5_10  SU5_10  -1
    U5_11  MIN5_11  -23.9391526316
    U5_11  MAX5_11  -111.730622908
    U5_11  SU5_11  1
    U5_11  SU5_12  -1
    U5_11  RES11  111.730622908
    MARKER183  'MARKER'  'INTEND'
    P5_11  COST  25.8431538377
    P5_11  MIN5_11  1
    P5_11  MAX5_11  1
    P5_11  RU5_11  1
    P5_11  RD5_11  -1
    P5_11  RU5_12  -1
    P5_11  RD5_12  1
    P5_11  BAL11  1
    MARKER184  'MARKER'  'INTORG'
    V5_11  COST  184.941883957
    V5_11  SU5_11  -1
    U5_12  MIN5_12  -23.9391526316
    U5_12  MAX5_12  -111.730622908
    U5_12  SU5_12  1
    U5_12  SU5_13  -1
    U5_12  RES12  111.730622908
    MARKER185  'MARKER'  'INTEND'
    P5_12  COST  25.8431538377
    P5_12  MIN5_12  1
    P5_12  MAX5_12  1
    P5_12  RU5_12  1
    P5_12  RD5_12  -1
    P5_12  RU5_13  -1
    P5_12  RD5_13  1
    P5_12  BAL12  1
    MARKER186  'MARKER'  'INTORG'
    V5_12  COST  184.941883957
    V5_12  SU5_12  -1
    U5_13  MIN5_13  -23.9391526316
    U5_13  MAX5_13  -111.730622908
    U5_13  SU5_13  1
    U5_13  SU5_14  -1
    U5_13  RES13  111.730622908
    MARKER187  'MARKER'  'INTEND'
    P5_13  COST  25.8431538377
    P5_13  MIN5_13  1
    P5_13  MAX5_13  1
    P5_13  RU5_13  1
    P5_13  RD5_13  -1
    P5_13  RU5_14  -1
    P5_13  RD5_14  1
    P5_13  BAL13  1
    MARKER188  'MARKER'  'INTORG'
    V5_13  COST  184.941883957
    V5_13  SU5_13  -1
    U5_14  MIN5_14  -23.9391526316
    U5_14  MAX5_14  -111.730622908
    U5_14  SU5_14  1
    U5_14  SU5_15  -1
    U5_14  RES14  111.730622908
    MARKER189  'MARKER'  'INTEND'
    P5_14  COST  25.8431538377
    P5_14  MIN5_14  1
    P5_14  MAX5_14  1
    P5_14  RU5_14  1
    P5_14  RD5_14  -1
    P5_14  RU5_15  -1
    P5_14  RD5_15  1
    P5_14  BAL14  1
    MARKER190  'MARKER'  'INTORG'
    V5_14  COST  184.941883957
    V5_14  SU5_14  -1
    U5_15  MIN5_15  -23.9391526316
    U5_15  MAX5_15  -111.730622908
    U5_15  SU5_15  1
    U5_15  RES15  111.730622908
    MARKER191  'MARKER'  'INTEND'
    P5_15  COST  25.8431538377
    P5_15  MIN5_15  1
    P5_15  MAX5_15  1
    P5_15  RU5_15  1
    P5_15  RD5_15  -1
    P5_15  BAL15  1
    MARKER192  'MARKER'  'INTORG'
    V5_15  COST  184.941883957
    V5_15  SU5_15  -1
    U6_0  MIN6_0  -33.8609494537
    U6_0  MAX6_0  -137.366116408
    U6_0  SU6_1  -1
    U6_0  RES0  137.366116408
    MARKER193  'MARKER'  'INTEND'
    P6_0  COST  9.39014976886
    P6_0  MIN6_0  1
    P6_0  MAX6_0  1
    P6_0  RU6_1  -1
    P6_0  RD6_1  1
    P6_0  BAL0  1
    MARKER194  'MARKER'  'INTORG'
    V6_0  COST  437.044475079
    U6_1  MIN6_1  -33.8609494537
    U6_1  MAX6_1  -137.366116408
    U6_1  SU6_1  1
    U6_1  SU6_2  -1
    U6_1  RES1  137.366116408
    MARKER195  'MARKER'  'INTEND'
    P6_1  COST  9.39014976886
    P6_1  MIN6_1  1
    P6_1  MAX6_1  1
    P6_1  RU6_1  1
    P6_1  RD6_1  -1
    P6_1  RU6_2  -1
    P6_1  RD6_2  1
    P6_1  BAL1  1
    MARKER196  'MARKER'  'INTORG'
    V6_1  COST  437.044475079
    V6_1  SU6_1  -1
    U6_2  MIN6_2  -33.8609494537
    U6_2  MAX6_2  -137.366116408
    U6_2  SU6_2  1
    U6_2  SU6_3  -1
    U6_2  RES2  137.366116408
    MARKER197  'MARKER'  'INTEND'
    P6_2  COST  9.39014976886
    P6_2  MIN6_2  1
    P6_2  MAX6_2  1
    P6_2  RU6_2  1
    P6_2  RD6_2  -1
    P6_2  RU6_3  -1
    P6_2  RD6_3  1
    P6_2  BAL2  1
    MARKER198  'MARKER'  'INTORG'
    V6_2  COST  437.044475079
    V6_2  SU6_2  -1
    U6_3  MIN6_3  -33.8609494537
    U6_3  MAX6_3  -137.366116408
    U6_3  SU6_3  1
    U6_3  SU6_4  -1
    U6_3  RES3  137.366116408
    MARKER199  'MARKER'  'INTEND'
    P6_3  COST  9.39014976886
    P6_3  MIN6_3  1
    P6_3  MAX6_3  1
    P6_3  RU6_3  1
    P6_3  RD6_3  -1
    P6_3  RU6_4  -1
    P6_3  RD6_4  1
    P6_3  BAL3  1
    MARKER200  'MARKER'  'INTORG'
    V6_3  COST  437.044475079
    V6_3  SU6_3  -1
    U6_4  MIN6_4  -33.8609494537
    U6_4  MAX6_4  -137.366116408
    U6_4  SU6_4  1
    U6_4  SU6_5  -1
    U6_4  RES4  137.366116408
    MARKER201  'MARKER'  'INTEND'
    P6_4  COST  9.39014976886
    P6_4  MIN6_4  1
    P6_4  MAX6_4  1
    P6_4  RU6_4  1
    P6_4  RD6_4  -1
    P6_4  RU6_5  -1
    P6_4  RD6_5  1
    P6_4  BAL4  1
    MARKER202  'MARKER'  'INTORG'
    V6_4  COST  437.044475079
    V6_4  SU6_4  -1
    U6_5  MIN6_5  -33.8609494537
    U6_5  MAX6_5  -137.366116408
    U6_5  SU6_5  1
    U6_5  SU6_6  -1
    U6_5  RES5  137.366116408
    MARKER203  'MARKER'  'INTEND'
    P6_5  COST  9.39014976886
    P6_5  MIN6_5  1
    P6_5  MAX6_5  1
    P6_5  RU6_5  1
    P6_5  RD6_5  -1
    P6_5  RU6_6  -1
    P6_5  RD6_6  1
    P6_5  BAL5  1
    MARKER204  'MARKER'  'INTORG'
    V6_5  COST  437.044475079
    V6_5  SU6_5  -1
    U6_6  MIN6_6  -33.8609494537
    U6_6  MAX6_6  -137.366116408
    U6_6  SU6_6  1
    U6_6  SU6_7  -1
    U6_6  RES6  137.366116408
    MARKER205  'MARKER'  'INTEND'
    P6_6  COST  9.39014976886
    P6_6  MIN6_6  1
    P6_6  MAX6_6  1
    P6_6  RU6_6  1
    P6_6  RD6_6  -1
    P6_6  RU6_7  -1
    P6_6  RD6_7  1
    P6_6  BAL6  1
    MARKER206  'MARKER'  'INTORG'
    V6_6  COST  437.044475079
    V6_6  SU6_6  -1
    U6_7  MIN6_7  -33.8609494537
    U6_7  MAX6_7  -137.366116408
    U6_7  SU6_7  1
    U6_7  SU6_8  -1
    U6_7  RES7  137.366116408
    MARKER207  'MARKER'  'INTEND'
    P6_7  COST  9.39014976886
    P6_7  MIN6_7  1
    P6_7  MAX6_7  1
    P6_7  RU6_7  1
    P6_7  RD6_7  -1
    P6_7  RU6_8  -1
    P6_7  RD6_8  1
    P6_7  BAL7  1
    MARKER208  'MARKER'  'INTORG'
    V6_7  COST  437.044475079
    V6_7  SU6_7  -1
    U6_8  MIN6_8  -33.8609494537
    U6_8  MAX6_8  -137.366116408
    U6_8  SU6_8  1
    U6_8  SU6_9  -1
    U6_8  RES8  137.366116408
    MARKER209  'MARKER'  'INTEND'
    P6_8  COST  9.39014976886
    P6_8  MIN6_8  1
    P6_8  MAX6_8  1
    P6_8  RU6_8  1
    P6_8  RD6_8  -1
    P6_8  RU6_9  -1
    P6_8  RD6_9  1
    P6_8  BAL8  1
    MARKER210  'MARKER'  'INTORG'
    V6_8  COST  437.044475079
    V6_8  SU6_8  -1
    U6_9  MIN6_9  -33.8609494537
    U6_9  MAX6_9  -137.366116408
    U6_9  SU6_9  1
    U6_9  SU6_10  -1
    U6_9  RES9  137.366116408
    MARKER211  'MARKER'  'INTEND'
    P6_9  COST  9.39014976886
    P6_9  MIN6_9  1
    P6_9  MAX6_9  1
    P6_9  RU6_9  1
    P6_9  RD6_9  -1
    P6_9  RU6_10  -1
    P6_9  RD6_10  1
    P6_9  BAL9  1
    MARKER212  'MARKER'  'INTORG'
    V6_9  COST  437.044475079
    V6_9  SU6_9  -1
    U6_10  MIN6_10  -33.8609494537
    U6_10  MAX6_10  -137.366116408
    U6_10  SU6_10  1
    U6_10  SU6_11  -1
    U6_10  RES10  137.366116408
    MARKER213  'MARKER'  'INTEND'
    P6_10  COST  9.39014976886
    P6_10  MIN6_10  1
    P6_10  MAX6_10  1
    P6_10  RU6_10  1
    P6_10  RD6_10  -1
    P6_10  RU6_11  -1
    P6_10  RD6_11  1
    P6_10  BAL10  1
    MARKER214  'MARKER'  'INTORG'
    V6_10  COST  437.044475079
    V6_10  SU6_10  -1
    U6_11  MIN6_11  -33.8609494537
    U6_11  MAX6_11  -137.366116408
    U6_11  SU6_11  1
    U6_11  SU6_12  -1
    U6_11  RES11  137.366116408
    MARKER215  'MARKER'  'INTEND'
    P6_11  COST  9.39014976886
    P6_11  MIN6_11  1
    P6_11  MAX6_11  1
    P6_11  RU6_11  1
    P6_11  RD6_11  -1
    P6_11  RU6_12  -1
    P6_11  RD6_12  1
    P6_11  BAL11  1
    MARKER216  'MARKER'  'INTORG'
    V6_11  COST  437.044475079
    V6_11  SU6_11  -1
    U6_12  MIN6_12  -33.8609494537
    U6_12  MAX6_12  -137.366116408
    U6_12  SU6_12  1
    U6_12  SU6_13  -1
    U6_12  RES12  137.366116408
    MARKER217  'MARKER'  'INTEND'
    P6_12  COST  9.39014976886
    P6_12  MIN6_12  1
    P6_12  MAX6_12  1
    P6_12  RU6_12  1
    P6_12  RD6_12  -1
    P6_12  RU6_13  -1
    P6_12  RD6_13  1
    P6_12  BAL12  1
    MARKER218  'MARKER'  'INTORG'
    V6_12  COST  437.044475079
    V6_12  SU6_12  -1
    U6_13  MIN6_13  -33.8609494537
    U6_13  MAX6_13  -137.366116408
    U6_13  SU6_13  1
    U6_13  SU6_14  -1
    U6_13  RES13  137.366116408
    MARKER219  'MARKER'  'INTEND'
    P6_13  COST  9.39014976886
    P6_13  MIN6_13  1
    P6_13  MAX6_13  1
    P6_13  RU6_13  1
    P6_13  RD6_13  -1
    P6_13  RU6_14  -1
    P6_13  RD6_14  1
    P6_13  BAL13  1
    MARKER220  'MARKER'  'INTORG'
    V6_13  COST  437.044475079
    V6_13  SU6_13  -1
    U6_14  MIN6_14  -33.8609494537
    U6_14  MAX6_14  -137.366116408
    U6_14  SU6_14  1
    U6_14  SU6_15  -1
    U6_14  RES14  137.366116408
    MARKER221  'MARKER'  'INTEND'
    P6_14  COST  9.39014976886
    P6_14  MIN6_14  1
    P6_14  MAX6_14  1
    P6_14  RU6_14  1
    P6_14  RD6_14  -1
    P6_14  RU6_15  -1
    P6_14  RD6_15  1
    P6_14  BAL14  1
    MARKER222  'MARKER'  'INTORG'
    V6_14  COST  437.044475079
    V6_14  SU6_14  -1
    U6_15  MIN6_15  -33.8609494537
    U6_15  MAX6_15  -137.366116408
    U6_15  SU6_15  1
    U6_15  RES15  137.366116408
    MARKER223  'MARKER'  'INTEND'
    P6_15  COST  9.39014976886
    P6_15  MIN6_15  1
    P6_15  MAX6_15  1
    P6_15  RU6_15  1
    P6_15  RD6_15  -1
    P6_15  BAL15  1
    MARKER224  'MARKER'  'INTORG'
    V6_15  COST  437.044475079
    V6_15  SU6_15  -1
    U7_0  MIN7_0  -14.1398246138
    U7_0  MAX7_0  -136.71492113
    U7_0  SU7_1  -1
    U7_0  RES0  136.71492113
    MARKER225  'MARKER'  'INTEND'
    P7_0  COST  10.4588929652
    P7_0  MIN7_0  1
    P7_0  MAX7_0  1
    P7_0  RU7_1  -1
    P7_0  RD7_1  1
    P7_0  BAL0  1
    MARKER226  'MARKER'  'INTORG'
    V7_0  COST  163.635095829
    U7_1  MIN7_1  -14.1398246138
    U7_1  MAX7_1  -136.71492113
    U7_1  SU7_1  1
    U7_1  SU7_2  -1
    U7_1  RES1  136.71492113
    MARKER227  'MARKER'  'INTEND'
    P7_1  COST  10.4588929652
    P7_1  MIN7_1  1
    P7_1  MAX7_1  1
    P7_1  RU7_1  1
    P7_1  RD7_1  -1
    P7_1  RU7_2  -1
    P7_1  RD7_2  1
    P7_1  BAL1  1
    MARKER228  'MARKER'  'INTORG'
    V7_1  COST  163.635095829
    V7_1  SU7_1  -1
    U7_2  MIN7_2  -14.1398246138
    U7_2  MAX7_2  -136.71492113
    U7_2  SU7_2  1
    U7_2  SU7_3  -1
    U7_2  RES2  136.71492113
    MARKER229  'MARKER'  'INTEND'
    P7_2  COST  10.4588929652
    P7_2  MIN7_2  1
    P7_2  MAX7_2  1
    P7_2  RU7_2  1
    P7_2  RD7_2  -1
    P7_2  RU7_3  -1
    P7_2  RD7_3  1
    P7_2  BAL2  1
    MARKER230  'MARKER'  'INTORG'
    V7_2  COST  163.635095829
    V7_2  SU7_2  -1
    U7_3  MIN7_3  -14.1398246138
    U7_3  MAX7_3  -136.71492113
    U7_3  SU7_3  1
    U7_3  SU7_4  -1
    U7_3  RES3  136.71492113
    MARKER231  'MARKER'  'INTEND'
    P7_3  COST  10.4588929652
    P7_3  MIN7_3  1
    P7_3  MAX7_3  1
    P7_3  RU7_3  1
    P7_3  RD7_3  -1
    P7_3  RU7_4  -1
    P7_3  RD7_4  1
    P7_3  BAL3  1
    MARKER232  'MARKER'  'INTORG'
    V7_3  COST  163.635095829
    V7_3  SU7_3  -1
    U7_4  MIN7_4  -14.1398246138
    U7_4  MAX7_4  -136.71492113
    U7_4  SU7_4  1
    U7_4  SU7_5  -1
    U7_4  RES4  136.71492113
    MARKER233  'MARKER'  'INTEND'
    P7_4  COST  10.4588929652
    P7_4  MIN7_4  1
    P7_4  MAX7_4  1
    P7_4  RU7_4  1
    P7_4  RD7_4  -1
    P7_4  RU7_5  -1
    P7_4  RD7_5  1
    P7_4  BAL4  1
    MARKER234  'MARKER'  'INTORG'
    V7_4  COST  163.635095829
    V7_4  SU7_4  -1
    U7_5  MIN7_5  -14.1398246138
    U7_5  MAX7_5  -136.71492113
    U7_5  SU7_5  1
    U7_5  SU7_6  -1
    U7_5  RES5  136.71492113
    MARKER235  'MARKER'  'INTEND'
    P7_5  COST  10.4588929652
    P7_5  MIN7_5  1
    P7_5  MAX7_5  1
    P7_5  RU7_5  1
    P7_5  RD7_5  -1
    P7_5  RU7_6  -1
    P7_5  RD7_6  1
    P7_5  BAL5  1
    MARKER236  'MARKER'  'INTORG'
    V7_5  COST  163.635095829
    V7_5  SU7_5  -1
    U7_6  MIN7_6  -14.1398246138
    U7_6  MAX7_6  -136.71492113
    U7_6  SU7_6  1
    U7_6  SU7_7  -1
    U7_6  RES6  136.71492113
    MARKER237  'MARKER'  'INTEND'
    P7_6  COST  10.4588929652
    P7_6  MIN7_6  1
    P7_6  MAX7_6  1
    P7_6  RU7_6  1
    P7_6  RD7_6  -1
    P7_6  RU7_7  -1
    P7_6  RD7_7  1
    P7_6  BAL6  1
    MARKER238  'MARKER'  'INTORG'
    V7_6  COST  163.635095829
    V7_6  SU7_6  -1
    U7_7  MIN7_7  -14.1398246138
    U7_7  MAX7_7  -136.71492113
    U7_7  SU7_7  1
    U7_7  SU7_8  -1
    U7_7  RES7  136.71492113
    MARKER239  'MARKER'  'INTEND'
    P7_7  COST  10.4588929652
    P7_7  MIN7_7  1
    P7_7  MAX7_7  1
    P7_7  RU7_7  1
    P7_7  RD7_7  -1
    P7_7  RU7_8  -1
    P7_7  RD7_8  1
    P7_7  BAL7  1
    MARKER240  'MARKER'  'INTORG'
    V7_7  COST  163.635095829
    V7_7  SU7_7  -1
    U7_8  MIN7_8  -14.1398246138
    U7_8  MAX7_8  -136.71492113
    U7_8  SU7_8  1
    U7_8  SU7_9  -1
    U7_8  RES8  136.71492113
    MARKER241  'MARKER'  'INTEND'
    P7_8  COST  10.4588929652
    P7_8  MIN7_8  1
    P7_8  MAX7_8  1
    P7_8  RU7_8  1
    P7_8  RD7_8  -1
    P7_8  RU7_9  -1
    P7_8  RD7_9  1
    P7_8  BAL8  1
    MARKER242  'MARKER'  'INTORG'
    V7_8  COST  163.635095829
    V7_8  SU7_8  -1
    U7_9  MIN7_9  -14.1398246138
    U7_9  MAX7_9  -136.71492113
    U7_9  SU7_9  1
    U7_9  SU7_10  -1
    U7_9  RES9  136.71492113
    MARKER243  'MARKER'  'INTEND'
    P7_9  COST  10.4588929652
    P7_9  MIN7_9  1
    P7_9  MAX7_9  1
    P7_9  RU7_9  1
    P7_9  RD7_9  -1
    P7_9  RU7_10  -1
    P7_9  RD7_10  1
    P7_9  BAL9  1
    MARKER244  'MARKER'  'INTORG'
    V7_9  COST  163.635095829
    V7_9  SU7_9  -1
    U7_10  MIN7_10  -14.1398246138
    U7_10  MAX7_10  -136.71492113
    U7_10  SU7_10  1
    U7_10  SU7_11  -1
    U7_10  RES10  136.71492113
    MARKER245  'MARKER'  'INTEND'
    P7_10  COST  10.4588929652
    P7_10  MIN7_10  1
    P7_10  MAX7_10  1
    P7_10  RU7_10  1
    P7_10  RD7_10  -1
    P7_10  RU7_11  -1
    P7_10  RD7_11  1
    P7_10  BAL10  1
    MARKER246  'MARKER'  'INTORG'
    V7_10  COST  163.635095829
    V7_10  SU7_10  -1
    U7_11  MIN7_11  -14.1398246138
    U7_11  MAX7_11  -136.71492113
    U7_11  SU7_11  1
    U7_11  SU7_12  -1
    U7_11  RES11  136.71492113
    MARKER247  'MARKER'  'INTEND'
    P7_11  COST  10.4588929652
    P7_11  MIN7_11  1
    P7_11  MAX7_11  1
    P7_11  RU7_11  1
    P7_11  RD7_11  -1
    P7_11  RU7_12  -1
    P7_11  RD7_12  1
    P7_11  BAL11  1
    MARKER248  'MARKER'  'INTORG'
    V7_11  COST  163.635095829
    V7_11  SU7_11  -1
    U7_12  MIN7_12  -14.1398246138
    U7_12  MAX7_12  -136.71492113
    U7_12  SU7_12  1
    U7_12  SU7_13  -1
    U7_12  RES12  136.71492113
    MARKER249  'MARKER'  'INTEND'
    P7_12  COST  10.4588929652
    P7_12  MIN7_12  1
    P7_12  MAX7_12  1
    P7_12  RU7_12  1
    P7_12  RD7_12  -1
    P7_12  RU7_13  -1
    P7_12  RD7_13  1
    P7_12  BAL12  1
    MARKER250  'MARKER'  'INTORG'
    V7_12  COST  163.635095829
    V7_12  SU7_12  -1
    U7_13  MIN7_13  -14.1398246138
    U7_13  MAX7_13  -136.71492113
    U7_13  SU7_13  1
    U7_13  SU7_14  -1
    U7_13  RES13  136.71492113
    MARKER251  'MARKER'  'INTEND'
    P7_13  COST  10.4588929652
    P7_13  MIN7_13  1
    P7_13  MAX7_13  1
    P7_13  RU7_13  1
    P7_13  RD7_13  -1
    P7_13  RU7_14  -1
    P7_13  RD7_14  1
    P7_13  BAL13  1
    MARKER252  'MARKER'  'INTORG'
    V7_13  COST  163.635095829
    V7_13  SU7_13  -1
    U7_14  MIN7_14  -14.1398246138
    U7_14  MAX7_14  -136.71492113
    U7_14  SU7_14  1
    U7_14  SU7_15  -1
    U7_14  RES14  136.71492113
    MARKER253  'MARKER'  'INTEND'
    P7_14  COST  10.4588929652
    P7_14  MIN7_14  1
    P7_14  MAX7_14  1
    P7_14  RU7_14  1
    P7_14  RD7_14  -1
    P7_14  RU7_15  -1
    P7_14  RD7_15  1
    P7_14  BAL14  1
    MARKER254  'MARKER'  'INTORG'
    V7_14  COST  163.635095829
    V7_14  SU7_14  -1
    U7_15  MIN7_15  -14.1398246138
    U7_15  MAX7_15  -136.71492113
    U7_15  SU7_15  1
    U7_15  RES15  136.71492113
    MARKER255  'MARKER'  'INTEND'
    P7_15  COST  10.4588929652
    P7_15  MIN7_15  1
    P7_15  MAX7_15  1
    P7_15  RU7_15  1
    P7_15  RD7_15  -1
    P7_15  BAL15  1
    MARKER256  'MARKER'  'INTORG'
    V7_15  COST  163.635095829
    V7_15  SU7_15  -1
    U8_0  MIN8_0  -24.2200076634
    U8_0  MAX8_0  -84.0537185309
    U8_0  SU8_1  -1
    U8_0  RES0  84.0537185309
    MARKER257  'MARKER'  'INTEND'
    P8_0  COST  9.39160680988
    P8_0  MIN8_0  1
    P8_0  MAX8_0  1
    P8_0  RU8_1  -1
    P8_0  RD8_1  1
    P8_0  BAL0  1
    MARKER258  'MARKER'  'INTORG'
    V8_0  COST  516.155386379
    U8_1  MIN8_1  -24.2200076634
    U8_1  MAX8_1  -84.0537185309
    U8_1  SU8_1  1
    U8_1  SU8_2  -1
    U8_1  RES1  84.0537185309
    MARKER259  'MARKER'  'INTEND'
    P8_1  COST  9.39160680988
    P8_1  MIN8_1  1
    P8_1  MAX8_1  1
    P8_1  RU8_1  1
    P8_1  RD8_1  -1
    P8_1  RU8_2  -1
    P8_1  RD8_2  1
    P8_1  BAL1  1
    MARKER260  'MARKER'  'INTORG'
    V8_1  COST  516.155386379
    V8_1  SU8_1  -1
    U8_2  MIN8_2  -24.2200076634
    U8_2  MAX8_2  -84.0537185309
    U8_2  SU8_2  1
    U8_2  SU8_3  -1
    U8_2  RES2  84.0537185309
    MARKER261  'MARKER'  'INTEND'
    P8_2  COST  9.39160680988
    P8_2  MIN8_2  1
    P8_2  MAX8_2  1
    P8_2  RU8_2  1
    P8_2  RD8_2  -1
    P8_2  RU8_3  -1
    P8_2  RD8_3  1
    P8_2  BAL2  1
    MARKER262  'MARKER'  'INTORG'
    V8_2  COST  516.155386379
    V8_2  SU8_2  -1
    U8_3  MIN8_3  -24.2200076634
    U8_3  MAX8_3  -84.0537185309
    U8_3  SU8_3  1
    U8_3  SU8_4  -1
    U8_3  RES3  84.0537185309
    MARKER263  'MARKER'  'INTEND'
    P8_3  COST  9.39160680988
    P8_3  MIN8_3  1
    P8_3  MAX8_3  1
    P8_3  RU8_3  1
    P8_3  RD8_3  -1
    P8_3  RU8_4  -1
    P8_3  RD8_4  1
    P8_3  BAL3  1
    MARKER264  'MARKER'  'INTORG'
    V8_3  COST  516.155386379
    V8_3  SU8_3  -1
    U8_4  MIN8_4  -24.2200076634
    U8_4  MAX8_4  -84.0537185309
    U8_4  SU8_4  1
    U8_4  SU8_5  -1
    U8_4  RES4  84.0537185309
    MARKER265  'MARKER'  'INTEND'
    P8_4  COST  9.39160680988
    P8_4  MIN8_4  1
    P8_4  MAX8_4  1
    P8_4  RU8_4  1
    P8_4  RD8_4  -1
    P8_4  RU8_5  -1
    P8_4  RD8_5  1
    P8_4  BAL4  1
    MARKER266  'MARKER'  'INTORG'
    V8_4  COST  516.155386379
    V8_4  SU8_4  -1
    U8_5  MIN8_5  -24.2200076634
    U8_5  MAX8_5  -84.0537185309
    U8_5  SU8_5  1
    U8_5  SU8_6  -1
    U8_5  RES5  84.0537185309
    MARKER267  'MARKER'  'INTEND'
    P8_5  COST  9.39160680988
    P8_5  MIN8_5  1
    P8_5  MAX8_5  1
    P8_5  RU8_5  1
    P8_5  RD8_5  -1
    P8_5  RU8_6  -1
    P8_5  RD8_6  1
    P8_5  BAL5  1
    MARKER268  'MARKER'  'INTORG'
    V8_5  COST  516.155386379
    V8_5  SU8_5  -1
    U8_6  MIN8_6  -24.2200076634
    U8_6  MAX8_6  -84.0537185309
    U8_6  SU8_6  1
    U8_6  SU8_7  -1
    U8_6  RES6  84.0537185309
    MARKER269  'MARKER'  'INTEND'
    P8_6  COST  9.39160680988
    P8_6  MIN8_6  1
    P8_6  MAX8_6  1
    P8_6  RU8_6  1
    P8_6  RD8_6  -1
    P8_6  RU8_7  -1
    P8_6  RD8_7  1
    P8_6  BAL6  1
    MARKER270  'MARKER'  'INTORG'
    V8_6  COST  516.155386379
    V8_6  SU8_6  -1
    U8_7  MIN8_7  -24.2200076634
    U8_7  MAX8_7  -84.0537185309
    U8_7  SU8_7  1
    U8_7  SU8_8  -1
    U8_7  RES7  84.0537185309
    MARKER271  'MARKER'  'INTEND'
    P8_7  COST  9.39160680988
    P8_7  MIN8_7  1
    P8_7  MAX8_7  1
    P8_7  RU8_7  1
    P8_7  RD8_7  -1
    P8_7  RU8_8  -1
    P8_7  RD8_8  1
    P8_7  BAL7  1
    MARKER272  'MARKER'  'INTORG'
    V8_7  COST  516.155386379
    V8_7  SU8_7  -1
    U8_8  MIN8_8  -24.2200076634
    U8_8  MAX8_8  -84.0537185309
    U8_8  SU8_8  1
    U8_8  SU8_9  -1
    U8_8  RES8  84.0537185309
    MARKER273  'MARKER'  'INTEND'
    P8_8  COST  9.39160680988
    P8_8  MIN8_8  1
    P8_8  MAX8_8  1
    P8_8  RU8_8  1
    P8_8  RD8_8  -1
    P8_8  RU8_9  -1
    P8_8  RD8_9  1
    P8_8  BAL8  1
    MARKER274  'MARKER'  'INTORG'
    V8_8  COST  516.155386379
    V8_8  SU8_8  -1
    U8_9  MIN8_9  -24.2200076634
    U8_9  MAX8_9  -84.0537185309
    U8_9  SU8_9  1
    U8_9  SU8_10  -1
    U8_9  RES9  84.0537185309
    MARKER275  'MARKER'  'INTEND'
    P8_9  COST  9.39160680988
    P8_9  MIN8_9  1
    P8_9  MAX8_9  1
    P8_9  RU8_9  1
    P8_9  RD8_9  -1
    P8_9  RU8_10  -1
    P8_9  RD8_10  1
    P8_9  BAL9  1
    MARKER276  'MARKER'  'INTORG'
    V8_9  COST  516.155386379
    V8_9  SU8_9  -1
    U8_10  MIN8_10  -24.2200076634
    U8_10  MAX8_10  -84.0537185309
    U8_10  SU8_10  1
    U8_10  SU8_11  -1
    U8_10  RES10  84.0537185309
    MARKER277  'MARKER'  'INTEND'
    P8_10  COST  9.39160680988
    P8_10  MIN8_10  1
    P8_10  MAX8_10  1
    P8_10  RU8_10  1
    P8_10  RD8_10  -1
    P8_10  RU8_11  -1
    P8_10  RD8_11  1
    P8_10  BAL10  1
    MARKER278  'MARKER'  'INTORG'
    V8_10  COST  516.155386379
    V8_10  SU8_10  -1
    U8_11  MIN8_11  -24.2200076634
    U8_11  MAX8_11  -84.0537185309
    U8_11  SU8_11  1
    U8_11  SU8_12  -1
    U8_11  RES11  84.0537185309
    MARKER279  'MARKER'  'INTEND'
    P8_11  COST  9.39160680988
    P8_11  MIN8_11  1
    P8_11  MAX8_11  1
    P8_11  RU8_11  1
    P8_11  RD8_11  -1
    P8_11  RU8_12  -1
    P8_11  RD8_12  1
    P8_11  BAL11  1
    MARKER280  'MARKER'  'INTORG'
    V8_11  COST  516.155386379
    V8_11  SU8_11  -1
    U8_12  MIN8_12  -24.2200076634
    U8_12  MAX8_12  -84.0537185309
    U8_12  SU8_12  1
    U8_12  SU8_13  -1
    U8_12  RES12  84.0537185309
    MARKER281  'MARKER'  'INTEND'
    P8_12  COST  9.39160680988
    P8_12  MIN8_12  1
    P8_12  MAX8_12  1
    P8_12  RU8_12  1
    P8_12  RD8_12  -1
    P8_12  RU8_13  -1
    P8_12  RD8_13  1
    P8_12  BAL12  1
    MARKER282  'MARKER'  'INTORG'
    V8_12  COST  516.155386379
    V8_12  SU8_12  -1
    U8_13  MIN8_13  -24.2200076634
    U8_13  MAX8_13  -84.0537185309
    U8_13  SU8_13  1
    U8_13  SU8_14  -1
    U8_13  RES13  84.0537185309
    MARKER283  'MARKER'  'INTEND'
    P8_13  COST  9.39160680988
    P8_13  MIN8_13  1
    P8_13  MAX8_13  1
    P8_13  RU8_13  1
    P8_13  RD8_13  -1
    P8_13  RU8_14  -1
    P8_13  RD8_14  1
    P8_13  BAL13  1
    MARKER284  'MARKER'  'INTORG'
    V8_13  COST  516.155386379
    V8_13  SU8_13  -1
    U8_14  MIN8_14  -24.2200076634
    U8_14  MAX8_14  -84.0537185309
    U8_14  SU8_14  1
    U8_14  SU8_15  -1
    U8_14  RES14  84.0537185309
    MARKER285  'MARKER'  'INTEND'
    P8_14  COST  9.39160680988
    P8_14  MIN8_14  1
    P8_14  MAX8_14  1
    P8_14  RU8_14  1
    P8_14  RD8_14  -1
    P8_14  RU8_15  -1
    P8_14  RD8_15  1
    P8_14  BAL14  1
    MARKER286  'MARKER'  'INTORG'
    V8_14  COST  516.155386379
    V8_14  SU8_14  -1
    U8_15  MIN8_15  -24.2200076634
    U8_15  MAX8_15  -84.0537185309
    U8_15  SU8_15  1
    U8_15  RES15  84.0537185309
    MARKER287  'MARKER'  'INTEND'
    P8_15  COST  9.39160680988
    P8_15  MIN8_15  1
    P8_15  MAX8_15  1
    P8_15  RU8_15  1
    P8_15  RD8_15  -1
    P8_15  BAL15  1
    MARKER288  'MARKER'  'INTORG'
    V8_15  COST  516.155386379
    V8_15  SU8_15  -1
    U9_0  MIN9_0  -18.755274873
    U9_0  MAX9_0  -155.751136839
    U9_0  SU9_1  -1
    U9_0  RES0  155.751136839
    MARKER289  'MARKER'  'INTEND'
    P9_0  COST  28.9613228845
    P9_0  MIN9_0  1
    P9_0  MAX9_0  1
    P9_0  RU9_1  -1
    P9_0  RD9_1  1
    P9_0  BAL0  1
    MARKER290  'MARKER'  'INTORG'
    V9_0  COST  651.151233364
    U9_1  MIN9_1  -18.755274873
    U9_1  MAX9_1  -155.751136839
    U9_1  SU9_1  1
    U9_1  SU9_2  -1
    U9_1  RES1  155.751136839
    MARKER291  'MARKER'  'INTEND'
    P9_1  COST  28.9613228845
    P9_1  MIN9_1  1
    P9_1  MAX9_1  1
    P9_1  RU9_1  1
    P9_1  RD9_1  -1
    P9_1  RU9_2  -1
    P9_1  RD9_2  1
    P9_1  BAL1  1
    MARKER292  'MARKER'  'INTORG'
    V9_1  COST  651.151233364
    V9_1  SU9_1  -1
    U9_2  MIN9_2  -18.755274873
    U9_2  MAX9_2  -155.751136839
    U9_2  SU9_2  1
    U9_2  SU9_3  -1
    U9_2  RES2  155.751136839
    MARKER293  'MARKER'  'INTEND'
    P9_2  COST  28.9613228845
    P9_2  MIN9_2  1
    P9_2  MAX9_2  1
    P9_2  RU9_2  1
    P9_2  RD9_2  -1
    P9_2  RU9_3  -1
    P9_2  RD9_3  1
    P9_2  BAL2  1
    MARKER294  'MARKER'  'INTORG'
    V9_2  COST  651.151233364
    V9_2  SU9_2  -1
    U9_3  MIN9_3  -18.755274873
    U9_3  MAX9_3  -155.751136839
    U9_3  SU9_3  1
    U9_3  SU9_4  -1
    U9_3  RES3  155.751136839
    MARKER295  'MARKER'  'INTEND'
    P9_3  COST  28.9613228845
    P9_3  MIN9_3  1
    P9_3  MAX9_3  1
    P9_3  RU9_3  1
    P9_3  RD9_3  -1
    P9_3  RU9_4  -1
    P9_3  RD9_4  1
    P9_3  BAL3  1
    MARKER296  'MARKER'  'INTORG'
    V9_3  COST  651.151233364
    V9_3  SU9_3  -1
    U9_4  MIN9_4  -18.755274873
    U9_4  MAX9_4  -155.751136839
    U9_4  SU9_4  1
    U9_4  SU9_5  -1
    U9_4  RES4  155.751136839
    MARKER297  'MARKER'  'INTEND'
    P9_4  COST  28.9613228845
    P9_4  MIN9_4  1
    P9_4  MAX9_4  1
    P9_4  RU9_4  1
    P9_4  RD9_4  -1
    P9_4  RU9_5  -1
    P9_4  RD9_5  1
    P9_4  BAL4  1
    MARKER298  'MARKER'  'INTORG'
    V9_4  COST  651.151233364
    V9_4  SU9_4  -1
    U9_5  MIN9_5  -18.755274873
    U9_5  MAX9_5  -155.751136839
    U9_5  SU9_5  1
    U9_5  SU9_6  -1
    U9_5  RES5  155.751136839
    MARKER299  'MARKER'  'INTEND'
    P9_5  COST  28.9613228845
    P9_5  MIN9_5  1
    P9_5  MAX9_5  1
    P9_5  RU9_5  1
    P9_5  RD9_5  -1
    P9_5  RU9_6  -1
    P9_5  RD9_6  1
    P9_5  BAL5  1
    MARKER300  'MARKER'  'INTORG'
    V9_5  COST  651.151233364
    V9_5  SU9_5  -1
    U9_6  MIN9_6  -18.755274873
    U9_6  MAX9_6  -155.751136839
    U9_6  SU9_6  1
    U9_6  SU9_7  -1
    U9_6  RES6  155.751136839
    MARKER301  'MARKER'  'INTEND'
    P9_6  COST  28.9613228845
    P9_6  MIN9_6  1
    P9_6  MAX9_6  1
    P9_6  RU9_6  1
    P9_6  RD9_6  -1
    P9_6  RU9_7  -1
    P9_6  RD9_7  1
    P9_6  BAL6  1
    MARKER302  'MARKER'  'INTORG'
    V9_6  COST  651.151233364
    V9_6  SU9_6  -1
    U9_7  MIN9_7  -18.755274873
    U9_7  MAX9_7  -155.751136839
    U9_7  SU9_7  1
    U9_7  SU9_8  -1
    U9_7  RES7  155.751136839
    MARKER303  'MARKER'  'INTEND'
    P9_7  COST  28.9613228845
    P9_7  MIN9_7  1
    P9_7  MAX9_7  1
    P9_7  RU9_7  1
    P9_7  RD9_7  -1
    P9_7  RU9_8  -1
    P9_7  RD9_8  1
    P9_7  BAL7  1
    MARKER304  'MARKER'  'INTORG'
    V9_7  COST  651.151233364
    V9_7  SU9_7  -1
    U9_8  MIN9_8  -18.755274873
    U9_8  MAX9_8  -155.751136839
    U9_8  SU9_8  1
    U9_8  SU9_9  -1
    U9_8  RES8  155.751136839
    MARKER305  'MARKER'  'INTEND'
    P9_8  COST  28.9613228845
    P9_8  MIN9_8  1
    P9_8  MAX9_8  1
    P9_8  RU9_8  1
    P9_8  RD9_8  -1
    P9_8  RU9_9  -1
    P9_8  RD9_9  1
    P9_8  BAL8  1
    MARKER306  'MARKER'  'INTORG'
    V9_8  COST  651.151233364
    V9_8  SU9_8  -1
    U9_9  MIN9_9  -18.755274873
    U9_9  MAX9_9  -155.751136839
    U9_9  SU9_9  1
    U9_9  SU9_10  -1
    U9_9  RES9  155.751136839
    MARKER307  'MARKER'  'INTEND'
    P9_9  COST  28.9613228845
    P9_9  MIN9_9  1
    P9_9  MAX9_9  1
    P9_9  RU9_9  1
    P9_9  RD9_9  -1
    P9_9  RU9_10  -1
    P9_9  RD9_10  1
    P9_9  BAL9  1
    MARKER308  'MARKER'  'INTORG'
    V9_9  COST  651.151233364
    V9_9  SU9_9  -1
    U9_10  MIN9_10  -18.755274873
    U9_10  MAX9_10  -155.751136839
    U9_10  SU9_10  1
    U9_10  SU9_11  -1
    U9_10  RES10  155.751136839
    MARKER309  'MARKER'  'INTEND'
    P9_10  COST  28.9613228845
    P9_10  MIN9_10  1
    P9_10  MAX9_10  1
    P9_10  RU9_10  1
    P9_10  RD9_10  -1
    P9_10  RU9_11  -1
    P9_10  RD9_11  1
    P9_10  BAL10  1
    MARKER310  'MARKER'  'INTORG'
    V9_10  COST  651.151233364
    V9_10  SU9_10  -1
    U9_11  MIN9_11  -18.755274873
    U9_11  MAX9_11  -155.751136839
    U9_11  SU9_11  1
    U9_11  SU9_12  -1
    U9_11  RES11  155.751136839
    MARKER311  'MARKER'  'INTEND'
    P9_11  COST  28.9613228845
    P9_11  MIN9_11  1
    P9_11  MAX9_11  1
    P9_11  RU9_11  1
    P9_11  RD9_11  -1
    P9_11  RU9_12  -1
    P9_11  RD9_12  1
    P9_11  BAL11  1
    MARKER312  'MARKER'  'INTORG'
    V9_11  COST  651.151233364
    V9_11  SU9_11  -1
    U9_12  MIN9_12  -18.755274873
    U9_12  MAX9_12  -155.751136839
    U9_12  SU9_12  1
    U9_12  SU9_13  -1
    U9_12  RES12  155.751136839
    MARKER313  'MARKER'  'INTEND'
    P9_12  COST  28.9613228845
    P9_12  MIN9_12  1
    P9_12  MAX9_12  1
    P9_12  RU9_12  1
    P9_12  RD9_12  -1
    P9_12  RU9_13  -1
    P9_12  RD9_13  1
    P9_12  BAL12  1
    MARKER314  'MARKER'  'INTORG'
    V9_12  COST  651.151233364
    V9_12  SU9_12  -1
    U9_13  MIN9_13  -18.755274873
    U9_13  MAX9_13  -155.751136839
    U9_13  SU9_13  1
    U9_13  SU9_14  -1
    U9_13  RES13  155.751136839
    MARKER315  'MARKER'  'INTEND'
    P9_13  COST  28.9613228845
    P9_13  MIN9_13  1
    P9_13  MAX9_13  1
    P9_13  RU9_13  1
    P9_13  RD9_13  -1
    P9_13  RU9_14  -1
    P9_13  RD9_14  1
    P9_13  BAL13  1
    MARKER316  'MARKER'  'INTORG'
    V9_13  COST  651.151233364
    V9_13  SU9_13  -1
    U9_14  MIN9_14  -18.755274873
    U9_14  MAX9_14  -155.751136839
    U9_14  SU9_14  1
    U9_14  SU9_15  -1
    U9_14  RES14  155.751136839
    MARKER317  'MARKER'  'INTEND'
    P9_14  COST  28.9613228845
    P9_14  MIN9_14  1
    P9_14  MAX9_14  1
    P9_14  RU9_14  1
    P9_14  RD9_14  -1
    P9_14  RU9_15  -1
    P9_14  RD9_15  1
    P9_14  BAL14  1
    MARKER318  'MARKER'  'INTORG'
    V9_14  COST  651.151233364
    V9_14  SU9_14  -1
    U9_15  MIN9_15  -18.755274873
    U9_15  MAX9_15  -155.751136839
    U9_15  SU9_15  1
    U9_15  RES15  155.751136839
    MARKER319  'MARKER'  'INTEND'
    P9_15  COST  28.9613228845
    P9_15  MIN9_15  1
    P9_15  MAX9_15  1
    P9_15  RU9_15  1
    P9_15  RD9_15  -1
    P9_15  BAL15  1
    MARKER320  'MARKER'  'INTORG'
    V9_15  COST  651.151233364
    V9_15  SU9_15  -1
    MARKER321  'MARKER'  'INTEND'
RHS
    RHS  MIN0_0  0
    RHS  MAX0_0  0
    RHS  MIN0_1  0
    RHS  MAX0_1  0
    RHS  SU0_1  0
    RHS  RU0_1  43.2812665671
    RHS  RD0_1  43.2812665671
    RHS  MIN0_2  0
    RHS  MAX0_2  0
    RHS  SU0_2  0
    RHS  RU0_2  43.2812665671
    RHS  RD0_2  43.2812665671
    RHS  MIN0_3  0
    RHS  MAX0_3  0
    RHS  SU0_3  0
    RHS  RU0_3  43.2812665671
    RHS  RD0_3  43.2812665671
    RHS  MIN0_4  0
    RHS  MAX0_4  0
    RHS  SU0_4  0
    RHS  RU0_4  43.2812665671
    RHS  RD0_4  43.2812665671
    RHS  MIN0_5  0
    RHS  MAX0_5  0
    RHS  SU0_5  0
    RHS  RU0_5  43.2812665671
    RHS  RD0_5  43.2812665671
    RHS  MIN0_6  0
    RHS  MAX0_6  0
    RHS  SU0_6  0
    RHS  RU0_6  43.2812665671
    RHS  RD0_6  43.2812665671
    RHS  MIN0_7  0
    RHS  MAX0_7  0
    RHS  SU0_7  0
    RHS  RU0_7  43.2812665671
    RHS  RD0_7  43.2812665671
    RHS  MIN0_8  0
    RHS  MAX0_8  0
    RHS  SU0_8  0
    RHS  RU0_8  43.2812665671
    RHS  RD0_8  43.2812665671
    RHS  MIN0_9  0
    RHS  MAX0_9  0
    RHS  SU0_9  0
    RHS  RU0_9  43.2812665671
    RHS  RD0_9  43.2812665671
    RHS  MIN0_10  0
    RHS  MAX0_10  0
    RHS  SU0_10  0
    RHS  RU0_10  43.2812665671
    RHS  RD0_10  43.2812665671
    RHS  MIN0_11  0
    RHS  MAX0_11  0
    RHS  SU0_11  0
    RHS  RU0_11  43.2812665671
    RHS  RD0_11  43.2812665671
    RHS  MIN0_12  0
    RHS  MAX0_12  0
    RHS  SU0_12  0
    RHS  RU0_12  43.2812665671
    RHS  RD0_12  43.2812665671
    RHS  MIN0_13  0
    RHS  MAX0_13  0
    RHS  SU0_13  0
    RHS  RU0_13  43.2812665671
    RHS  RD0_13  43.2812665671
    RHS  MIN0_14  0
    RHS  MAX0_14  0
    RHS  SU0_14  0
    RHS  RU0_14  43.2812665671
    RHS  RD0_14  43.2812665671
    RHS  MIN0_15  0
    RHS  MAX0_15  0
    RHS  SU0_15  0
    RHS  RU0_15  43.2812665671
    RHS  RD0_15  43.2812665671
    RHS  MIN1_0  0
    RHS  MAX1_0  0
    RHS  MIN1_1  0
    RHS  MAX1_1  0
    RHS  SU1_1  0
    RHS  RU1_1  88.1027450024
    RHS  RD1_1  88.1027450024
    RHS  MIN1_2  0
    RHS  MAX1_2  0
    RHS  SU1_2  0
    RHS  RU1_2  88.1027450024
    RHS  RD1_2  88.1027450024
    RHS  MIN1_3  0
    RHS  MAX1_3  0
    RHS  SU1_3  0
    RHS  RU1_3  88.1027450024
    RHS  RD1_3  88.1027450024
    RHS  MIN1_4  0
    RHS  MAX1_4  0
    RHS  SU1_4  0
    RHS  RU1_4  88.1027450024
    RHS  RD1_4  88.1027450024
    RHS  MIN1_5  0
    RHS  MAX1_5  0
    RHS  SU1_5  0
    RHS  RU1_5  88.1027450024
    RHS  RD1_5  88.1027450024
    RHS  MIN1_6  0
    RHS  MAX1_6  0
    RHS  SU1_6  0
    RHS  RU1_6  88.1027450024
    RHS  RD1_6  88.1027450024
    RHS  MIN1_7  0
    RHS  MAX1_7  0
    RHS  SU1_7  0
    RHS  RU1_7  88.1027450024
    RHS  RD1_7  88.1027450024
    RHS  MIN1_8  0
    RHS  MAX1_8  0
    RHS  SU1_8  0
    RHS  RU1_8  88.1027450024
    RHS  RD1_8  88.1027450024
    RHS  MIN1_9  0
    RHS  MAX1_9  0
    RHS  SU1_9  0
    RHS  RU1_9  88.1027450024
    RHS  RD1_9  88.1027450024
    RHS  MIN1_10  0
    RHS  MAX1_10  0
    RHS  SU1_10  0
    RHS  RU1_10  88.1027450024
    RHS  RD1_10  88.1027450024
    RHS  MIN1_11  0
    RHS  MAX1_11  0
    RHS  SU1_11  0
    RHS  RU1_11  88.1027450024
    RHS  RD1_11  88.1027450024
    RHS  MIN1_12  0
    RHS  MAX1_12  0
    RHS  SU1_12  0
    RHS  RU1_12  88.1027450024
    RHS  RD1_12  88.1027450024
    RHS  MIN1_13  0
    RHS  MAX1_13  0
    RHS  SU1_13  0
    RHS  RU1_13  88.1027450024
    RHS  RD1_13  88.1027450024
    RHS  MIN1_14  0
    RHS  MAX1_14  0
    RHS  SU1_14  0
    RHS  RU1_14  88.1027450024
    RHS  RD1_14  88.1027450024
    RHS  MIN1_15  0
    RHS  MAX1_15  0
    RHS  SU1_15  0
    RHS  RU1_15  88.1027450024
    RHS  RD1_15  88.1027450024
    RHS  MIN2_0  0
    RHS  MAX2_0  0
    RHS  MIN2_1  0
    RHS  MAX2_1  0
    RHS  SU2_1  0
    RHS  RU2_1  87.9839420839
    RHS  RD2_1  87.9839420839
    RHS  MIN2_2  0
    RHS  MAX2_2  0
    RHS  SU2_2  0
    RHS  RU2_2  87.9839420839
    RHS  RD2_2  87.9839420839
    RHS  MIN2_3  0
    RHS  MAX2_3  0
    RHS  SU2_3  0
    RHS  RU2_3  87.9839420839
    RHS  RD2_3  87.9839420839
    RHS  MIN2_4  0
    RHS  MAX2_4  0
    RHS  SU2_4  0
    RHS  RU2_4  87.9839420839
    RHS  RD2_4  87.9839420839
    RHS  MIN2_5  0
    RHS  MAX2_5  0
    RHS  SU2_5  0
    RHS  RU2_5  87.9839420839
    RHS  RD2_5  87.9839420839
    RHS  MIN2_6  0
    RHS  MAX2_6  0
    RHS  SU2_6  0
    RHS  RU2_6  87.9839420839
    RHS  RD2_6  87.9839420839
    RHS  MIN2_7  0
    RHS  MAX2_7  0
    RHS  SU2_7  0
    RHS  RU2_7  87.9839420839
    RHS  RD2_7  87.9839420839
    RHS  MIN2_8  0
    RHS  MAX2_8  0
    RHS  SU2_8  0
    RHS  RU2_8  87.9839420839
    RHS  RD2_8  87.9839420839
    RHS  MIN2_9  0
    RHS  MAX2_9  0
    RHS  SU2_9  0
    RHS  RU2_9  87.9839420839
    RHS  RD2_9  87.9839420839
    RHS  MIN2_10  0
    RHS  MAX2_10  0
    RHS  SU2_10  0
    RHS  RU2_10  87.9839420839
    RHS  RD2_10  87.9839420839
    RHS  MIN2_11  0
    RHS  MAX2_11  0
    RHS  SU2_11  0
    RHS  RU2_11  87.9839420839
    RHS  RD2_11  87.9839420839
    RHS  MIN2_12  0
    RHS  MAX2_12  0
    RHS  SU2_12  0
    RHS  RU2_12  87.9839420839
    RHS  RD2_12  87.9839420839
    RHS  MIN2_13  0
    RHS  MAX2_13  0
    RHS  SU2_13  0
    RHS  RU2_13  87.9839420839
    RHS  RD2_13  87.9839420839
    RHS  MIN2_14  0
    RHS  MAX2_14  0
    RHS  SU2_14  0
    RHS  RU2_14  87.9839420839
    RHS  RD2_14  87.9839420839
    RHS  MIN2_15  0
    RHS  MAX2_15  0
    RHS  SU2_15  0
    RHS  RU2_15  87.9839420839
    RHS  RD2_15  87.9839420839
    RHS  MIN3_0  0
    RHS  MAX3_0  0
    RHS  MIN3_1  0
    RHS  MAX3_1  0
    RHS  SU3_1  0
    RHS  RU3_1  76.1379955043
    RHS  RD3_1  76.1379955043
    RHS  MIN3_2  0
    RHS  MAX3_2  0
    RHS  SU3_2  0
    RHS  RU3_2  76.1379955043
    RHS  RD3_2  76.1379955043
    RHS  MIN3_3  0
    RHS  MAX3_3  0
    RHS  SU3_3  0
    RHS  RU3_3  76.1379955043
    RHS  RD3_3  76.1379955043
    RHS  MIN3_4  0
    RHS  MAX3_4  0
    RHS  SU3_4  0
    RHS  RU3_4  76.1379955043
    RHS  RD3_4  76.1379955043
    RHS  MIN3_5  0
    RHS  MAX3_5  0
    RHS  SU3_5  0
    RHS  RU3_5  76.1379955043
    RHS  RD3_5  76.1379955043
    RHS  MIN3_6  0
    RHS  MAX3_6  0
    RHS  SU3_6  0
    RHS  RU3_6  76.1379955043
    RHS  RD3_6  76.1379955043
    RHS  MIN3_7  0
    RHS  MAX3_7  0
    RHS  SU3_7  0
    RHS  RU3_7  76.1379955043
    RHS  RD3_7  76.1379955043
    RHS  MIN3_8  0
    RHS  MAX3_8  0
    RHS  SU3_8  0
    RHS  RU3_8  76.1379955043
    RHS  RD3_8  76.1379955043
    RHS  MIN3_9  0
    RHS  MAX3_9  0
    RHS  SU3_9  0
    RHS  RU3_9  76.1379955043
    RHS  RD3_9  76.1379955043
    RHS  MIN3_10  0
    RHS  MAX3_10  0
    RHS  SU3_10  0
    RHS  RU3_10  76.1379955043
    RHS  RD3_10  76.1379955043
    RHS  MIN3_11  0
    RHS  MAX3_11  0
    RHS  SU3_11  0
    RHS  RU3_11  76.1379955043
    RHS  RD3_11  76.1379955043
    RHS  MIN3_12  0
    RHS  MAX3_12  0
    RHS  SU3_12  0
    RHS  RU3_12  76.1379955043
    RHS  RD3_12  76.1379955043
    RHS  MIN3_13  0
    RHS  MAX3_13  0
    RHS  SU3_13  0
    RHS  RU3_13  76.1379955043
    RHS  RD3_13  76.1379955043
    RHS  MIN3_14  0
    RHS  MAX3_14  0
    RHS  SU3_14  0
    RHS  RU3_14  76.1379955043
    RHS  RD3_14  76.1379955043
    RHS  MIN3_15  0
    RHS  MAX3_15  0
    RHS  SU3_15  0
    RHS  RU3_15  76.1379955043
    RHS  RD3_15  76.1379955043
    RHS  MIN4_0  0
    RHS  MAX4_0  0
    RHS  MIN4_1  0
    RHS  MAX4_1  0
    RHS  SU4_1  0
    RHS  RU4_1  65.1836851488
    RHS  RD4_1  65.1836851488
    RHS  MIN4_2  0
    RHS  MAX4_2  0
    RHS  SU4_2  0
    RHS  RU4_2  65.1836851488
    RHS  RD4_2  65.1836851488
    RHS  MIN4_3  0
    RHS  MAX4_3  0
    RHS  SU4_3  0
    RHS  RU4_3  65.1836851488
    RHS  RD4_3  65.1836851488
    RHS  MIN4_4  0
    RHS  MAX4_4  0
    RHS  SU4_4  0
    RHS  RU4_4  65.1836851488
    RHS  RD4_4  65.1836851488
    RHS  MIN4_5  0
    RHS  MAX4_5  0
    RHS  SU4_5  0
    RHS  RU4_5  65.1836851488
    RHS  RD4_5  65.1836851488
    RHS  MIN4_6  0
    RHS  MAX4_6  0
    RHS  SU4_6  0
    RHS  RU4_6  65.1836851488
    RHS  RD4_6  65.1836851488
    RHS  MIN4_7  0
    RHS  MAX4_7  0
    RHS  SU4_7  0
    RHS  RU4_7  65.1836851488
    RHS  RD4_7  65.1836851488
    RHS  MIN4_8  0
    RHS  MAX4_8  0
    RHS  SU4_8  0
    RHS  RU4_8  65.1836851488
    RHS  RD4_8  65.1836851488
    RHS  MIN4_9  0
    RHS  MAX4_9  0
    RHS  SU4_9  0
    RHS  RU4_9  65.1836851488
    RHS  RD4_9  65.1836851488
    RHS  MIN4_10  0
    RHS  MAX4_10  0
    RHS  SU4_10  0
    RHS  RU4_10  65.1836851488
    RHS  RD4_10  65.1836851488
    RHS  MIN4_11  0
    RHS  MAX4_11  0
    RHS  SU4_11  0
    RHS  RU4_11  65.1836851488
    RHS  RD4_11  65.1836851488
    RHS  MIN4_12  0
    RHS  MAX4_12  0
    RHS  SU4_12  0
    RHS  RU4_12  65.1836851488
    RHS  RD4_12  65.1836851488
    RHS  MIN4_13  0
    RHS  MAX4_13  0
    RHS  SU4_13  0
    RHS  RU4_13  65.1836851488
    RHS  RD4_13  65.1836851488
    RHS  MIN4_14  0
    RHS  MAX4_14  0
    RHS  SU4_14  0
    RHS  RU4_14  65.1836851488
    RHS  RD4_14  65.1836851488
    RHS  MIN4_15  0
    RHS  MAX4_15  0
    RHS  SU4_15  0
    RHS  RU4_15  65.1836851488
    RHS  RD4_15  65.1836851488
    RHS  MIN5_0  0
    RHS  MAX5_0  0
    RHS  MIN5_1  0
    RHS  MAX5_1  0
    RHS  SU5_1  0
    RHS  RU5_1  62.6958137507
    RHS  RD5_1  62.6958137507
    RHS  MIN5_2  0
    RHS  MAX5_2  0
    RHS  SU5_2  0
    RHS  RU5_2  62.6958137507
    RHS  RD5_2  62.6958137507
    RHS  MIN5_3  0
    RHS  MAX5_3  0
    RHS  SU5_3  0
    RHS  RU5_3  62.6958137507
    RHS  RD5_3  62.6958137507
    RHS  MIN5_4  0
    RHS  MAX5_4  0
    RHS  SU5_4  0
    RHS  RU5_4  62.6958137507
    RHS  RD5_4  62.6958137507
    RHS  MIN5_5  0
    RHS  MAX5_5  0
    RHS  SU5_5  0
    RHS  RU5_5  62.6958137507
    RHS  RD5_5  62.6958137507
    RHS  MIN5_6  0
    RHS  MAX5_6  0
    RHS  SU5_6  0
    RHS  RU5_6  62.6958137507
    RHS  RD5_6  62.6958137507
    RHS  MIN5_7  0
    RHS  MAX5_7  0
    RHS  SU5_7  0
    RHS  RU5_7  62.6958137507
    RHS  RD5_7  62.6958137507
    RHS  MIN5_8  0
    RHS  MAX5_8  0
    RHS  SU5_8  0
    RHS  RU5_8  62.6958137507
    RHS  RD5_8  62.6958137507
    RHS  MIN5_9  0
    RHS  MAX5_9  0
    RHS  SU5_9  0
    RHS  RU5_9  62.6958137507
    RHS  RD5_9  62.6958137507
    RHS  MIN5_10  0
    RHS  MAX5_10  0
    RHS  SU5_10  0
    RHS  RU5_10  62.6958137507
    RHS  RD5_10  62.6958137507
    RHS  MIN5_11  0
    RHS  MAX5_11  0
    RHS  SU5_11  0
    RHS  RU5_11  62.6958137507
    RHS  RD5_11  62.6958137507
    RHS  MIN5_12  0
    RHS  MAX5_12  0
    RHS  SU5_12  0
    RHS  RU5_12  62.6958137507
    RHS  RD5_12  62.6958137507
    RHS  MIN5_13  0
    RHS  MAX5_13  0
    RHS  SU5_13  0
    RHS  RU5_13  62.6958137507
    RHS  RD5_13  62.6958137507
    RHS  MIN5_14  0
    RHS  MAX5_14  0
    RHS  SU5_14  0
    RHS  RU5_14  62.6958137507
    RHS  RD5_14  62.6958137507
    RHS  MIN5_15  0
    RHS  MAX5_15  0
    RHS  SU5_15  0
    RHS  RU5_15  62.6958137507
    RHS  RD5_15  62.6958137507
    RHS  MIN6_0  0
    RHS  MAX6_0  0
    RHS  MIN6_1  0
    RHS  MAX6_1  0
    RHS  SU6_1  0
    RHS  RU6_1  50.2758704903
    RHS  RD6_1  50.2758704903
    RHS  MIN6_2  0
    RHS  MAX6_2  0
    RHS  SU6_2  0
    RHS  RU6_2  50.2758704903
    RHS  RD6_2  50.2758704903
    RHS  MIN6_3  0
    RHS  MAX6_3  0
    RHS  SU6_3  0
    RHS  RU6_3  50.2758704903
    RHS  RD6_3  50.2758704903
    RHS  MIN6_4  0
    RHS  MAX6_4  0
    RHS  SU6_4  0
    RHS  RU6_4  50.2758704903
    RHS  RD6_4  50.2758704903
    RHS  MIN6_5  0
    RHS  MAX6_5  0
    RHS  SU6_5  0
    RHS  RU6_5  50.2758704903
    RHS  RD6_5  50.2758704903
    RHS  MIN6_6  0
    RHS  MAX6_6  0
    RHS  SU6_6  0
    RHS  RU6_6  50.2758704903
    RHS  RD6_6  50.2758704903
    RHS  MIN6_7  0
    RHS  MAX6_7  0
    RHS  SU6_7  0
    RHS  RU6_7  50.2758704903
    RHS  RD6_7  50.2758704903
    RHS  MIN6_8  0
    RHS  MAX6_8  0
    RHS  SU6_8  0
    RHS  RU6_8  50.2758704903
    RHS  RD6_8  50.2758704903
    RHS  MIN6_9  0
    RHS  MAX6_9  0
    RHS  SU6_9  0
    RHS  RU6_9  50.2758704903
    RHS  RD6_9  50.2758704903
    RHS  MIN6_10  0
    RHS  MAX6_10  0
    RHS  SU6_10  0
    RHS  RU6_10  50.2758704903
    RHS  RD6_10  50.2758704903
    RHS  MIN6_11  0
    RHS  MAX6_11  0
    RHS  SU6_11  0
    RHS  RU6_11  50.2758704903
    RHS  RD6_11  50.2758704903
    RHS  MIN6_12  0
    RHS  MAX6_12  0
    RHS  SU6_12  0
    RHS  RU6_12  50.2758704903
    RHS  RD6_12  50.2758704903
    RHS  MIN6_13  0
    RHS  MAX6_13  0
    RHS  SU6_13  0
    RHS  RU6_13  50.2758704903
    RHS  RD6_13  50.2758704903
    RHS  MIN6_14  0
    RHS  MAX6_14  0
    RHS  SU6_14  0
    RHS  RU6_14  50.2758704903
    RHS  RD6_14  50.2758704903
    RHS  MIN6_15  0
    RHS  MAX6_15  0
    RHS  SU6_15  0
    RHS  RU6_15  50.2758704903
    RHS  RD6_15  50.2758704903
    RHS  MIN7_0  0
    RHS  MAX7_0  0
    RHS  MIN7_1  0
    RHS  MAX7_1  0
    RHS  SU7_1  0
    RHS  RU7_1  80.375622167
    RHS  RD7_1  80.375622167
    RHS  MIN7_2  0
    RHS  MAX7_2  0
    RHS  SU7_2  0
    RHS  RU7_2  80.375622167
    RHS  RD7_2  80.375622167
    RHS  MIN7_3  0
    RHS  MAX7_3  0
    RHS  SU7_3  0
    RHS  RU7_3  80.375622167
    RHS  RD7_3  80.375622167
    RHS  MIN7_4  0
    RHS  MAX7_4  0
    RHS  SU7_4  0
    RHS  RU7_4  80.375622167
    RHS  RD7_4  80.375622167
    RHS  MIN7_5  0
    RHS  MAX7_5  0
    RHS  SU7_5  0
    RHS  RU7_5  80.375622167
    RHS  RD7_5  80.375622167
    RHS  MIN7_6  0
    RHS  MAX7_6  0
    RHS  SU7_6  0
    RHS  RU7_6  80.375622167
    RHS  RD7_6  80.375622167
    RHS  MIN7_7  0
    RHS  MAX7_7  0
    RHS  SU7_7  0
    RHS  RU7_7  80.375622167
    RHS  RD7_7  80.375622167
    RHS  MIN7_8  0
    RHS  MAX7_8  0
    RHS  SU7_8  0
    RHS  RU7_8  80.375622167
    RHS  RD7_8  80.375622167
    RHS  MIN7_9  0
    RHS  MAX7_9  0
    RHS  SU7_9  0
    RHS  RU7_9  80.375622167
    RHS  RD7_9  80.375622167
    RHS  MIN7_10  0
    RHS  MAX7_10  0
    RHS  SU7_10  0
    RHS  RU7_10  80.375622167
    RHS  RD7_10  80.375622167
    RHS  MIN7_11  0
    RHS  MAX7_11  0
    RHS  SU7_11  0
    RHS  RU7_11  80.375622167
    RHS  RD7_11  80.375622167
    RHS  MIN7_12  0
    RHS  MAX7_12  0
    RHS  SU7_12  0
    RHS  RU7_12  80.375622167
    RHS  RD7_12  80.375622167
    RHS  MIN7_13  0
    RHS  MAX7_13  0
    RHS  SU7_13  0
    RHS  RU7_13  80.375622167
    RHS  RD7_13  80.375622167
    RHS  MIN7_14  0
    RHS  MAX7_14  0
    RHS  SU7_14  0
    RHS  RU7_14  80.375622167
    RHS  RD7_14  80.375622167
    RHS  MIN7_15  0
    RHS  MAX7_15  0
    RHS  SU7_15  0
    RHS  RU7_15  80.375622167
    RHS  RD7_15  80.375622167
    RHS  MIN8_0  0
    RHS  MAX8_0  0
    RHS  MIN8_1  0
    RHS  MAX8_1  0
    RHS  SU8_1  0
    RHS  RU8_1  80.0514545935
    RHS  RD8_1  80.0514545935
    RHS  MIN8_2  0
    RHS  MAX8_2  0
    RHS  SU8_2  0
    RHS  RU8_2  80.0514545935
    RHS  RD8_2  80.0514545935
    RHS  MIN8_3  0
    RHS  MAX8_3  0
    RHS  SU8_3  0
    RHS  RU8_3  80.0514545935
    RHS  RD8_3  80.0514545935
    RHS  MIN8_4  0
    RHS  MAX8_4  0
    RHS  SU8_4  0
    RHS  RU8_4  80.0514545935
    RHS  RD8_4  80.0514545935
    RHS  MIN8_5  0
    RHS  MAX8_5  0
    RHS  SU8_5  0
    RHS  RU8_5  80.0514545935
    RHS  RD8_5  80.0514545935
    RHS  MIN8_6  0
    RHS  MAX8_6  0
    RHS  SU8_6  0
    RHS  RU8_6  80.0514545935
    RHS  RD8_6  80.0514545935
    RHS  MIN8_7  0
    RHS  MAX8_7  0
    RHS  SU8_7  0
    RHS  RU8_7  80.0514545935
    RHS  RD8_7  80.0514545935
    RHS  MIN8_8  0
    RHS  MAX8_8  0
    RHS  SU8_8  0
    RHS  RU8_8  80.0514545935
    RHS  RD8_8  80.0514545935
    RHS  MIN8_9  0
    RHS  MAX8_9  0
    RHS  SU8_9  0
    RHS  RU8_9  80.0514545935
    RHS  RD8_9  80.0514545935
    RHS  MIN8_10  0
    RHS  MAX8_10  0
    RHS  SU8_10  0
    RHS  RU8_10  80.0514545935
    RHS  RD8_10  80.0514545935
    RHS  MIN8_11  0
    RHS  MAX8_11  0
    RHS  SU8_11  0
    RHS  RU8_11  80.0514545935
    RHS  RD8_11  80.0514545935
    RHS  MIN8_12  0
    RHS  MAX8_12  0
    RHS  SU8_12  0
    RHS  RU8_12  80.0514545935
    RHS  RD8_12  80.0514545935
    RHS  MIN8_13  0
    RHS  MAX8_13  0
    RHS  SU8_13  0
    RHS  RU8_13  80.0514545935
    RHS  RD8_13  80.0514545935
    RHS  MIN8_14  0
    RHS  MAX8_14  0
    RHS  SU8_14  0
    RHS  RU8_14  80.0514545935
    RHS  RD8_14  80.0514545935
    RHS  MIN8_15  0
    RHS  MAX8_15  0
    RHS  SU8_15  0
    RHS  RU8_15  80.0514545935
    RHS  RD8_15  80.0514545935
    RHS  MIN9_0  0
    RHS  MAX9_0  0
    RHS  MIN9_1  0
    RHS  MAX9_1  0
    RHS  SU9_1  0
    RHS  RU9_1  52.8073007476
    RHS  RD9_1  52.8073007476
    RHS  MIN9_2  0
    RHS  MAX9_2  0
    RHS  SU9_2  0
    RHS  RU9_2  52.8073007476
    RHS  RD9_2  52.8073007476
    RHS  MIN9_3  0
    RHS  MAX9_3  0
    RHS  SU9_3  0
    RHS  RU9_3  52.8073007476
    RHS  RD9_3  52.8073007476
    RHS  MIN9_4  0
    RHS  MAX9_4  0
    RHS  SU9_4  0
    RHS  RU9_4  52.8073007476
    RHS  RD9_4  52.8073007476
    RHS  MIN9_5  0
    RHS  MAX9_5  0
    RHS  SU9_5  0
    RHS  RU9_5  52.8073007476
    RHS  RD9_5  52.8073007476
    RHS  MIN9_6  0
    RHS  MAX9_6  0
    RHS  SU9_6  0
    RHS  RU9_6  52.8073007476
    RHS  RD9_6  52.8073007476
    RHS  MIN9_7  0
    RHS  MAX9_7  0
    RHS  SU9_7  0
    RHS  RU9_7  52.8073007476
    RHS  RD9_7  52.8073007476
    RHS  MIN9_8  0
    RHS  MAX9_8  0
    RHS  SU9_8  0
    RHS  RU9_8  52.8073007476
    RHS  RD9_8  52.8073007476
    RHS  MIN9_9  0
    RHS  MAX9_9  0
    RHS  SU9_9  0
    RHS  RU9_9  52.8073007476
    RHS  RD9_9  52.8073007476
    RHS  MIN9_10  0
    RHS  MAX9_10  0
    RHS  SU9_10  0
    RHS  RU9_10  52.8073007476
    RHS  RD9_10  52.8073007476
    RHS  MIN9_11  0
    RHS  MAX9_11  0
    RHS  SU9_11  0
    RHS  RU9_11  52.8073007476
    RHS  RD9_11  52.8073007476
    RHS  MIN9_12  0
    RHS  MAX9_12  0
    RHS  SU9_12  0
    RHS  RU9_12  52.8073007476
    RHS  RD9_12  52.8073007476
    RHS  MIN9_13  0
    RHS  MAX9_13  0
    RHS  SU9_13  0
    RHS  RU9_13  52.8073007476
    RHS  RD9_13  52.8073007476
    RHS  MIN9_14  0
    RHS  MAX9_14  0
    RHS  SU9_14  0
    RHS  RU9_14  52.8073007476
    RHS  RD9_14  52.8073007476
    RHS  MIN9_15  0
    RHS  MAX9_15  0
    RHS  SU9_15  0
    RHS  RU9_15  52.8073007476
    RHS  RD9_15  52.8073007476
    RHS  BAL0  438.654632196
    RHS  RES0  491.293188059
    RHS  BAL1  524.719661226
    RHS  RES1  587.686020573
    RHS  BAL2  637.621977877
    RHS  RES2  714.136615223
    RHS  BAL3  674.24970702
    RHS  RES3  755.159671862
    RHS  BAL4  676.436649042
    RHS  RES4  757.609046927
    RHS  BAL5  640.519161305
    RHS  RES5  717.381460661
    RHS  BAL6  594.381838597
    RHS  RES6  665.707659229
    RHS  BAL7  489.236365767
    RHS  RES7  547.944729659
    RHS  BAL8  380.86831459
    RHS  RES8  426.572512341
    RHS  BAL9  312.52133709
    RHS  RES9  350.023897541
    RHS  BAL10  254.21664575
    RHS  RES10  284.72264324
    RHS  BAL11  196.853190655
    RHS  RES11  220.475573534
    RHS  BAL12  212.843384916
    RHS  RES12  238.384591106
    RHS  BAL13  275.474063388
    RHS  RES13  308.530950995
    RHS  BAL14  334.911856207
    RHS  RES14  375.101278952
    RHS  BAL15  460.280574349
    RHS  RES15  515.514243271
RANGES
BOUNDS
 UP BND  U0_0  1
 UP BND  P0_0  75.9576377134
 UP BND  V0_0  1
 UP BND  U0_1  1
 UP BND  P0_1  75.9576377134
 UP BND  V0_1  1
 UP BND  U0_2  1
 UP BND  P0_2  75.9576377134
 UP BND  V0_2  1
 UP BND  U0_3  1
 UP BND  P0_3  75.9576377134
 UP BND  V0_3  1
 UP BND  U0_4  1
 UP BND  P0_4  75.9576377134
 UP BND  V0_4  1
 UP BND  U0_5  1
 UP BND  P0_5  75.9576377134
 UP BND  V0_5  1
 UP BND  U0_6  1
 UP BND  P0_6  75.9576377134
 UP BND  V0_6  1
 UP BND  U0_7  1
 UP BND  P0_7  75.9576377134
 UP BND  V0_7  1
 UP BND  U0_8  1
 UP BND  P0_8  75.9576377134
 UP BND  V0_8  1
 UP BND  U0_9  1
 UP BND  P0_9  75.9576377134
 UP BND  V0_9  1
 UP BND  U0_10  1
 UP BND  P0_10  75.9576377134
 UP BND  V0_10  1
 UP BND  U0_11  1
 UP BND  P0_11  75.9576377134
 UP BND  V0_11  1
 UP BND  U0_12  1
 UP BND  P0_12  75.9576377134
 UP BND  V0_12  1
 UP BND  U0_13  1
 UP BND  P0_13  75.9576377134
 UP BND  V0_13  1
 UP BND  U0_14  1
 UP BND  P0_14  75.9576377134
 UP BND  V0_14  1
 UP BND  U0_15  1
 UP BND  P0_15  75.9576377134
 UP BND  V0_15  1
 UP BND  U1_0  1
 UP BND  P1_0  73.0974629125
 UP BND  V1_0  1
 UP BND  U1_1  1
 UP BND  P1_1  73.0974629125
 UP BND  V1_1  1
 UP BND  U1_2  1
 UP BND  P1_2  73.0974629125
 UP BND  V1_2  1
 UP BND  U1_3  1
 UP BND  P1_3  73.0974629125
 UP BND  V1_3  1
 UP BND  U1_4  1
 UP BND  P1_4  73.0974629125
 UP BND  V1_4  1
 UP BND  U1_5  1
 UP BND  P1_5  73.0974629125
 UP BND  V1_5  1
 UP BND  U1_6  1
 UP BND  P1_6  73.0974629125
 UP BND  V1_6  1
 UP BND  U1_7  1
 UP BND  P1_7  73.0974629125
 UP BND  V1_7  1
 UP BND  U1_8  1
 UP BND  P1_8  73.0974629125
 UP BND  V1_8  1
 UP BND  U1_9  1
 UP BND  P1_9  73.0974629125
 UP BND  V1_9  1
 UP BND  U1_10  1
 UP BND  P1_10  73.0974629125
 UP BND  V1_10  1
 UP BND  U1_11  1
 UP BND  P1_11  73.0974629125
 UP BND  V1_11  1
 UP BND  U1_12  1
 UP BND  P1_12  73.0974629125
 UP BND  V1_12  1
 UP BND  U1_13  1
 UP BND  P1_13  73.0974629125
 UP BND  V1_13  1
 UP BND  U1_14  1
 UP BND  P1_14  73.0974629125
 UP BND  V1_14  1
 UP BND  U1_15  1
 UP BND  P1_15  73.0974629125
 UP BND  V1_15  1
 UP BND  U2_0  1
 UP BND  P2_0  85.3400955994
 UP BND  V2_0  1
 UP BND  U2_1  1
 UP BND  P2_1  85.3400955994
 UP BND  V2_1  1
 UP BND  U2_2  1
 UP BND  P2_2  85.3400955994
 UP BND  V2_2  1
 UP BND  U2_3  1
 UP BND  P2_3  85.3400955994
 UP BND  V2_3  1
 UP BND  U2_4  1
 UP BND  P2_4  85.3400955994
 UP BND  V2_4  1
 UP BND  U2_5  1
 UP BND  P2_5  85.3400955994
 UP BND  V2_5  1
 UP BND  U2_6  1
 UP BND  P2_6  85.3400955994
 UP BND  V2_6  1
 UP BND  U2_7  1
 UP BND  P2_7  85.3400955994
 UP BND  V2_7  1
 UP BND  U2_8  1
 UP BND  P2_8  85.3400955994
 UP BND  V2_8  1
 UP BND  U2_9  1
 UP BND  P2_9  85.3400955994
 UP BND  V2_9  1
 UP BND  U2_10  1
 UP BND  P2_10  85.3400955994
 UP BND  V2_10  1
 UP BND  U2_11  1
 UP BND  P2_11  85.3400955994
 UP BND  V2_11  1
 UP BND  U2_12  1
 UP BND  P2_12  85.3400955994
 UP BND  V2_12  1
 UP BND  U2_13  1
 UP BND  P2_13  85.3400955994
 UP BND  V2_13  1
 UP BND  U2_14  1
 UP BND  P2_14  85.3400955994
 UP BND  V2_14  1
 UP BND  U2_15  1
 UP BND  P2_15  85.3400955994
 UP BND  V2_15  1
 UP BND  U3_0  1
 UP BND  P3_0  166.752972829
 UP BND  V3_0  1
 UP BND  U3_1  1
 UP BND  P3_1  166.752972829
 UP BND  V3_1  1
 UP BND  U3_2  1
 UP BND  P3_2  166.752972829
 UP BND  V3_2  1
 UP BND  U3_3  1
 UP BND  P3_3  166.752972829
 UP BND  V3_3  1
 UP BND  U3_4  1
 UP BND  P3_4  166.752972829
 UP BND  V3_4  1
 UP BND  U3_5  1
 UP BND  P3_5  166.752972829
 UP BND  V3_5  1
 UP BND  U3_6  1
 UP BND  P3_6  166.752972829
 UP BND  V3_6  1
 UP BND  U3_7  1
 UP BND  P3_7  166.752972829
 UP BND  V3_7  1
 UP BND  U3_8  1
 UP BND  P3_8  166.752972829
 UP BND  V3_8  1
 UP BND  U3_9  1
 UP BND  P3_9  166.752972829
 UP BND  V3_9  1
 UP BND  U3_10  1
 UP BND  P3_10  166.752972829
 UP BND  V3_10  1
 UP BND  U3_11  1
 UP BND  P3_11  166.752972829
 UP BND  V3_11  1
 UP BND  U3_12  1
 UP BND  P3_12  166.752972829
 UP BND  V3_12  1
 UP BND  U3_13  1
 UP BND  P3_13  166.752972829
 UP BND  V3_13  1
 UP BND  U3_14  1
 UP BND  P3_14  166.752972829
 UP BND  V3_14  1
 UP BND  U3_15  1
 UP BND  P3_15  166.752972829
 UP BND  V3_15  1
 UP BND  U4_0  1
 UP BND  P4_0  88.8568904332
 UP BND  V4_0  1
 UP BND  U4_1  1
 UP BND  P4_1  88.8568904332
 UP BND  V4_1  1
 UP BND  U4_2  1
 UP BND  P4_2  88.8568904332
 UP BND  V4_2  1
 UP BND  U4_3  1
 UP BND  P4_3  88.8568904332
 UP BND  V4_3  1
 UP BND  U4_4  1
 UP BND  P4_4  88.8568904332
 UP BND  V4_4  1
 UP BND  U4_5  1
 UP BND  P4_5  88.8568904332
 UP BND  V4_5  1
 UP BND  U4_6  1
 UP BND  P4_6  88.8568904332
 UP BND  V4_6  1
 UP BND  U4_7  1
 UP BND  P4_7  88.8568904332
 UP BND  V4_7  1
 UP BND  U4_8  1
 UP BND  P4_8  88.8568904332
 UP BND  V4_8  1
 UP BND  U4_9  1
 UP BND  P4_9  88.8568904332
 UP BND  V4_9  1
 UP BND  U4_10  1
 UP BND  P4_10  88.8568904332
 UP BND  V4_10  1
 UP BND  U4_11  1
 UP BND  P4_11  88.8568904332
 UP BND  V4_11  1
 UP BND  U4_12  1
 UP BND  P4_12  88.8568904332
 UP BND  V4_12  1
 UP BND  U4_13  1
 UP BND  P4_13  88.8568904332
 UP BND  V4_13  1
 UP BND  U4_14  1
 UP BND  P4_14  88.8568904332
 UP BND  V4_14  1
 UP BND  U4_15  1
 UP BND  P4_15  88.8568904332
 UP BND  V4_15  1
 UP BND  U5_0  1
 UP BND  P5_0  111.730622908
 UP BND  V5_0  1
 UP BND  U5_1  1
 UP BND  P5_1  111.730622908
 UP BND  V5_1  1
 UP BND  U5_2  1
 UP BND  P5_2  111.730622908
 UP BND  V5_2  1
 UP BND  U5_3  1
 UP BND  P5_3  111.730622908
 UP BND  V5_3  1
 UP BND  U5_4  1
 UP BND  P5_4  111.730622908
 UP BND  V5_4  1
 UP BND  U5_5  1
 UP BND  P5_5  111.730622908
 UP BND  V5_5  1
 UP BND  U5_6  1
 UP BND  P5_6  111.730622908
 UP BND  V5_6  1
 UP BND  U5_7  1
 UP BND  P5_7  111.730622908
 UP BND  V5_7  1
 UP BND  U5_8  1
 UP BND  P5_8  111.730622908
 UP BND  V5_8  1
 UP BND  U5_9  1
 UP BND  P5_9  111.730622908
 UP BND  V5_9  1
 UP BND  U5_10  1
 UP BND  P5_10  111.730622908
 UP BND  V5_10  1
 UP BND  U5_11  1
 UP BND  P5_11  111.730622908
 UP BND  V5_11  1
 UP BND  U5_12  1
 UP BND  P5_12  111.730622908
 UP BND  V5_12  1
 UP BND  U5_13  1
 UP BND  P5_13  111.730622908
 UP BND  V5_13  1
 UP BND  U5_14  1
 UP BND  P5_14  111.730622908
 UP BND  V5_14  1
 UP BND  U5_15  1
 UP BND  P5_15  111.730622908
 UP BND  V5_15  1
 UP BND  U6_0  1
 UP BND  P6_0  137.366116408
 UP BND  V6_0  1
 UP BND  U6_1  1
 UP BND  P6_1  137.366116408
 UP BND  V6_1  1
 UP BND  U6_2  1
 UP BND  P6_2  137.366116408
 UP BND  V6_2  1
 UP BND  U6_3  1
 UP BND  P6_3  137.366116408
 UP BND  V6_3  1
 UP BND  U6_4  1
 UP BND  P6_4  137.366116408
 UP BND  V6_4  1
 UP BND  U6_5  1
 UP BND  P6_5  137.366116408
 UP BND  V6_5  1
 UP BND  U6_6  1
 UP BND  P6_6  137.366116408
 UP BND  V6_6  1
 UP BND  U6_7  1
 UP BND  P6_7  137.366116408
 UP BND  V6_7  1
 UP BND  U6_8  1
 UP BND  P6_8  137.366116408
 UP BND  V6_8  1
 UP BND  U6_9  1
 UP BND  P6_9  137.366116408
 UP BND  V6_9  1
 UP BND  U6_10  1
 UP BND  P6_10  137.366116408
 UP BND  V6_10  1
 UP BND  U6_11  1
 UP BND  P6_11  137.366116408
 UP BND  V6_11  1
 UP BND  U6_12  1
 UP BND  P6_12  137.366116408
 UP BND  V6_12  1
 UP BND  U6_13  1
 UP BND  P6_13  137.366116408
 UP BND  V6_13  1
 UP BND  U6_14  1
 UP BND  P6_14  137.366116408
 UP BND  V6_14  1
 UP BND  U6_15  1
 UP BND  P6_15  137.366116408
 UP BND  V6_15  1
 UP BND  U7_0  1
 UP BND  P7_0  136.71492113
 UP BND  V7_0  1
 UP BND  U7_1  1
 UP BND  P7_1  136.71492113
 UP BND  V7_1  1
 UP BND  U7_2  1
 UP BND  P7_2  136.71492113
 UP BND  V7_2  1
 UP BND  U7_3  1
 UP BND  P7_3  136.71492113
 UP BND  V7_3  1
 UP BND  U7_4  1
 UP BND  P7_4  136.71492113
 UP BND  V7_4  1
 UP BND  U7_5  1
 UP BND  P7_5  136.71492113
 UP BND  V7_5  1
 UP BND  U7_6  1
 UP BND  P7_6  136.71492113
 UP BND  V7_6  1
 UP BND  U7_7  1
 UP BND  P7_7  136.71492113
 UP BND  V7_7  1
 UP BND  U7_8  1
 UP BND  P7_8  136.71492113
 UP BND  V7_8  1
 UP BND  U7_9  1
 UP BND  P7_9  136.71492113
 UP BND  V7_9  1
 UP BND  U7_10  1
 UP BND  P7_10  136.71492113
 UP BND  V7_10  1
 UP BND  U7_11  1
 UP BND  P7_11  136.71492113
 UP BND  V7_11  1
 UP BND  U7_12  1
 UP BND  P7_12  136.71492113
 UP BND  V7_12  1
 UP BND  U7_13  1
 UP BND  P7_13  136.71492113
 UP BND  V7_13  1
 UP BND  U7_14  1
 UP BND  P7_14  136.71492113
 UP BND  V7_14  1
 UP BND  U7_15  1
 UP BND  P7_15  136.71492113
 UP BND  V7_15  1
 UP BND  U8_0  1
 UP BND  P8_0  84.0537185309
 UP BND  V8_0  1
 UP BND  U8_1  1
 UP BND  P8_1  84.0537185309
 UP BND  V8_1  1
 UP BND  U8_2  1
 UP BND  P8_2  84.0537185309
 UP BND  V8_2  1
 UP BND  U8_3  1
 UP BND  P8_3  84.0537185309
 UP BND  V8_3  1
 UP BND  U8_4  1
 UP BND  P8_4  84.0537185309
 UP BND  V8_4  1
 UP BND  U8_5  1
 UP BND  P8_5  84.0537185309
 UP BND  V8_5  1
 UP BND  U8_6  1
 UP BND  P8_6  84.0537185309
 UP BND  V8_6  1
 UP BND  U8_7  1
 UP BND  P8_7  84.0537185309
 UP BND  V8_7  1
 UP BND  U8_8  1
 UP BND  P8_8  84.0537185309
 UP BND  V8_8  1
 UP BND  U8_9  1
 UP BND  P8_9  84.0537185309
 UP BND  V8_9  1
 UP BND  U8_10  1
 UP BND  P8_10  84.0537185309
 UP BND  V8_10  1
 UP BND  U8_11  1
 UP BND  P8_11  84.0537185309
 UP BND  V8_11  1
 UP BND  U8_12  1
 UP BND  P8_12  84.0537185309
 UP BND  V8_12  1
 UP BND  U8_13  1
 UP BND  P8_13  84.0537185309
 UP BND  V8_13  1
 UP BND  U8_14  1
 UP BND  P8_14  84.0537185309
 UP BND  V8_14  1
 UP BND  U8_15  1
 UP BND  P8_15  84.0537185309
 UP BND  V8_15  1
 UP BND  U9_0  1
 UP BND  P9_0  155.751136839
 UP BND  V9_0  1
 UP BND  U9_1  1
 UP BND  P9_1  155.751136839
 UP BND  V9_1  1
 UP BND  U9_2  1
 UP BND  P9_2  155.751136839
 UP BND  V9_2  1
 UP BND  U9_3  1
 UP BND  P9_3  155.751136839
 UP BND  V9_3  1
 UP BND  U9_4  1
 UP BND  P9_4  155.751136839
 UP BND  V9_4  1
 UP BND  U9_5  1
 UP BND  P9_5  155.751136839
 UP BND  V9_5  1
 UP BND  U9_6  1
 UP BND  P9_6  155.751136839
 UP BND  V9_6  1
 UP BND  U9_7  1
 UP BND  P9_7  155.751136839
 UP BND  V9_7  1
 UP BND  U9_8  1
 UP BND  P9_8  155.751136839
 UP BND  V9_8  1
 UP BND  U9_9  1
 UP BND  P9_9  155.751136839
 UP BND  V9_9  1
 UP BND  U9_10  1
 UP BND  P9_10  155.751136839
 UP BND  V9_10  1
 UP BND  U9_11  1
 UP BND  P9_11  155.751136839
 UP BND  V9_11  1
 UP BND  U9_12  1
 UP BND  P9_12  155.751136839
 UP BND  V9_12  1
 UP BND  U9_13  1
 UP BND  P9_13  155.751136839
 UP BND  V9_13  1
 UP BND  U9_14  1
 UP BND  P9_14  155.751136839
 UP BND  V9_14  1
 UP BND  U9_15  1
 UP BND  P9_15  155.751136839
 UP BND  V9_15  1
ENDATA
