NAME          BLEND0
ROWS
 N  COST
 L  AV0
 L  AV1
 L  AV2
 L  AV3
 L  AV4
 L  AV5
 L  AV6
 L  AV7
 L  AV8
 L  AV9
 L  AV10
 L  AV11
 L  AV12
 L  AV13
 L  AV14
 L  AV15
 L  AV16
 L  AV17
 L  AV18
 L  AV19
 L  AV20
 L  AV21
 L  AV22
 L  AV23
 L  AV24
 L  AV25
 L  AV26
 L  AV27
 L  AV28
 L  AV29
 L  AV30
 L  AV31
 L  AV32
 L  AV33
 L  AV34
 L  AV35
 L  AV36
 L  AV37
 L  AV38
 L  AV39
 E  PB0
 E  PB1
 E  PB2
 E  PB3
 E  PB4
 E  PB5
 E  PB6
 E  PB7
 E  PB8
 E  PB9
 E  PB10
 E  PB11
 L  DM0
 L  DM1
 L  DM2
 L  DM3
 L  DM4
 L  DM5
 L  DM6
 L  DM7
 L  DM8
 L  DM9
 L  DM10
 L  DM11
 L  DM12
 L  DM13
 L  Q0_0
 L  Q0_1
 L  Q0_2
 L  Q0_3
 L  Q0_4
 L  Q0_5
 L  Q1_0
 L  Q1_1
 L  Q1_2
 L  Q1_3
 L  Q1_4
 L  Q1_5
 L  Q2_0
 L  Q2_1
 L  Q2_2
 L  Q2_3
 L  Q2_4
 L  Q2_5
 L  Q3_0
 L  Q3_1
 L  Q3_2
 L  Q3_3
 L  Q3_4
 L  Q3_5
 L  Q4_0
 L  Q4_1
 L  Q4_2
 L  Q4_3
 L  Q4_4
 L  Q4_5
 L  Q5_0
 L  Q5_1
 L  Q5_2
 L  Q5_3
 L  Q5_4
 L  Q5_5
 L  Q6_0
 L  Q6_1
 L  Q6_2
 L  Q6_3
 L  Q6_4
 L  Q6_5
 L  Q7_0
 L  Q7_1
 L  Q7_2
 L  Q7_3
 L  Q7_4
 L  Q7_5
 L  Q8_0
 L  Q8_1
 L  Q8_2
 L  Q8_3
 L  Q8_4
 L  Q8_5
 L  Q9_0
 L  Q9_1
 L  Q9_2
 L  Q9_3
 L  Q9_4
 L  Q9_5
 L  Q10_0
 L  Q10_1
 L  Q10_2
 L  Q10_3
 L  Q10_4
 L  Q10_5
 L  Q11_0
 L  Q11_1
 L  Q11_2
 L  Q11_3
 L  Q11_4
 L  Q11_5
 L  Q12_0
 L  Q12_1
 L  Q12_2
 L  Q12_3
 L  Q12_4
 L  Q12_5
 L  Q13_0
 L  Q13_1
 L  Q13_2
 L  Q13_3
 L  Q13_4
 L  Q13_5
COLUMNS
    F0_3  COST  50.0618828572
    F0_3  AV0  1
    F0_3  PB3  1
    F0_6  COST  50.0618828572
    F0_6  AV0  1
    F0_6  PB6  1
    F0_7  COST  50.0618828572
    F0_7  AV0  1
    F0_7  PB7  1
    F0_10  COST  50.0618828572
    F0_10  AV0  1
    F0_10  PB10  1
    F0_11  COST  50.0618828572
    F0_11  AV0  1
    F0_11  PB11  1
    F1_3  COST  92.9660527068
    F1_3  AV1  1
    F1_3  PB3  1
    F1_4  COST  92.9660527068
    F1_4  AV1  1
    F1_4  PB4  1
    F1_5  COST  92.9660527068
    F1_5  AV1  1
    F1_5  PB5  1
    F1_7  COST  92.9660527068
    F1_7  AV1  1
    F1_7  PB7  1
    F1_9  COST  92.9660527068
    F1_9  AV1  1
    F1_9  PB9  1
    F2_0  COST  84.0504370135
    F2_0  AV2  1
    F2_0  PB0  1
    F2_4  COST  84.0504370135
    F2_4  AV2  1
    F2_4  PB4  1
    F2_8  COST  84.0504370135
    F2_8  AV2  1
    F2_8  PB8  1
    F2_9  COST  84.0504370135
    F2_9  AV2  1
    F2_9  PB9  1
    F2_11  COST  84.0504370135
    F2_11  AV2  1
    F2_11  PB11  1
    F3_11  COST  66.4693273116
    F3_11  AV3  1
    F3_11  PB11  1
    F4_1  COST  84.7443735299
    F4_1  AV4  1
    F4_1  PB1  1
    F4_4  COST  84.7443735299
    F4_4  AV4  1
    F4_4  PB4  1
    F4_6  COST  84.7443735299
    F4_6  AV4  1
    F4_6  PB6  1
    F4_7  COST  84.7443735299
    F4_7  AV4  1
    F4_7  PB7  1
    F4_8  COST  84.7443735299
    F4_8  AV4  1
    F4_8  PB8  1
    F4_10  COST  84.7443735299
    F4_10  AV4  1
    F4_10  PB10  1
    F5_0  COST  73.1566897883
    F5_0  AV5  1
    F5_0  PB0  1
    F6_1  COST  76.0316585195
    F6_1  AV6  1
    F6_1  PB1  1
    F6_3  COST  76.0316585195
    F6_3  AV6  1
    F6_3  PB3  1
    F6_8  COST  76.0316585195
    F6_8  AV6  1
    F6_8  PB8  1
    F7_5  COST  90.2529919489
    F7_5  AV7  1
    F7_5  PB5  1
    F7_6  COST  90.2529919489
    F7_6  AV7  1
    F7_6  PB6  1
    F7_9  COST  90.2529919489
    F7_9  AV7  1
    F7_9  PB9  1
    F8_4  COST  43.5898729026
    F8_4  AV8  1
    F8_4  PB4  1
    F8_5  COST  43.5898729026
    F8_5  AV8  1
    F8_5  PB5  1
    F9_2  COST  85.9243512177
    F9_2  AV9  1
    F9_2  PB2  1
    F9_5  COST  85.9243512177
    F9_5  AV9  1
    F9_5  PB5  1
    F9_6  COST  85.9243512177
    F9_6  AV9  1
    F9_6  PB6  1
    F9_10  COST  85.9243512177
    F9_10  AV9  1
    F9_10  PB10  1
    F9_11  COST  85.9243512177
    F9_11  AV9  1
    F9_11  PB11  1
    F10_2  COST  60.9998128981
    F10_2  AV10  1
    F10_2  PB2  1
    F10_3  COST  60.9998128981
    F10_3  AV10  1
    F10_3  PB3  1
    F10_5  COST  60.9998128981
    F10_5  AV10  1
    F10_5  PB5  1
    F10_6  COST  60.9998128981
    F10_6  AV10  1
    F10_6  PB6  1
    F10_10  COST  60.9998128981
    F10_10  AV10  1
    F10_10  PB10  1
    F10_11  COST  60.9998128981
    F10_11  AV10  1
    F10_11  PB11  1
    F11_10  COST  57.9050088855
    F11_10  AV11  1
    F11_10  PB10  1
    F11_11  COST  57.9050088855
    F11_11  AV11  1
    F11_11  PB11  1
    F12_8  COST  94.6714724165
    F12_8  AV12  1
    F12_8  PB8  1
    F12_11  COST  94.6714724165
    F12_11  AV12  1
    F12_11  PB11  1
    F13_0  COST  82.9654776142
    F13_0  AV13  1
    F13_0  PB0  1
    F13_2  COST  82.9654776142
    F13_2  AV13  1
    F13_2  PB2  1
    F13_10  COST  82.9654776142
    F13_10  AV13  1
    F13_10  PB10  1
    F14_3  COST  66.7044326329
    F14_3  AV14  1
    F14_3  PB3  1
    F14_4  COST  66.7044326329
    F14_4  AV14  1
    F14_4  PB4  1
    F14_6  COST  66.7044326329
    F14_6  AV14  1
    F14_6  PB6  1
    F14_7  COST  66.7044326329
    F14_7  AV14  1
    F14_7  PB7  1
    F14_11  COST  66.7044326329
    F14_11  AV14  1
    F14_11  PB11  1
    F15_5  COST  63.2445618034
    F15_5  AV15  1
    F15_5  PB5  1
    F15_6  COST  63.2445618034
    F15_6  AV15  1
    F15_6  PB6  1
    F15_7  COST  63.2445618034
    F15_7  AV15  1
    F15_7  PB7  1
    F15_10  COST  63.2445618034
    F15_10  AV15  1
    F15_10  PB10  1
    F16_1  COST  88.2640898229
    F16_1  AV16  1
    F16_1  PB1  1
    F16_5  COST  88.2640898229
    F16_5  AV16  1
    F16_5  PB5  1
    F16_6  COST  88.2640898229
    F16_6  AV16  1
    F16_6  PB6  1
    F17_0  COST  44.7748179718
    F17_0  AV17  1
    F17_0  PB0  1
    F17_1  COST  44.7748179718
    F17_1  AV17  1
    F17_1  PB1  1
    F17_3  COST  44.7748179718
    F17_3  AV17  1
    F17_3  PB3  1
    F17_5  COST  44.7748179718
    F17_5  AV17  1
    F17_5  PB5  1
    F17_10  COST  44.7748179718
    F17_10  AV17  1
    F17_10  PB10  1
    F17_11  COST  44.7748179718
    F17_11  AV17  1
    F17_11  PB11  1
    F18_0  COST  78.9630316303
    F18_0  AV18  1
    F18_0  PB0  1
    F18_1  COST  78.9630316303
    F18_1  AV18  1
    F18_1  PB1  1
    F18_3  COST  78.9630316303
    F18_3  AV18  1
    F18_3  PB3  1
    F18_5  COST  78.9630316303
    F18_5  AV18  1
    F18_5  PB5  1
    F18_8  COST  78.9630316303
    F18_8  AV18  1
    F18_8  PB8  1
    F18_10  COST  78.9630316303
    F18_10  AV18  1
    F18_10  PB10  1
    F18_11  COST  78.9630316303
    F18_11  AV18  1
    F18_11  PB11  1
    F19_6  COST  83.4035043038
    F19_6  AV19  1
    F19_6  PB6  1
    F19_11  COST  83.4035043038
    F19_11  AV19  1
    F19_11  PB11  1
    F20_0  COST  83.9558008844
    F20_0  AV20  1
    F20_0  PB0  1
    F20_1  COST  83.9558008844
    F20_1  AV20  1
    F20_1  PB1  1
    F20_9  COST  83.9558008844
    F20_9  AV20  1
    F20_9  PB9  1
    F20_11  COST  83.9558008844
    F20_11  AV20  1
    F20_11  PB11  1
    F21_0  COST  57.7257698607
    F21_0  AV21  1
    F21_0  PB0  1
    F21_6  COST  57.7257698607
    F21_6  AV21  1
    F21_6  PB6  1
    F21_8  COST  57.7257698607
    F21_8  AV21  1
    F21_8  PB8  1
    F21_9  COST  57.7257698607
    F21_9  AV21  1
    F21_9  PB9  1
    F22_0  COST  83.815155051
    F22_0  AV22  1
    F22_0  PB0  1
    F22_5  COST  83.815155051
    F22_5  AV22  1
    F22_5  PB5  1
    F22_6  COST  83.815155051
    F22_6  AV22  1
    F22_6  PB6  1
    F22_10  COST  83.815155051
    F22_10  AV22  1
    F22_10  PB10  1
    F23_1  COST  52.3930643032
    F23_1  AV23  1
    F23_1  PB1  1
    F23_6  COST  52.3930643032
    F23_6  AV23  1
    F23_6  PB6  1
    F23_8  COST  52.3930643032
    F23_8  AV23  1
    F23_8  PB8  1
    F23_9  COST  52.3930643032
    F23_9  AV23  1
    F23_9  PB9  1
    F23_10  COST  52.3930643032
    F23_10  AV23  1
    F23_10  PB10  1
    F24_2  COST  59.9269372767
    F24_2  AV24  1
    F24_2  PB2  1
    F24_4  COST  59.9269372767
    F24_4  AV24  1
    F24_4  PB4  1
    F24_5  COST  59.9269372767
    F24_5  AV24  1
    F24_5  PB5  1
    F24_11  COST  59.9269372767
    F24_11  AV24  1
    F24_11  PB11  1
    F25_0  COST  62.9596461712
    F25_0  AV25  1
    F25_0  PB0  1
    F25_5  COST  62.9596461712
    F25_5  AV25  1
    F25_5  PB5  1
    F25_8  COST  62.9596461712
    F25_8  AV25  1
    F25_8  PB8  1
    F25_9  COST  62.9596461712
    F25_9  AV25  1
    F25_9  PB9  1
    F25_10  COST  62.9596461712
    F25_10  AV25  1
    F25_10  PB10  1
    F26_1  COST  69.7775490997
    F26_1  AV26  1
    F26_1  PB1  1
    F26_4  COST  69.7775490997
    F26_4  AV26  1
    F26_4  PB4  1
    F26_7  COST  69.7775490997
    F26_7  AV26  1
    F26_7  PB7  1
    F26_8  COST  69.7775490997
    F26_8  AV26  1
    F26_8  PB8  1
    F27_1  COST  46.1937516047
    F27_1  AV27  1
    F27_1  PB1  1
    F27_2  COST  46.1937516047
    F27_2  AV27  1
    F27_2  PB2  1
    F27_3  COST  46.1937516047
    F27_3  AV27  1
    F27_3  PB3  1
    F27_5  COST  46.1937516047
    F27_5  AV27  1
    F27_5  PB5  1
    F27_8  COST  46.1937516047
    F27_8  AV27  1
    F27_8  PB8  1
    F27_9  COST  46.1937516047
    F27_9  AV27  1
    F27_9  PB9  1
    F28_0  COST  62.3821290352
    F28_0  AV28  1
    F28_0  PB0  1
    F28_1  COST  62.3821290352
    F28_1  AV28  1
    F28_1  PB1  1
    F28_6  COST  62.3821290352
    F28_6  AV28  1
    F28_6  PB6  1
    F28_7  COST  62.3821290352
    F28_7  AV28  1
    F28_7  PB7  1
    F28_11  COST  62.3821290352
    F28_11  AV28  1
    F28_11  PB11  1
    F29_5  COST  40.0165379559
    F29_5  AV29  1
    F29_5  PB5  1
    F29_9  COST  40.0165379559
    F29_9  AV29  1
    F29_9  PB9  1
    F29_11  COST  40.0165379559
    F29_11  AV29  1
    F29_11  PB11  1
    F30_11  COST  80.9409399491
    F30_11  AV30  1
    F30_11  PB11  1
    F31_0  COST  86.8531751729
    F31_0  AV31  1
    F31_0  PB0  1
    F31_2  COST  86.8531751729
    F31_2  AV31  1
    F31_2  PB2  1
    F31_4  COST  86.8531751729
    F31_4  AV31  1
    F31_4  PB4  1
    F31_7  COST  86.8531751729
    F31_7  AV31  1
    F31_7  PB7  1
    F32_6  COST  47.6412423516
    F32_6  AV32  1
    F32_6  PB6  1
    F32_8  COST  47.6412423516
    F32_8  AV32  1
    F32_8  PB8  1
    F32_11  COST  47.6412423516
    F32_11  AV32  1
    F32_11  PB11  1
    F33_0  COST  78.7082173097
    F33_0  AV33  1
    F33_0  PB0  1
    F33_3  COST  78.7082173097
    F33_3  AV33  1
    F33_3  PB3  1
    F33_5  COST  78.7082173097
    F33_5  AV33  1
    F33_5  PB5  1
    F33_6  COST  78.7082173097
    F33_6  AV33  1
    F33_6  PB6  1
    F33_10  COST  78.7082173097
    F33_10  AV33  1
    F33_10  PB10  1
    F34_1  COST  85.1606698617
    F34_1  AV34  1
    F34_1  PB1  1
    F34_4  COST  85.1606698617
    F34_4  AV34  1
    F34_4  PB4  1
    F34_5  COST  85.1606698617
    F34_5  AV34  1
    F34_5  PB5  1
    F34_8  COST  85.1606698617
    F34_8  AV34  1
    F34_8  PB8  1
    F34_10  COST  85.1606698617
    F34_10  AV34  1
    F34_10  PB10  1
    F35_1  COST  94.0005577579
    F35_1  AV35  1
    F35_1  PB1  1
    F35_2  COST  94.0005577579
    F35_2  AV35  1
    F35_2  PB2  1
    F35_7  COST  94.0005577579
    F35_7  AV35  1
    F35_7  PB7  1
    F35_9  COST  94.0005577579
    F35_9  AV35  1
    F35_9  PB9  1
    F35_10  COST  94.0005577579
    F35_10  AV35  1
    F35_10  PB10  1
    F35_11  COST  94.0005577579
    F35_11  AV35  1
    F35_11  PB11  1
    F36_1  COST  86.4084809303
    F36_1  AV36  1
    F36_1  PB1  1
    F36_3  COST  86.4084809303
    F36_3  AV36  1
    F36_3  PB3  1
    F36_4  COST  86.4084809303
    F36_4  AV36  1
    F36_4  PB4  1
    F36_9  COST  86.4084809303
    F36_9  AV36  1
    F36_9  PB9  1
    F37_0  COST  63.3258566994
    F37_0  AV37  1
    F37_0  PB0  1
    F37_4  COST  63.3258566994
    F37_4  AV37  1
    F37_4  PB4  1
    F37_10  COST  63.3258566994
    F37_10  AV37  1
    F37_10  PB10  1
    F38_1  COST  93.882878968
    F38_1  AV38  1
    F38_1  PB1  1
    F38_3  COST  93.882878968
    F38_3  AV38  1
    F38_3  PB3  1
    F38_6  COST  93.882878968
    F38_6  AV38  1
    F38_6  PB6  1
    F38_9  COST  93.882878968
    F38_9  AV38  1
    F38_9  PB9  1
    F38_11  COST  93.882878968
    F38_11  AV38  1
    F38_11  PB11  1
    F39_6  COST  93.5691422669
    F39_6  AV39  1
    F39_6  PB6  1
    F39_9  COST  93.5691422669
    F39_9  AV39  1
    F39_9  PB9  1
    F39_10  COST  93.5691422669
    F39_10  AV39  1
    F39_10  PB10  1
    F39_11  COST  93.5691422669
    F39_11  AV39  1
    F39_11  PB11  1
    G0_1  COST  -179.507686027
    G0_1  PB0  -1
    G0_1  DM1  1
    G0_1  Q1_0  0.0248381384548
    G0_1  Q1_1  -0.19860063957
    G0_1  Q1_2  -0.0120244110988
    G0_1  Q1_3  -0.253982960672
    G0_1  Q1_4  0.0188704444402
    G0_1  Q1_5  -0.345442333934
    G0_4  COST  -120.020805639
    G0_4  PB0  -1
    G0_4  DM4  1
    G0_4  Q4_0  -0.020601528719
    G0_4  Q4_1  -0.169162918945
    G0_4  Q4_2  -0.00501017129119
    G0_4  Q4_3  -0.360501032262
    G0_4  Q4_4  -0.00683343873211
    G0_4  Q4_5  -0.302783748341
    G0_5  COST  -150.197282436
    G0_5  PB0  -1
    G0_5  DM5  1
    G0_5  Q5_0  0.0247533055292
    G0_5  Q5_1  -0.171876966555
    G0_5  Q5_2  -0.0675305352217
    G0_5  Q5_3  -0.140502578617
    G0_5  Q5_4  -0.0574582689951
    G0_5  Q5_5  -0.289077940958
    G0_6  COST  -101.09318735
    G0_6  PB0  -1
    G0_6  DM6  1
    G0_6  Q6_0  0.0434667422958
    G0_6  Q6_1  -0.277939001118
    G0_6  Q6_2  -0.207141193971
    G0_6  Q6_3  -0.190800622263
    G0_6  Q6_4  0.0330232777704
    G0_6  Q6_5  -0.125932634853
    G0_8  COST  -164.507561251
    G0_8  PB0  -1
    G0_8  DM8  1
    G0_8  Q8_0  0.00310476730684
    G0_8  Q8_1  -0.139963528695
    G0_8  Q8_2  -0.656949148501
    G0_8  Q8_3  -0.227761984372
    G0_8  Q8_4  -0.025967067182
    G0_8  Q8_5  0.00112285347723
    G0_10  COST  -155.020481585
    G0_10  PB0  -1
    G0_10  DM10  1
    G0_10  Q10_0  -0.0494436689257
    G0_10  Q10_1  -0.140796951098
    G0_10  Q10_2  -0.0120244110988
    G0_10  Q10_3  -0.388776222274
    G0_10  Q10_4  -0.0607684084131
    G0_10  Q10_5  -0.236521415273
    G0_12  COST  -122.176537215
    G0_12  PB0  -1
    G0_12  DM12  1
    G0_12  Q12_0  0.0242704243265
    G0_12  Q12_1  -0.088398018123
    G0_12  Q12_2  -0.0962323768904
    G0_12  Q12_3  -0.372495238106
    G0_12  Q12_4  -0.0607684084131
    G0_12  Q12_5  -0.247862334264
    G1_0  COST  -114.703128202
    G1_0  PB1  -1
    G1_0  DM0  1
    G1_0  Q0_0  -0.000922535458389
    G1_0  Q0_1  0.115540593342
    G1_0  Q0_2  0.190205332986
    G1_0  Q0_3  -0.199082706824
    G1_0  Q0_4  -0.0846522875272
    G1_0  Q0_5  -0.157528275256
    G1_1  COST  -179.507686027
    G1_1  PB1  -1
    G1_1  DM1  1
    G1_1  Q1_0  -0.0372572076821
    G1_1  Q1_1  0.0950680193723
    G1_1  Q1_2  0.678446235472
    G1_1  Q1_3  -0.146926172552
    G1_1  Q1_4  -0.0283056666604
    G1_1  Q1_5  -0.376607686068
    G1_2  COST  -171.032279343
    G1_2  PB1  -1
    G1_2  DM2  1
    G1_2  Q2_0  -0.0263237734202
    G1_2  Q2_1  0.073502730281
    G1_2  Q2_2  0.486767885914
    G1_2  Q2_3  -0.220389258828
    G1_2  Q2_4  -0.0812429344628
    G1_2  Q2_5  -0.30158852903
    G1_6  COST  -101.09318735
    G1_6  PB1  -1
    G1_6  DM6  1
    G1_6  Q6_0  -0.0186286038411
    G1_6  Q6_1  0.0157296578246
    G1_6  Q6_2  0.4833294526
    G1_6  Q6_3  -0.0837438341426
    G1_6  Q6_4  -0.0141528333302
    G1_6  Q6_5  -0.157097986987
    G1_8  COST  -164.507561251
    G1_8  PB1  -1
    G1_8  DM8  1
    G1_8  Q8_0  -0.05899057883
    G1_8  Q8_1  0.153705130248
    G1_8  Q8_2  0.0335214980703
    G1_8  Q8_3  -0.120705196252
    G1_8  Q8_4  -0.0731431782826
    G1_8  Q8_5  -0.0300424986568
    G1_11  COST  -106.634478936
    G1_11  PB1  -1
    G1_11  DM11  1
    G1_11  Q11_0  0.00668803021262
    G1_11  Q11_1  0.0442553053336
    G1_11  Q11_2  0.550097141844
    G1_11  Q11_3  -0.0362027017754
    G1_11  Q11_4  -0.10528828327
    G1_11  Q11_5  -0.384242933167
    G1_13  COST  -151.694024329
    G1_13  PB1  -1
    G1_13  DM13  1
    G1_13  Q13_0  0.000445868680842
    G1_13  Q13_1  0.153412958246
    G1_13  Q13_2  0.00399275443951
    G1_13  Q13_3  -0.120705196252
    G1_13  Q13_4  -0.0816169938202
    G1_13  Q13_5  -0.288740162214
    G2_1  COST  -179.507686027
    G2_1  PB2  -1
    G2_1  DM1  1
    G2_1  Q1_0  -0.388650062138
    G2_1  Q1_1  0.0725970796229
    G2_1  Q1_2  -0.226809586623
    G2_1  Q1_3  0.132219941257
    G2_1  Q1_4  -0.635593743519
    G2_1  Q1_5  0.0743331155764
    G2_3  COST  -150.115194105
    G2_3  PB2  -1
    G2_3  DM3  1
    G2_3  Q3_0  -0.348677476202
    G2_3  Q3_1  0.0782408383175
    G2_3  Q3_2  -0.399595961976
    G2_3  Q3_3  0.134534694347
    G2_3  Q3_4  -0.76292040877
    G2_3  Q3_5  0.047461407557
    G2_4  COST  -120.020805639
    G2_4  PB2  -1
    G2_4  DM4  1
    G2_4  Q4_0  -0.434089729312
    G2_4  Q4_1  0.102034800248
    G2_4  Q4_2  -0.219795346816
    G2_4  Q4_3  0.0257018696668
    G2_4  Q4_4  -0.661297626691
    G2_4  Q4_5  0.116991701169
    G2_6  COST  -101.09318735
    G2_6  PB2  -1
    G2_6  DM6  1
    G2_6  Q6_0  -0.370021458297
    G2_6  Q6_1  -0.00674128192481
    G2_6  Q6_2  -0.421926369496
    G2_6  Q6_3  0.195402279666
    G2_6  Q6_4  -0.621440910189
    G2_6  Q6_5  0.293842814657
    G2_7  COST  -164.169426784
    G2_7  PB2  -1
    G2_7  DM7  1
    G2_7  Q7_0  -0.391027325
    G2_7  Q7_1  0.0714687560124
    G2_7  Q7_2  -0.220260048107
    G2_7  Q7_3  0.0137076638223
    G2_7  Q7_4  -0.743129220591
    G2_7  Q7_5  0.0742847849926
    G2_12  COST  -122.176537215
    G2_12  PB2  -1
    G2_12  DM12  1
    G2_12  Q12_0  -0.389217776267
    G2_12  Q12_1  0.18279970107
    G2_12  Q12_2  -0.311017552415
    G2_12  Q12_3  0.0137076638223
    G2_12  Q12_4  -0.715232596372
    G2_12  Q12_5  0.171913115246
    G3_2  COST  -171.032279343
    G3_2  PB3  -1
    G3_2  DM2  1
    G3_2  Q2_0  0.0027671653444
    G3_2  Q2_1  0.198226877151
    G3_2  Q2_2  0.00629732473517
    G3_2  Q2_3  -0.37911998728
    G3_2  Q2_4  0.0913214263873
    G3_2  Q2_5  -0.0930985860193
    G3_3  COST  -150.115194105
    G3_3  PB3  -1
    G3_3  DM3  1
    G3_3  Q3_0  0.0318063170189
    G3_3  Q3_1  0.225435924937
    G3_3  Q3_2  0.0251892989407
    G3_3  Q3_3  -0.303342147914
    G3_3  Q3_4  0.0169320289387
    G3_3  Q3_5  -0.194989451077
    G3_5  COST  -150.197282436
    G3_5  PB3  -1
    G3_5  DM5  1
    G3_5  Q5_0  -0.00825110184308
    G3_5  Q5_1  0.246515839258
    G3_5  Q5_2  0.142469550171
    G3_5  Q5_3  -0.192176518949
    G3_5  Q5_4  0.0679299807544
    G3_5  Q5_5  -0.111753350082
    G3_9  COST  -158.144052121
    G3_9  PB3  -1
    G3_9  DM9  1
    G3_9  Q9_0  0.00380083123814
    G3_9  Q9_1  0.192464376144
    G3_9  Q9_2  0.0189959400228
    G3_9  Q9_3  -0.301766264976
    G3_9  Q9_4  0.00905733076725
    G3_9  Q9_5  -0.0930985860193
    G4_4  COST  -120.020805639
    G4_4  PB4  -1
    G4_4  DM4  1
    G4_4  Q4_0  -0.200362890015
    G4_4  Q4_1  -0.0218328887398
    G4_4  Q4_2  0.748597744579
    G4_4  Q4_3  -0.126386142824
    G4_4  Q4_4  0.149329581796
    G4_4  Q4_5  -0.325240817886
    G4_7  COST  -164.169426784
    G4_7  PB4  -1
    G4_7  DM7  1
    G4_7  Q7_0  -0.157300485703
    G4_7  Q7_1  -0.0523989329754
    G4_7  Q7_2  0.748133043288
    G4_7  Q7_3  -0.138380348668
    G4_7  Q7_4  0.0674979878964
    G4_7  Q7_5  -0.367947734062
    G4_8  COST  -164.507561251
    G4_8  PB4  -1
    G4_8  DM8  1
    G4_8  Q8_0  -0.176656593989
    G4_8  Q8_1  0.00736650151025
    G4_8  Q8_2  0.0966587673698
    G4_8  Q8_3  0.00635290506591
    G4_8  Q8_4  0.130195953346
    G4_8  Q8_5  -0.0213342160674
    G4_9  COST  -158.144052121
    G4_9  PB4  -1
    G4_9  DM9  1
    G4_9  Q9_0  -0.142956122686
    G4_9  Q9_1  -0.0785983994632
    G4_9  Q9_2  0.562603770501
    G4_9  Q9_3  -0.0159774352049
    G4_9  Q9_4  0.0398321015456
    G4_9  Q9_5  -0.29288024644
    G4_12  COST  -122.176537215
    G4_12  PB4  -1
    G4_12  DM12  1
    G4_12  Q12_0  -0.15549093697
    G4_12  Q12_1  0.058932012082
    G4_12  Q12_2  0.65737553898
    G4_12  Q12_3  -0.138380348668
    G4_12  Q12_4  0.0953946121147
    G4_12  Q12_5  -0.270319403808
    G4_13  COST  -151.694024329
    G4_13  PB4  -1
    G4_13  DM13  1
    G4_13  Q13_0  -0.117220146479
    G4_13  Q13_1  0.00707432950892
    G4_13  Q13_2  0.067130023739
    G4_13  Q13_3  0.00635290506591
    G4_13  Q13_4  0.121722137808
    G4_13  Q13_5  -0.280031879625
    G5_5  COST  -150.197282436
    G5_5  PB5  -1
    G5_5  DM5  1
    G5_5  Q5_0  -0.229679474358
    G5_5  Q5_1  0.37720195531
    G5_5  Q5_2  -0.116066082949
    G5_5  Q5_3  0.111365016605
    G5_5  Q5_4  0.070545593451
    G5_5  Q5_5  -0.0815973453948
    G5_9  COST  -158.144052121
    G5_9  PB5  -1
    G5_9  DM9  1
    G5_9  Q9_0  -0.217627541277
    G5_9  Q9_1  0.323150492196
    G5_9  Q9_2  -0.239539693097
    G5_9  Q9_3  0.00177527057832
    G5_9  Q9_4  0.0116729434639
    G5_9  Q9_5  -0.0629425813324
    G5_10  COST  -155.020481585
    G5_10  PB5  -1
    G5_10  DM10  1
    G5_10  Q10_0  -0.303876448813
    G5_10  Q10_1  0.408281970766
    G5_10  Q10_2  -0.0605599588264
    G5_10  Q10_3  -0.136908627052
    G5_10  Q10_4  0.067235454033
    G5_10  Q10_5  -0.0290408197098
    G5_11  COST  -106.634478936
    G5_11  PB5  -1
    G5_11  DM11  1
    G5_11  Q11_0  -0.185649403538
    G5_11  Q11_1  0.299665568256
    G5_11  Q11_2  -0.188909052454
    G5_11  Q11_3  0.108608105326
    G5_11  Q11_4  0.0698916902768
    G5_11  Q11_5  -0.14559698547
    G6_1  COST  -179.507686027
    G6_1  PB6  -1
    G6_1  DM1  1
    G6_1  Q1_0  0.118622482505
    G6_1  Q1_1  -0.256415529236
    G6_1  Q1_2  0.0080162740659
    G6_1  Q1_3  0.0979507817012
    G6_1  Q1_4  0.0462041993687
    G6_1  Q1_5  -0.0731290038728
    G6_2  COST  -171.032279343
    G6_2  PB6  -1
    G6_2  DM2  1
    G6_2  Q2_0  0.129555916767
    G6_2  Q2_1  -0.277980818327
    G6_2  Q2_2  -0.183662075493
    G6_2  Q2_3  0.0244876954253
    G6_2  Q2_4  -0.0067330684337
    G6_2  Q2_5  0.0018901531651
    G6_4  COST  -120.020805639
    G6_4  PB6  -1
    G6_4  DM4  1
    G6_4  Q4_0  0.0731828153313
    G6_4  Q4_1  -0.226977808611
    G6_4  Q4_2  0.0150305138736
    G6_4  Q4_3  -0.00856728988892
    G6_4  Q4_4  0.0205003161963
    G6_4  Q4_5  -0.0304704182803
    G6_5  COST  -150.197282436
    G6_5  PB6  -1
    G6_5  DM5  1
    G6_5  Q5_0  0.11853764958
    G6_5  Q5_1  -0.229691856221
    G6_5  Q5_2  -0.0474898500569
    G6_5  Q5_3  0.211431163756
    G6_5  Q5_4  -0.0301245140667
    G6_5  Q5_5  -0.0167646108972
    G6_7  COST  -164.169426784
    G6_7  PB6  -1
    G6_7  DM7  1
    G6_7  Q7_0  0.116245219643
    G6_7  Q7_1  -0.257543852846
    G6_7  Q7_2  0.0145658125826
    G6_7  Q7_3  -0.0205614957334
    G6_7  Q7_4  -0.061331277703
    G6_7  Q7_5  -0.0731773344567
    G6_8  COST  -164.507561251
    G6_8  PB6  -1
    G6_8  DM8  1
    G6_8  Q8_0  0.0968891113572
    G6_8  Q8_1  -0.197778418361
    G6_8  Q8_2  -0.636908463336
    G6_8  Q8_3  0.124171758001
    G6_8  Q8_4  0.00136668774642
    G6_8  Q8_5  0.273436183538
    G6_9  COST  -158.144052121
    G6_9  PB6  -1
    G6_9  DM9  1
    G6_9  Q9_0  0.130589582661
    G6_9  Q9_1  -0.283743319334
    G6_9  Q9_2  -0.170963460205
    G6_9  Q9_3  0.10184141773
    G6_9  Q9_4  -0.0889971640538
    G6_9  Q9_5  0.0018901531651
    G6_10  COST  -155.020481585
    G6_10  PB6  -1
    G6_10  DM10  1
    G6_10  Q10_0  0.0443406751247
    G6_10  Q10_1  -0.198611840764
    G6_10  Q10_2  0.0080162740659
    G6_10  Q10_3  -0.0368424799007
    G6_10  Q10_4  -0.0334346534846
    G6_10  Q10_5  0.0357919147877
    G6_12  COST  -122.176537215
    G6_12  PB6  -1
    G6_12  DM12  1
    G6_12  Q12_0  0.118054768377
    G6_12  Q12_1  -0.146212907789
    G6_12  Q12_2  -0.0761916917256
    G6_12  Q12_3  -0.0205614957334
    G6_12  Q12_4  -0.0334346534846
    G6_12  Q12_5  0.0244509957971
    G6_13  COST  -151.694024329
    G6_13  PB6  -1
    G6_13  DM13  1
    G6_13  Q13_0  0.156325558868
    G6_13  Q13_1  -0.198070590362
    G6_13  Q13_2  -0.666437206967
    G6_13  Q13_3  0.124171758001
    G6_13  Q13_4  -0.00710712779112
    G6_13  Q13_5  0.0147385199803
    G7_2  COST  -171.032279343
    G7_2  PB7  -1
    G7_2  DM2  1
    G7_2  Q2_0  0.118177687593
    G7_2  Q2_1  0.0144956565029
    G7_2  Q2_2  -0.220076606949
    G7_2  Q2_3  0.234524299735
    G7_2  Q2_4  -0.113414275724
    G7_2  Q2_5  -0.0170113784859
    G7_4  COST  -120.020805639
    G7_4  PB7  -1
    G7_4  DM4  1
    G7_4  Q4_0  0.0618045861571
    G7_4  Q4_1  0.0654986662193
    G7_4  Q4_2  -0.0213840175829
    G7_4  Q4_3  0.201469314421
    G7_4  Q4_4  -0.086180891094
    G7_4  Q4_5  -0.0493719499314
    G7_7  COST  -164.169426784
    G7_7  PB7  -1
    G7_7  DM7  1
    G7_7  Q7_0  0.104866990469
    G7_7  Q7_1  0.0349326219836
    G7_7  Q7_2  -0.0218487188739
    G7_7  Q7_3  0.189475108576
    G7_7  Q7_4  -0.168012484993
    G7_7  Q7_5  -0.0920788661077
    G7_9  COST  -158.144052121
    G7_9  PB7  -1
    G7_9  DM9  1
    G7_9  Q9_0  0.119211353487
    G7_9  Q9_1  0.00873315549591
    G7_9  Q9_2  -0.207377991661
    G7_9  Q9_3  0.311878022039
    G7_9  Q9_4  -0.195678371344
    G7_9  Q9_5  -0.0170113784859
    G7_10  COST  -155.020481585
    G7_10  PB7  -1
    G7_10  DM10  1
    G7_10  Q10_0  0.0329624459504
    G7_10  Q10_1  0.0938646340657
    G7_10  Q10_2  -0.0283982573905
    G7_10  Q10_3  0.173194124409
    G7_10  Q10_4  -0.140115860775
    G7_10  Q10_5  0.0168903831367
    G7_11  COST  -106.634478936
    G7_11  PB7  -1
    G7_11  DM11  1
    G7_11  Q11_0  0.151189491226
    G7_11  Q11_1  -0.0147517684445
    G7_11  Q11_2  -0.156747351018
    G7_11  Q11_3  0.418710856787
    G7_11  Q11_4  -0.137459624531
    G7_11  Q11_5  -0.0996657826231
    G8_2  COST  -171.032279343
    G8_2  PB8  -1
    G8_2  DM2  1
    G8_2  Q2_0  -0.035241147037
    G8_2  Q2_1  -0.214322488635
    G8_2  Q2_2  0.406912797123
    G8_2  Q2_3  -0.635696231548
    G8_2  Q2_4  0.000748118714855
    G8_2  Q2_5  0.068948596754
    G8_3  COST  -150.115194105
    G8_3  PB8  -1
    G8_3  DM3  1
    G8_3  Q3_0  -0.00620199536246
    G8_3  Q3_1  -0.187113440849
    G8_3  Q3_2  0.425804771329
    G8_3  Q3_3  -0.559918392181
    G8_3  Q3_4  -0.0736412787338
    G8_3  Q3_5  -0.0329422683033
    G8_5  COST  -150.197282436
    G8_5  PB8  -1
    G8_5  DM5  1
    G8_5  Q5_0  -0.0462594142245
    G8_5  Q5_1  -0.166033526528
    G8_5  Q5_2  0.543085022559
    G8_5  Q5_3  -0.448752763217
    G8_5  Q5_4  -0.0226433269181
    G8_5  Q5_5  0.0502938326917
    G8_9  COST  -158.144052121
    G8_9  PB8  -1
    G8_9  DM9  1
    G8_9  Q9_0  -0.0342074811433
    G8_9  Q9_1  -0.220084989642
    G8_9  Q9_2  0.419611412411
    G8_9  Q9_3  -0.558342509244
    G8_9  Q9_4  -0.0815159769052
    G8_9  Q9_5  0.068948596754
    G8_11  COST  -106.634478936
    G8_11  PB8  -1
    G8_11  DM11  1
    G8_11  Q11_0  -0.00222934340421
    G8_11  Q11_1  -0.243569913582
    G8_11  Q11_2  0.470242053054
    G8_11  Q11_3  -0.451509674496
    G8_11  Q11_4  -0.0232972300923
    G8_11  Q11_5  -0.0137058073831
    G8_13  COST  -151.694024329
    G8_13  PB8  -1
    G8_13  DM13  1
    G8_13  Q13_0  -0.00847150493599
    G8_13  Q13_1  -0.13441226067
    G8_13  Q13_2  -0.0758623343508
    G8_13  Q13_3  -0.536012168973
    G8_13  Q13_4  0.000374059357428
    G8_13  Q13_5  0.0817969635691
    G9_0  COST  -114.703128202
    G9_0  PB9  -1
    G9_0  DM0  1
    G9_0  Q0_0  0.000496749862209
    G9_0  Q0_1  -0.214575387635
    G9_0  Q0_2  -0.353238475545
    G9_0  Q0_3  0.107198380597
    G9_0  Q0_4  0.0455820009762
    G9_0  Q0_5  0.0848229174457
    G9_2  COST  -171.032279343
    G9_2  PB9  -1
    G9_2  DM2  1
    G9_2  Q2_0  -0.0249044880996
    G9_2  Q2_1  -0.256613250696
    G9_2  Q2_2  -0.0566759226165
    G9_2  Q2_3  0.0858918285932
    G9_2  Q2_4  0.0489913540407
    G9_2  Q2_5  -0.0592373363277
    G9_3  COST  -150.115194105
    G9_3  PB9  -1
    G9_3  DM3  1
    G9_3  Q3_0  0.00413466357497
    G9_3  Q3_1  -0.22940420291
    G9_3  Q3_2  -0.037783948411
    G9_3  Q3_3  0.16166966796
    G9_3  Q3_4  -0.025398043408
    G9_3  Q3_5  -0.161128201385
    G9_10  COST  -155.020481585
    G9_10  PB9  -1
    G9_10  DM10  1
    G9_10  Q10_0  -0.110119729742
    G9_10  Q10_1  -0.177244273133
    G9_10  Q10_2  0.135002426942
    G9_10  Q10_3  0.0245616532672
    G9_10  Q10_4  0.0222897689898
    G9_10  Q10_5  -0.025335574705
    G9_12  COST  -122.176537215
    G9_12  PB9  -1
    G9_12  DM12  1
    G9_12  Q12_0  -0.0364056364898
    G9_12  Q12_1  -0.124845340157
    G9_12  Q12_2  0.0507944611504
    G9_12  Q12_3  0.0408426374345
    G9_12  Q12_4  0.0222897689898
    G9_12  Q12_5  -0.0366764936957
    G10_3  COST  -150.115194105
    G10_3  PB10  -1
    G10_3  DM3  1
    G10_3  Q3_0  -0.191619515658
    G10_3  Q3_1  -0.117361257476
    G10_3  Q3_2  -0.353667434098
    G10_3  Q3_3  -0.201802041521
    G10_3  Q3_4  0.0210963302893
    G10_3  Q3_5  0.0219615122022
    G10_7  COST  -164.169426784
    G10_7  PB10  -1
    G10_7  DM7  1
    G10_7  Q7_0  -0.233969364456
    G10_7  Q7_1  -0.124133339781
    G10_7  Q7_2  -0.174331520228
    G10_7  Q7_3  -0.322629072046
    G10_7  Q7_4  0.0408875184687
    G10_7  Q7_5  0.0487848896378
    G10_11  COST  -106.634478936
    G10_11  PB10  -1
    G10_11  DM11  1
    G10_11  Q11_0  -0.187646863699
    G10_11  Q11_1  -0.173817730209
    G10_11  Q11_2  -0.309230152372
    G10_11  Q11_3  -0.0933933238355
    G10_11  Q11_4  0.0714403789309
    G10_11  Q11_5  0.0411979731224
    G11_1  COST  -179.507686027
    G11_1  PB11  -1
    G11_1  DM1  1
    G11_1  Q1_0  -0.242556248045
    G11_1  Q1_1  -0.108895619434
    G11_1  Q1_2  -0.0807393369489
    G11_1  Q1_3  -0.150602054257
    G11_1  Q1_4  -0.0299196653872
    G11_1  Q1_5  0.0487526692486
    G11_2  COST  -171.032279343
    G11_2  PB11  -1
    G11_2  DM2  1
    G11_2  Q2_0  -0.231622813783
    G11_2  Q2_1  -0.130460908526
    G11_2  Q2_2  -0.272417686507
    G11_2  Q2_3  -0.224065140532
    G11_2  Q2_4  -0.0828569331896
    G11_2  Q2_5  0.123771826286
    G11_4  COST  -120.020805639
    G11_4  PB11  -1
    G11_4  DM4  1
    G11_4  Q4_0  -0.287995915218
    G11_4  Q4_1  -0.0794578988092
    G11_4  Q4_2  -0.0737250971413
    G11_4  Q4_3  -0.257120125847
    G11_4  Q4_4  -0.0556235485595
    G11_4  Q4_5  0.091411254841
    G11_5  COST  -150.197282436
    G11_5  PB11  -1
    G11_5  DM5  1
    G11_5  Q5_0  -0.24264108097
    G11_5  Q5_1  -0.0821719464192
    G11_5  Q5_2  -0.136245461072
    G11_5  Q5_3  -0.0371216722016
    G11_5  Q5_4  -0.106248378823
    G11_5  Q5_5  0.105117062224
    G11_9  COST  -158.144052121
    G11_9  PB11  -1
    G11_9  DM9  1
    G11_9  Q9_0  -0.230589147889
    G11_9  Q9_1  -0.136223409533
    G11_9  Q9_2  -0.25971907122
    G11_9  Q9_3  -0.146711418228
    G11_9  Q9_4  -0.16512102881
    G11_9  Q9_5  0.123771826286
    G11_11  COST  -106.634478936
    G11_11  PB11  -1
    G11_11  DM11  1
    G11_11  Q11_0  -0.19861101015
    G11_11  Q11_1  -0.159708333473
    G11_11  Q11_2  -0.209088430576
    G11_11  Q11_3  -0.0398785834802
    G11_11  Q11_4  -0.106902281997
    G11_11  Q11_5  0.0411174221494
RHS
    RHS  AV0  854.780072961
    RHS  AV1  1179.48050016
    RHS  AV2  1387.98896798
    RHS  AV3  818.991193559
    RHS  AV4  1322.92211343
    RHS  AV5  1112.03913588
    RHS  AV6  582.101532767
    RHS  AV7  1197.94795098
    RHS  AV8  941.890221617
    RHS  AV9  321.998699463
    RHS  AV10  708.794554196
    RHS  AV11  295.863317417
    RHS  AV12  819.017052182
    RHS  AV13  757.101490586
    RHS  AV14  750.858675862
    RHS  AV15  962.190459668
    RHS  AV16  359.497858229
    RHS  AV17  1413.89958294
    RHS  AV18  1089.2655825
    RHS  AV19  1270.91576591
    RHS  AV20  1365.84160194
    RHS  AV21  958.316061001
    RHS  AV22  252.283687176
    RHS  AV23  1124.93287135
    RHS  AV24  939.733610542
    RHS  AV25  1273.74438882
    RHS  AV26  891.808615517
    RHS  AV27  1257.21732397
    RHS  AV28  1496.11338099
    RHS  AV29  655.721254778
    RHS  AV30  422.327872027
    RHS  AV31  709.17723929
    RHS  AV32  1178.96498683
    RHS  AV33  770.997611416
    RHS  AV34  964.894142258
    RHS  AV35  365.566013498
    RHS  AV36  1143.96056421
    RHS  AV37  564.107122426
    RHS  AV38  447.802828525
    RHS  AV39  1321.83499816
    RHS  PB0  0
    RHS  PB1  0
    RHS  PB2  0
    RHS  PB3  0
    RHS  PB4  0
    RHS  PB5  0
    RHS  PB6  0
    RHS  PB7  0
    RHS  PB8  0
    RHS  PB9  0
    RHS  PB10  0
    RHS  PB11  0
    RHS  DM0  625.469046621
    RHS  DM1  564.095187722
    RHS  DM2  882.296651711
    RHS  DM3  258.057550895
    RHS  DM4  726.646617862
    RHS  DM5  443.890398539
    RHS  DM6  326.714687989
    RHS  DM7  710.245363175
    RHS  DM8  470.647258263
    RHS  DM9  445.359999355
    RHS  DM10  916.744523696
    RHS  DM11  345.061125642
    RHS  DM12  585.349369219
    RHS  DM13  210.442138116
    RHS  Q0_0  0
    RHS  Q0_1  0
    RHS  Q0_2  0
    RHS  Q0_3  0
    RHS  Q0_4  0
    RHS  Q0_5  0
    RHS  Q1_0  0
    RHS  Q1_1  0
    RHS  Q1_2  0
    RHS  Q1_3  0
    RHS  Q1_4  0
    RHS  Q1_5  0
    RHS  Q2_0  0
    RHS  Q2_1  0
    RHS  Q2_2  0
    RHS  Q2_3  0
    RHS  Q2_4  0
    RHS  Q2_5  0
    RHS  Q3_0  0
    RHS  Q3_1  0
    RHS  Q3_2  0
    RHS  Q3_3  0
    RHS  Q3_4  0
    RHS  Q3_5  0
    RHS  Q4_0  0
    RHS  Q4_1  0
    RHS  Q4_2  0
    RHS  Q4_3  0
    RHS  Q4_4  0
    RHS  Q4_5  0
    RHS  Q5_0  0
    RHS  Q5_1  0
    RHS  Q5_2  0
    RHS  Q5_3  0
    RHS  Q5_4  0
    RHS  Q5_5  0
    RHS  Q6_0  0
    RHS  Q6_1  0
    RHS  Q6_2  0
    RHS  Q6_3  0
    RHS  Q6_4  0
    RHS  Q6_5  0
    RHS  Q7_0  0
    RHS  Q7_1  0
    RHS  Q7_2  0
    RHS  Q7_3  0
    RHS  Q7_4  0
    RHS  Q7_5  0
    RHS  Q8_0  0
    RHS  Q8_1  0
    RHS  Q8_2  0
    RHS  Q8_3  0
    RHS  Q8_4  0
    RHS  Q8_5  0
    RHS  Q9_0  0
    RHS  Q9_1  0
    RHS  Q9_2  0
    RHS  Q9_3  0
    RHS  Q9_4  0
    RHS  Q9_5  0
    RHS  Q10_0  0
    RHS  Q10_1  0
    RHS  Q10_2  0
    RHS  Q10_3  0
    RHS  Q10_4  0
    RHS  Q10_5  0
    RHS  Q11_0  0
    RHS  Q11_1  0
    RHS  Q11_2  0
    RHS  Q11_3  0
    RHS  Q11_4  0
    RHS  Q11_5  0
    RHS  Q12_0  0
    RHS  Q12_1  0
    RHS  Q12_2  0
    RHS  Q12_3  0
    RHS  Q12_4  0
    RHS  Q12_5  0
    RHS  Q13_0  0
    RHS  Q13_1  0
    RHS  Q13_2  0
    RHS  Q13_3  0
    RHS  Q13_4  0
    RHS  Q13_5  0
RANGES
    RNG  DM0  482.132390103
    RNG  DM1  434.823373869
    RNG  DM2  680.103669027
    RNG  DM3  198.919362148
    RNG  DM4  560.123434602
    RNG  DM5  342.165515541
    RNG  DM6  251.842571991
    RNG  DM7  547.480800781
    RNG  DM8  362.790594911
    RNG  DM9  343.298332836
    RNG  DM10  706.657237016
    RNG  DM11  265.984617682
    RNG  DM12  451.20680544
    RNG  DM13  162.215814797
BOUNDS
 UP BND  F0_3  854.780072961
 UP BND  F0_6  854.780072961
 UP BND  F0_7  854.780072961
 UP BND  F0_10  854.780072961
 UP BND  F0_11  854.780072961
 UP BND  F1_3  1179.48050016
 UP BND  F1_4  1179.48050016
 UP BND  F1_5  1179.48050016
 UP BND  F1_7  1179.48050016
 UP BND  F1_9  1179.48050016
 UP BND  F2_0  1387.98896798
 UP BND  F2_4  1387.98896798
 UP BND  F2_8  1387.98896798
 UP BND  F2_9  1387.98896798
 UP BND  F2_11  1387.98896798
 UP BND  F3_11  818.991193559
 UP BND  F4_1  1322.92211343
 UP BND  F4_4  1322.92211343
 UP BND  F4_6  1322.92211343
 UP BND  F4_7  1322.92211343
 UP BND  F4_8  1322.92211343
 UP BND  F4_10  1322.92211343
 UP BND  F5_0  1112.03913588
 UP BND  F6_1  582.101532767
 UP BND  F6_3  582.101532767
 UP BND  F6_8  582.101532767
 UP BND  F7_5  1197.94795098
 UP BND  F7_6  1197.94795098
 UP BND  F7_9  1197.94795098
 UP BND  F8_4  941.890221617
 UP BND  F8_5  941.890221617
 UP BND  F9_2  321.998699463
 UP BND  F9_5  321.998699463
 UP BND  F9_6  321.998699463
 UP BND  F9_10  321.998699463
 UP BND  F9_11  321.998699463
 UP BND  F10_2  708.794554196
 UP BND  F10_3  708.794554196
 UP BND  F10_5  708.794554196
 UP BND  F10_6  708.794554196
 UP BND  F10_10  708.794554196
 UP BND  F10_11  708.794554196
 UP BND  F11_10  295.863317417
 UP BND  F11_11  295.863317417
 UP BND  F12_8  819.017052182
 UP BND  F12_11  819.017052182
 UP BND  F13_0  757.101490586
 UP BND  F13_2  757.101490586
 UP BND  F13_10  757.101490586
 UP BND  F14_3  750.858675862
 UP BND  F14_4  750.858675862
 UP BND  F14_6  750.858675862
 UP BND  F14_7  750.858675862
 UP BND  F14_11  750.858675862
 UP BND  F15_5  962.190459668
 UP BND  F15_6  962.190459668
 UP BND  F15_7  962.190459668
 UP BND  F15_10  962.190459668
 UP BND  F16_1  359.497858229
 UP BND  F16_5  359.497858229
 UP BND  F16_6  359.497858229
 UP BND  F17_0  1413.89958294
 UP BND  F17_1  1413.89958294
 UP BND  F17_3  1413.89958294
 UP BND  F17_5  1413.89958294
 UP BND  F17_10  1413.89958294
 UP BND  F17_11  1413.89958294
 UP BND  F18_0  1089.2655825
 UP BND  F18_1  1089.2655825
 UP BND  F18_3  1089.2655825
 UP BND  F18_5  1089.2655825
 UP BND  F18_8  1089.2655825
 UP BND  F18_10  1089.2655825
 UP BND  F18_11  1089.2655825
 UP BND  F19_6  1270.91576591
 UP BND  F19_11  1270.91576591
 UP BND  F20_0  1365.84160194
 UP BND  F20_1  1365.84160194
 UP BND  F20_9  1365.84160194
 UP BND  F20_11  1365.84160194
 UP BND  F21_0  958.316061001
 UP BND  F21_6  958.316061001
 UP BND  F21_8  958.316061001
 UP BND  F21_9  958.316061001
 UP BND  F22_0  252.283687176
 UP BND  F22_5  252.283687176
 UP BND  F22_6  252.283687176
 UP BND  F22_10  252.283687176
 UP BND  F23_1  1124.93287135
 UP BND  F23_6  1124.93287135
 UP BND  F23_8  1124.93287135
 UP BND  F23_9  1124.93287135
 UP BND  F23_10  1124.93287135
 UP BND  F24_2  939.733610542
 UP BND  F24_4  939.733610542
 UP BND  F24_5  939.733610542
 UP BND  F24_11  939.733610542
 UP BND  F25_0  1273.74438882
 UP BND  F25_5  1273.74438882
 UP BND  F25_8  1273.74438882
 UP BND  F25_9  1273.74438882
 UP BND  F25_10  1273.74438882
 UP BND  F26_1  891.808615517
 UP BND  F26_4  891.808615517
 UP BND  F26_7  891.808615517
 UP BND  F26_8  891.808615517
 UP BND  F27_1  1257.21732397
 UP BND  F27_2  1257.21732397
 UP BND  F27_3  1257.21732397
 UP BND  F27_5  1257.21732397
 UP BND  F27_8  1257.21732397
 UP BND  F27_9  1257.21732397
 UP BND  F28_0  1496.11338099
 UP BND  F28_1  1496.11338099
 UP BND  F28_6  1496.11338099
 UP BND  F28_7  1496.11338099
 UP BND  F28_11  1496.11338099
 UP BND  F29_5  655.721254778
 UP BND  F29_9  655.721254778
 UP BND  F29_11  655.721254778
 UP BND  F30_11  422.327872027
 UP BND  F31_0  709.17723929
 UP BND  F31_2  709.17723929
 UP BND  F31_4  709.17723929
 UP BND  F31_7  709.17723929
 UP BND  F32_6  1178.96498683
 UP BND  F32_8  1178.96498683
 UP BND  F32_11  1178.96498683
 UP BND  F33_0  770.997611416
 UP BND  F33_3  770.997611416
 UP BND  F33_5  770.997611416
 UP BND  F33_6  770.997611416
 UP BND  F33_10  770.997611416
 UP BND  F34_1  964.894142258
 UP BND  F34_4  964.894142258
 UP BND  F34_5  964.894142258
 UP BND  F34_8  964.894142258
 UP BND  F34_10  964.894142258
 UP BND  F35_1  365.566013498
 UP BND  F35_2  365.566013498
 UP BND  F35_7  365.566013498
 UP BND  F35_9  365.566013498
 UP BND  F35_10  365.566013498
 UP BND  F35_11  365.566013498
 UP BND  F36_1  1143.96056421
 UP BND  F36_3  1143.96056421
 UP BND  F36_4  1143.96056421
 UP BND  F36_9  1143.96056421
 UP BND  F37_0  564.107122426
 UP BND  F37_4  564.107122426
 UP BND  F37_10  564.107122426
 UP BND  F38_1  447.802828525
 UP BND  F38_3  447.802828525
 UP BND  F38_6  447.802828525
 UP BND  F38_9  447.802828525
 UP BND  F38_11  447.802828525
 UP BND  F39_6  1321.83499816
 UP BND  F39_9  1321.83499816
 UP BND  F39_10  1321.83499816
 UP BND  F39_11  1321.83499816
ENDATA
