NAME          BLEND0
ROWS
 N  COST
 L  AV0
 L  AV1
 L  AV2
 L  AV3
 L  AV4
 L  AV5
 L  AV6
 L  AV7
 L  AV8
 L  AV9
 L  AV10
 L  AV11
 L  AV12
 L  AV13
 L  AV14
 L  AV15
 L  AV16
 L  AV17
 L  AV18
 L  AV19
 L  AV20
 L  AV21
 L  AV22
 L  AV23
 L  AV24
 L  AV25
 L  AV26
 L  AV27
 L  AV28
 L  AV29
 L  AV30
 L  AV31
 L  AV32
 L  AV33
 L  AV34
 L  AV35
 L  AV36
 L  AV37
 L  AV38
 L  AV39
 L  AV40
 L  AV41
 L  AV42
 L  AV43
 L  AV44
 L  AV45
 L  AV46
 L  AV47
 L  AV48
 L  AV49
 L  AV50
 L  AV51
 L  AV52
 L  AV53
 L  AV54
 L  AV55
 L  AV56
 L  AV57
 L  AV58
 L  AV59
 L  AV60
 L  AV61
 L  AV62
 L  AV63
 L  AV64
 L  AV65
 L  AV66
 L  AV67
 L  AV68
 L  AV69
 L  AV70
 L  AV71
 L  AV72
 L  AV73
 L  AV74
 L  AV75
 L  AV76
 L  AV77
 L  AV78
 L  AV79
 L  AV80
 L  AV81
 L  AV82
 L  AV83
 L  AV84
 L  AV85
 L  AV86
 L  AV87
 L  AV88
 L  AV89
 L  AV90
 L  AV91
 L  AV92
 L  AV93
 L  AV94
 L  AV95
 L  AV96
 L  AV97
 L  AV98
 L  AV99
 L  AV100
 L  AV101
 L  AV102
 L  AV103
 L  AV104
 L  AV105
 L  AV106
 L  AV107
 L  AV108
 L  AV109
 L  AV110
 L  AV111
 L  AV112
 L  AV113
 L  AV114
 L  AV115
 L  AV116
 L  AV117
 L  AV118
 L  AV119
 E  PB0
 E  PB1
 E  PB2
 E  PB3
 E  PB4
 E  PB5
 E  PB6
 E  PB7
 E  PB8
 E  PB9
 E  PB10
 E  PB11
 E  PB12
 E  PB13
 E  PB14
 E  PB15
 E  PB16
 E  PB17
 E  PB18
 E  PB19
 E  PB20
 E  PB21
 E  PB22
 E  PB23
 E  PB24
 E  PB25
 E  PB26
 E  PB27
 E  PB28
 E  PB29
 L  DM0
 L  DM1
 L  DM2
 L  DM3
 L  DM4
 L  DM5
 L  DM6
 L  DM7
 L  DM8
 L  DM9
 L  DM10
 L  DM11
 L  DM12
 L  DM13
 L  DM14
 L  DM15
 L  DM16
 L  DM17
 L  DM18
 L  DM19
 L  DM20
 L  DM21
 L  DM22
 L  DM23
 L  DM24
 L  DM25
 L  DM26
 L  DM27
 L  DM28
 L  DM29
 L  DM30
 L  DM31
 L  DM32
 L  DM33
 L  DM34
 L  DM35
 L  DM36
 L  DM37
 L  DM38
 L  DM39
 L  Q0_0
 L  Q0_1
 L  Q0_2
 L  Q0_3
 L  Q0_4
 L  Q0_5
 L  Q0_6
 L  Q0_7
 L  Q1_0
 L  Q1_1
 L  Q1_2
 L  Q1_3
 L  Q1_4
 L  Q1_5
 L  Q1_6
 L  Q1_7
 L  Q2_0
 L  Q2_1
 L  Q2_2
 L  Q2_3
 L  Q2_4
 L  Q2_5
 L  Q2_6
 L  Q2_7
 L  Q3_0
 L  Q3_1
 L  Q3_2
 L  Q3_3
 L  Q3_4
 L  Q3_5
 L  Q3_6
 L  Q3_7
 L  Q4_0
 L  Q4_1
 L  Q4_2
 L  Q4_3
 L  Q4_4
 L  Q4_5
 L  Q4_6
 L  Q4_7
 L  Q5_0
 L  Q5_1
 L  Q5_2
 L  Q5_3
 L  Q5_4
 L  Q5_5
 L  Q5_6
 L  Q5_7
 L  Q6_0
 L  Q6_1
 L  Q6_2
 L  Q6_3
 L  Q6_4
 L  Q6_5
 L  Q6_6
 L  Q6_7
 L  Q7_0
 L  Q7_1
 L  Q7_2
 L  Q7_3
 L  Q7_4
 L  Q7_5
 L  Q7_6
 L  Q7_7
 L  Q8_0
 L  Q8_1
 L  Q8_2
 L  Q8_3
 L  Q8_4
 L  Q8_5
 L  Q8_6
 L  Q8_7
 L  Q9_0
 L  Q9_1
 L  Q9_2
 L  Q9_3
 L  Q9_4
 L  Q9_5
 L  Q9_6
 L  Q9_7
 L  Q10_0
 L  Q10_1
 L  Q10_2
 L  Q10_3
 L  Q10_4
 L  Q10_5
 L  Q10_6
 L  Q10_7
 L  Q11_0
 L  Q11_1
 L  Q11_2
 L  Q11_3
 L  Q11_4
 L  Q11_5
 L  Q11_6
 L  Q11_7
 L  Q12_0
 L  Q12_1
 L  Q12_2
 L  Q12_3
 L  Q12_4
 L  Q12_5
 L  Q12_6
 L  Q12_7
 L  Q13_0
 L  Q13_1
 L  Q13_2
 L  Q13_3
 L  Q13_4
 L  Q13_5
 L  Q13_6
 L  Q13_7
 L  Q14_0
 L  Q14_1
 L  Q14_2
 L  Q14_3
 L  Q14_4
 L  Q14_5
 L  Q14_6
 L  Q14_7
 L  Q15_0
 L  Q15_1
 L  Q15_2
 L  Q15_3
 L  Q15_4
 L  Q15_5
 L  Q15_6
 L  Q15_7
 L  Q16_0
 L  Q16_1
 L  Q16_2
 L  Q16_3
 L  Q16_4
 L  Q16_5
 L  Q16_6
 L  Q16_7
 L  Q17_0
 L  Q17_1
 L  Q17_2
 L  Q17_3
 L  Q17_4
 L  Q17_5
 L  Q17_6
 L  Q17_7
 L  Q18_0
 L  Q18_1
 L  Q18_2
 L  Q18_3
 L  Q18_4
 L  Q18_5
 L  Q18_6
 L  Q18_7
 L  Q19_0
 L  Q19_1
 L  Q19_2
 L  Q19_3
 L  Q19_4
 L  Q19_5
 L  Q19_6
 L  Q19_7
 L  Q20_0
 L  Q20_1
 L  Q20_2
 L  Q20_3
 L  Q20_4
 L  Q20_5
 L  Q20_6
 L  Q20_7
 L  Q21_0
 L  Q21_1
 L  Q21_2
 L  Q21_3
 L  Q21_4
 L  Q21_5
 L  Q21_6
 L  Q21_7
 L  Q22_0
 L  Q22_1
 L  Q22_2
 L  Q22_3
 L  Q22_4
 L  Q22_5
 L  Q22_6
 L  Q22_7
 L  Q23_0
 L  Q23_1
 L  Q23_2
 L  Q23_3
 L  Q23_4
 L  Q23_5
 L  Q23_6
 L  Q23_7
 L  Q24_0
 L  Q24_1
 L  Q24_2
 L  Q24_3
 L  Q24_4
 L  Q24_5
 L  Q24_6
 L  Q24_7
 L  Q25_0
 L  Q25_1
 L  Q25_2
 L  Q25_3
 L  Q25_4
 L  Q25_5
 L  Q25_6
 L  Q25_7
 L  Q26_0
 L  Q26_1
 L  Q26_2
 L  Q26_3
 L  Q26_4
 L  Q26_5
 L  Q26_6
 L  Q26_7
 L  Q27_0
 L  Q27_1
 L  Q27_2
 L  Q27_3
 L  Q27_4
 L  Q27_5
 L  Q27_6
 L  Q27_7
 L  Q28_0
 L  Q28_1
 L  Q28_2
 L  Q28_3
 L  Q28_4
 L  Q28_5
 L  Q28_6
 L  Q28_7
 L  Q29_0
 L  Q29_1
 L  Q29_2
 L  Q29_3
 L  Q29_4
 L  Q29_5
 L  Q29_6
 L  Q29_7
 L  Q30_0
 L  Q30_1
 L  Q30_2
 L  Q30_3
 L  Q30_4
 L  Q30_5
 L  Q30_6
 L  Q30_7
 L  Q31_0
 L  Q31_1
 L  Q31_2
 L  Q31_3
 L  Q31_4
 L  Q31_5
 L  Q31_6
 L  Q31_7
 L  Q32_0
 L  Q32_1
 L  Q32_2
 L  Q32_3
 L  Q32_4
 L  Q32_5
 L  Q32_6
 L  Q32_7
 L  Q33_0
 L  Q33_1
 L  Q33_2
 L  Q33_3
 L  Q33_4
 L  Q33_5
 L  Q33_6
 L  Q33_7
 L  Q34_0
 L  Q34_1
 L  Q34_2
 L  Q34_3
 L  Q34_4
 L  Q34_5
 L  Q34_6
 L  Q34_7
 L  Q35_0
 L  Q35_1
 L  Q35_2
 L  Q35_3
 L  Q35_4
 L  Q35_5
 L  Q35_6
 L  Q35_7
 L  Q36_0
 L  Q36_1
 L  Q36_2
 L  Q36_3
 L  Q36_4
 L  Q36_5
 L  Q36_6
 L  Q36_7
 L  Q37_0
 L  Q37_1
 L  Q37_2
 L  Q37_3
 L  Q37_4
 L  Q37_5
 L  Q37_6
 L  Q37_7
 L  Q38_0
 L  Q38_1
 L  Q38_2
 L  Q38_3
 L  Q38_4
 L  Q38_5
 L  Q38_6
 L  Q38_7
 L  Q39_0
 L  Q39_1
 L  Q39_2
 L  Q39_3
 L  Q39_4
 L  Q39_5
 L  Q39_6
 L  Q39_7
COLUMNS
    F0_2  COST  80.8179552583
    F0_2  AV0  1
    F0_2  PB2  1
    F0_4  COST  80.8179552583
    F0_4  AV0  1
    F0_4  PB4  1
    F0_6  COST  80.8179552583
    F0_6  AV0  1
    F0_6  PB6  1
    F0_11  COST  80.8179552583
    F0_11  AV0  1
    F0_11  PB11  1
    F0_12  COST  80.8179552583
    F0_12  AV0  1
    F0_12  PB12  1
    F0_14  COST  80.8179552583
    F0_14  AV0  1
    F0_14  PB14  1
    F0_15  COST  80.8179552583
    F0_15  AV0  1
    F0_15  PB15  1
    F0_21  COST  80.8179552583
    F0_21  AV0  1
    F0_21  PB21  1
    F0_24  COST  80.8179552583
    F0_24  AV0  1
    F0_24  PB24  1
    F0_25  COST  80.8179552583
    F0_25  AV0  1
    F0_25  PB25  1
    F0_27  COST  80.8179552583
    F0_27  AV0  1
    F0_27  PB27  1
    F0_28  COST  80.8179552583
    F0_28  AV0  1
    F0_28  PB28  1
    F1_2  COST  69.2212158548
    F1_2  AV1  1
    F1_2  PB2  1
    F1_5  COST  69.2212158548
    F1_5  AV1  1
    F1_5  PB5  1
    F1_8  COST  69.2212158548
    F1_8  AV1  1
    F1_8  PB8  1
    F1_9  COST  69.2212158548
    F1_9  AV1  1
    F1_9  PB9  1
    F1_10  COST  69.2212158548
    F1_10  AV1  1
    F1_10  PB10  1
    F1_11  COST  69.2212158548
    F1_11  AV1  1
    F1_11  PB11  1
    F1_12  COST  69.2212158548
    F1_12  AV1  1
    F1_12  PB12  1
    F1_13  COST  69.2212158548
    F1_13  AV1  1
    F1_13  PB13  1
    F1_14  COST  69.2212158548
    F1_14  AV1  1
    F1_14  PB14  1
    F1_16  COST  69.2212158548
    F1_16  AV1  1
    F1_16  PB16  1
    F1_17  COST  69.2212158548
    F1_17  AV1  1
    F1_17  PB17  1
    F1_18  COST  69.2212158548
    F1_18  AV1  1
    F1_18  PB18  1
    F1_20  COST  69.2212158548
    F1_20  AV1  1
    F1_20  PB20  1
    F1_21  COST  69.2212158548
    F1_21  AV1  1
    F1_21  PB21  1
    F2_0  COST  85.0827796468
    F2_0  AV2  1
    F2_0  PB0  1
    F2_1  COST  85.0827796468
    F2_1  AV2  1
    F2_1  PB1  1
    F2_4  COST  85.0827796468
    F2_4  AV2  1
    F2_4  PB4  1
    F2_5  COST  85.0827796468
    F2_5  AV2  1
    F2_5  PB5  1
    F2_7  COST  85.0827796468
    F2_7  AV2  1
    F2_7  PB7  1
    F2_9  COST  85.0827796468
    F2_9  AV2  1
    F2_9  PB9  1
    F2_11  COST  85.0827796468
    F2_11  AV2  1
    F2_11  PB11  1
    F2_12  COST  85.0827796468
    F2_12  AV2  1
    F2_12  PB12  1
    F2_15  COST  85.0827796468
    F2_15  AV2  1
    F2_15  PB15  1
    F2_22  COST  85.0827796468
    F2_22  AV2  1
    F2_22  PB22  1
    F2_23  COST  85.0827796468
    F2_23  AV2  1
    F2_23  PB23  1
    F2_28  COST  85.0827796468
    F2_28  AV2  1
    F2_28  PB28  1
    F3_2  COST  71.0538898498
    F3_2  AV3  1
    F3_2  PB2  1
    F3_4  COST  71.0538898498
    F3_4  AV3  1
    F3_4  PB4  1
    F3_7  COST  71.0538898498
    F3_7  AV3  1
    F3_7  PB7  1
    F3_9  COST  71.0538898498
    F3_9  AV3  1
    F3_9  PB9  1
    F3_10  COST  71.0538898498
    F3_10  AV3  1
    F3_10  PB10  1
    F3_26  COST  71.0538898498
    F3_26  AV3  1
    F3_26  PB26  1
    F4_1  COST  46.7516283113
    F4_1  AV4  1
    F4_1  PB1  1
    F4_5  COST  46.7516283113
    F4_5  AV4  1
    F4_5  PB5  1
    F4_8  COST  46.7516283113
    F4_8  AV4  1
    F4_8  PB8  1
    F4_14  COST  46.7516283113
    F4_14  AV4  1
    F4_14  PB14  1
    F4_21  COST  46.7516283113
    F4_21  AV4  1
    F4_21  PB21  1
    F4_24  COST  46.7516283113
    F4_24  AV4  1
    F4_24  PB24  1
    F4_27  COST  46.7516283113
    F4_27  AV4  1
    F4_27  PB27  1
    F4_29  COST  46.7516283113
    F4_29  AV4  1
    F4_29  PB29  1
    F5_0  COST  75.3048610561
    F5_0  AV5  1
    F5_0  PB0  1
    F5_1  COST  75.3048610561
    F5_1  AV5  1
    F5_1  PB1  1
    F5_3  COST  75.3048610561
    F5_3  AV5  1
    F5_3  PB3  1
    F5_4  COST  75.3048610561
    F5_4  AV5  1
    F5_4  PB4  1
    F5_7  COST  75.3048610561
    F5_7  AV5  1
    F5_7  PB7  1
    F5_9  COST  75.3048610561
    F5_9  AV5  1
    F5_9  PB9  1
    F5_11  COST  75.3048610561
    F5_11  AV5  1
    F5_11  PB11  1
    F5_12  COST  75.3048610561
    F5_12  AV5  1
    F5_12  PB12  1
    F5_15  COST  75.3048610561
    F5_15  AV5  1
    F5_15  PB15  1
    F5_16  COST  75.3048610561
    F5_16  AV5  1
    F5_16  PB16  1
    F5_21  COST  75.3048610561
    F5_21  AV5  1
    F5_21  PB21  1
    F5_22  COST  75.3048610561
    F5_22  AV5  1
    F5_22  PB22  1
    F5_23  COST  75.3048610561
    F5_23  AV5  1
    F5_23  PB23  1
    F5_27  COST  75.3048610561
    F5_27  AV5  1
    F5_27  PB27  1
    F5_28  COST  75.3048610561
    F5_28  AV5  1
    F5_28  PB28  1
    F5_29  COST  75.3048610561
    F5_29  AV5  1
    F5_29  PB29  1
    F6_0  COST  49.500736819
    F6_0  AV6  1
    F6_0  PB0  1
    F6_3  COST  49.500736819
    F6_3  AV6  1
    F6_3  PB3  1
    F6_4  COST  49.500736819
    F6_4  AV6  1
    F6_4  PB4  1
    F6_10  COST  49.500736819
    F6_10  AV6  1
    F6_10  PB10  1
    F6_12  COST  49.500736819
    F6_12  AV6  1
    F6_12  PB12  1
    F6_17  COST  49.500736819
    F6_17  AV6  1
    F6_17  PB17  1
    F6_23  COST  49.500736819
    F6_23  AV6  1
    F6_23  PB23  1
    F6_24  COST  49.500736819
    F6_24  AV6  1
    F6_24  PB24  1
    F6_27  COST  49.500736819
    F6_27  AV6  1
    F6_27  PB27  1
    F7_2  COST  85.3009774259
    F7_2  AV7  1
    F7_2  PB2  1
    F7_4  COST  85.3009774259
    F7_4  AV7  1
    F7_4  PB4  1
    F7_10  COST  85.3009774259
    F7_10  AV7  1
    F7_10  PB10  1
    F7_12  COST  85.3009774259
    F7_12  AV7  1
    F7_12  PB12  1
    F7_13  COST  85.3009774259
    F7_13  AV7  1
    F7_13  PB13  1
    F7_14  COST  85.3009774259
    F7_14  AV7  1
    F7_14  PB14  1
    F7_17  COST  85.3009774259
    F7_17  AV7  1
    F7_17  PB17  1
    F7_18  COST  85.3009774259
    F7_18  AV7  1
    F7_18  PB18  1
    F8_2  COST  77.458388026
    F8_2  AV8  1
    F8_2  PB2  1
    F8_3  COST  77.458388026
    F8_3  AV8  1
    F8_3  PB3  1
    F8_6  COST  77.458388026
    F8_6  AV8  1
    F8_6  PB6  1
    F8_7  COST  77.458388026
    F8_7  AV8  1
    F8_7  PB7  1
    F8_9  COST  77.458388026
    F8_9  AV8  1
    F8_9  PB9  1
    F8_11  COST  77.458388026
    F8_11  AV8  1
    F8_11  PB11  1
    F8_13  COST  77.458388026
    F8_13  AV8  1
    F8_13  PB13  1
    F8_14  COST  77.458388026
    F8_14  AV8  1
    F8_14  PB14  1
    F8_16  COST  77.458388026
    F8_16  AV8  1
    F8_16  PB16  1
    F8_18  COST  77.458388026
    F8_18  AV8  1
    F8_18  PB18  1
    F8_20  COST  77.458388026
    F8_20  AV8  1
    F8_20  PB20  1
    F8_21  COST  77.458388026
    F8_21  AV8  1
    F8_21  PB21  1
    F8_23  COST  77.458388026
    F8_23  AV8  1
    F8_23  PB23  1
    F8_25  COST  77.458388026
    F8_25  AV8  1
    F8_25  PB25  1
    F8_28  COST  77.458388026
    F8_28  AV8  1
    F8_28  PB28  1
    F9_2  COST  91.6894750979
    F9_2  AV9  1
    F9_2  PB2  1
    F9_3  COST  91.6894750979
    F9_3  AV9  1
    F9_3  PB3  1
    F9_5  COST  91.6894750979
    F9_5  AV9  1
    F9_5  PB5  1
    F9_7  COST  91.6894750979
    F9_7  AV9  1
    F9_7  PB7  1
    F9_8  COST  91.6894750979
    F9_8  AV9  1
    F9_8  PB8  1
    F9_12  COST  91.6894750979
    F9_12  AV9  1
    F9_12  PB12  1
    F9_13  COST  91.6894750979
    F9_13  AV9  1
    F9_13  PB13  1
    F9_14  COST  91.6894750979
    F9_14  AV9  1
    F9_14  PB14  1
    F9_25  COST  91.6894750979
    F9_25  AV9  1
    F9_25  PB25  1
    F9_26  COST  91.6894750979
    F9_26  AV9  1
    F9_26  PB26  1
    F9_29  COST  91.6894750979
    F9_29  AV9  1
    F9_29  PB29  1
    F10_0  COST  74.5994434248
    F10_0  AV10  1
    F10_0  PB0  1
    F10_3  COST  74.5994434248
    F10_3  AV10  1
    F10_3  PB3  1
    F10_7  COST  74.5994434248
    F10_7  AV10  1
    F10_7  PB7  1
    F10_8  COST  74.5994434248
    F10_8  AV10  1
    F10_8  PB8  1
    F10_9  COST  74.5994434248
    F10_9  AV10  1
    F10_9  PB9  1
    F10_12  COST  74.5994434248
    F10_12  AV10  1
    F10_12  PB12  1
    F10_19  COST  74.5994434248
    F10_19  AV10  1
    F10_19  PB19  1
    F10_27  COST  74.5994434248
    F10_27  AV10  1
    F10_27  PB27  1
    F11_5  COST  52.38397036
    F11_5  AV11  1
    F11_5  PB5  1
    F11_6  COST  52.38397036
    F11_6  AV11  1
    F11_6  PB6  1
    F11_7  COST  52.38397036
    F11_7  AV11  1
    F11_7  PB7  1
    F11_10  COST  52.38397036
    F11_10  AV11  1
    F11_10  PB10  1
    F11_11  COST  52.38397036
    F11_11  AV11  1
    F11_11  PB11  1
    F11_13  COST  52.38397036
    F11_13  AV11  1
    F11_13  PB13  1
    F11_15  COST  52.38397036
    F11_15  AV11  1
    F11_15  PB15  1
    F11_17  COST  52.38397036
    F11_17  AV11  1
    F11_17  PB17  1
    F11_21  COST  52.38397036
    F11_21  AV11  1
    F11_21  PB21  1
    F11_24  COST  52.38397036
    F11_24  AV11  1
    F11_24  PB24  1
    F11_25  COST  52.38397036
    F11_25  AV11  1
    F11_25  PB25  1
    F11_26  COST  52.38397036
    F11_26  AV11  1
    F11_26  PB26  1
    F11_28  COST  52.38397036
    F11_28  AV11  1
    F11_28  PB28  1
    F11_29  COST  52.38397036
    F11_29  AV11  1
    F11_29  PB29  1
    F12_1  COST  70.6425650204
    F12_1  AV12  1
    F12_1  PB1  1
    F12_2  COST  70.6425650204
    F12_2  AV12  1
    F12_2  PB2  1
    F12_4  COST  70.6425650204
    F12_4  AV12  1
    F12_4  PB4  1
    F12_5  COST  70.6425650204
    F12_5  AV12  1
    F12_5  PB5  1
    F12_10  COST  70.6425650204
    F12_10  AV12  1
    F12_10  PB10  1
    F12_12  COST  70.6425650204
    F12_12  AV12  1
    F12_12  PB12  1
    F12_14  COST  70.6425650204
    F12_14  AV12  1
    F12_14  PB14  1
    F12_16  COST  70.6425650204
    F12_16  AV12  1
    F12_16  PB16  1
    F12_21  COST  70.6425650204
    F12_21  AV12  1
    F12_21  PB21  1
    F12_22  COST  70.6425650204
    F12_22  AV12  1
    F12_22  PB22  1
    F12_25  COST  70.6425650204
    F12_25  AV12  1
    F12_25  PB25  1
    F12_27  COST  70.6425650204
    F12_27  AV12  1
    F12_27  PB27  1
    F13_3  COST  82.4474752328
    F13_3  AV13  1
    F13_3  PB3  1
    F13_6  COST  82.4474752328
    F13_6  AV13  1
    F13_6  PB6  1
    F13_7  COST  82.4474752328
    F13_7  AV13  1
    F13_7  PB7  1
    F13_8  COST  82.4474752328
    F13_8  AV13  1
    F13_8  PB8  1
    F13_9  COST  82.4474752328
    F13_9  AV13  1
    F13_9  PB9  1
    F13_13  COST  82.4474752328
    F13_13  AV13  1
    F13_13  PB13  1
    F13_15  COST  82.4474752328
    F13_15  AV13  1
    F13_15  PB15  1
    F13_16  COST  82.4474752328
    F13_16  AV13  1
    F13_16  PB16  1
    F13_19  COST  82.4474752328
    F13_19  AV13  1
    F13_19  PB19  1
    F13_21  COST  82.4474752328
    F13_21  AV13  1
    F13_21  PB21  1
    F13_22  COST  82.4474752328
    F13_22  AV13  1
    F13_22  PB22  1
    F13_29  COST  82.4474752328
    F13_29  AV13  1
    F13_29  PB29  1
    F14_1  COST  79.1538563639
    F14_1  AV14  1
    F14_1  PB1  1
    F14_2  COST  79.1538563639
    F14_2  AV14  1
    F14_2  PB2  1
    F14_6  COST  79.1538563639
    F14_6  AV14  1
    F14_6  PB6  1
    F14_8  COST  79.1538563639
    F14_8  AV14  1
    F14_8  PB8  1
    F14_13  COST  79.1538563639
    F14_13  AV14  1
    F14_13  PB13  1
    F14_17  COST  79.1538563639
    F14_17  AV14  1
    F14_17  PB17  1
    F14_24  COST  79.1538563639
    F14_24  AV14  1
    F14_24  PB24  1
    F14_26  COST  79.1538563639
    F14_26  AV14  1
    F14_26  PB26  1
    F14_28  COST  79.1538563639
    F14_28  AV14  1
    F14_28  PB28  1
    F14_29  COST  79.1538563639
    F14_29  AV14  1
    F14_29  PB29  1
    F15_1  COST  58.8263188301
    F15_1  AV15  1
    F15_1  PB1  1
    F15_4  COST  58.8263188301
    F15_4  AV15  1
    F15_4  PB4  1
    F15_6  COST  58.8263188301
    F15_6  AV15  1
    F15_6  PB6  1
    F15_9  COST  58.8263188301
    F15_9  AV15  1
    F15_9  PB9  1
    F15_10  COST  58.8263188301
    F15_10  AV15  1
    F15_10  PB10  1
    F15_12  COST  58.8263188301
    F15_12  AV15  1
    F15_12  PB12  1
    F15_13  COST  58.8263188301
    F15_13  AV15  1
    F15_13  PB13  1
    F15_17  COST  58.8263188301
    F15_17  AV15  1
    F15_17  PB17  1
    F15_18  COST  58.8263188301
    F15_18  AV15  1
    F15_18  PB18  1
    F15_25  COST  58.8263188301
    F15_25  AV15  1
    F15_25  PB25  1
    F15_28  COST  58.8263188301
    F15_28  AV15  1
    F15_28  PB28  1
    F15_29  COST  58.8263188301
    F15_29  AV15  1
    F15_29  PB29  1
    F16_8  COST  76.0443132832
    F16_8  AV16  1
    F16_8  PB8  1
    F16_10  COST  76.0443132832
    F16_10  AV16  1
    F16_10  PB10  1
    F16_12  COST  76.0443132832
    F16_12  AV16  1
    F16_12  PB12  1
    F16_13  COST  76.0443132832
    F16_13  AV16  1
    F16_13  PB13  1
    F16_16  COST  76.0443132832
    F16_16  AV16  1
    F16_16  PB16  1
    F16_22  COST  76.0443132832
    F16_22  AV16  1
    F16_22  PB22  1
    F16_26  COST  76.0443132832
    F16_26  AV16  1
    F16_26  PB26  1
    F16_27  COST  76.0443132832
    F16_27  AV16  1
    F16_27  PB27  1
    F16_28  COST  76.0443132832
    F16_28  AV16  1
    F16_28  PB28  1
    F17_0  COST  91.4397983716
    F17_0  AV17  1
    F17_0  PB0  1
    F17_2  COST  91.4397983716
    F17_2  AV17  1
    F17_2  PB2  1
    F17_4  COST  91.4397983716
    F17_4  AV17  1
    F17_4  PB4  1
    F17_5  COST  91.4397983716
    F17_5  AV17  1
    F17_5  PB5  1
    F17_7  COST  91.4397983716
    F17_7  AV17  1
    F17_7  PB7  1
    F17_8  COST  91.4397983716
    F17_8  AV17  1
    F17_8  PB8  1
    F17_10  COST  91.4397983716
    F17_10  AV17  1
    F17_10  PB10  1
    F17_12  COST  91.4397983716
    F17_12  AV17  1
    F17_12  PB12  1
    F17_15  COST  91.4397983716
    F17_15  AV17  1
    F17_15  PB15  1
    F17_16  COST  91.4397983716
    F17_16  AV17  1
    F17_16  PB16  1
    F17_18  COST  91.4397983716
    F17_18  AV17  1
    F17_18  PB18  1
    F17_21  COST  91.4397983716
    F17_21  AV17  1
    F17_21  PB21  1
    F17_23  COST  91.4397983716
    F17_23  AV17  1
    F17_23  PB23  1
    F17_25  COST  91.4397983716
    F17_25  AV17  1
    F17_25  PB25  1
    F17_27  COST  91.4397983716
    F17_27  AV17  1
    F17_27  PB27  1
    F17_28  COST  91.4397983716
    F17_28  AV17  1
    F17_28  PB28  1
    F18_1  COST  77.6645523705
    F18_1  AV18  1
    F18_1  PB1  1
    F18_3  COST  77.6645523705
    F18_3  AV18  1
    F18_3  PB3  1
    F18_5  COST  77.6645523705
    F18_5  AV18  1
    F18_5  PB5  1
    F18_11  COST  77.6645523705
    F18_11  AV18  1
    F18_11  PB11  1
    F18_12  COST  77.6645523705
    F18_12  AV18  1
    F18_12  PB12  1
    F18_13  COST  77.6645523705
    F18_13  AV18  1
    F18_13  PB13  1
    F18_14  COST  77.6645523705
    F18_14  AV18  1
    F18_14  PB14  1
    F18_15  COST  77.6645523705
    F18_15  AV18  1
    F18_15  PB15  1
    F18_17  COST  77.6645523705
    F18_17  AV18  1
    F18_17  PB17  1
    F18_19  COST  77.6645523705
    F18_19  AV18  1
    F18_19  PB19  1
    F18_22  COST  77.6645523705
    F18_22  AV18  1
    F18_22  PB22  1
    F18_26  COST  77.6645523705
    F18_26  AV18  1
    F18_26  PB26  1
    F18_27  COST  77.6645523705
    F18_27  AV18  1
    F18_27  PB27  1
    F18_29  COST  77.6645523705
    F18_29  AV18  1
    F18_29  PB29  1
    F19_1  COST  60.2015771239
    F19_1  AV19  1
    F19_1  PB1  1
    F19_2  COST  60.2015771239
    F19_2  AV19  1
    F19_2  PB2  1
    F19_3  COST  60.2015771239
    F19_3  AV19  1
    F19_3  PB3  1
    F19_9  COST  60.2015771239
    F19_9  AV19  1
    F19_9  PB9  1
    F19_10  COST  60.2015771239
    F19_10  AV19  1
    F19_10  PB10  1
    F19_12  COST  60.2015771239
    F19_12  AV19  1
    F19_12  PB12  1
    F19_13  COST  60.2015771239
    F19_13  AV19  1
    F19_13  PB13  1
    F19_14  COST  60.2015771239
    F19_14  AV19  1
    F19_14  PB14  1
    F19_16  COST  60.2015771239
    F19_16  AV19  1
    F19_16  PB16  1
    F19_20  COST  60.2015771239
    F19_20  AV19  1
    F19_20  PB20  1
    F19_21  COST  60.2015771239
    F19_21  AV19  1
    F19_21  PB21  1
    F19_25  COST  60.2015771239
    F19_25  AV19  1
    F19_25  PB25  1
    F19_27  COST  60.2015771239
    F19_27  AV19  1
    F19_27  PB27  1
    F20_0  COST  90.0917081711
    F20_0  AV20  1
    F20_0  PB0  1
    F20_4  COST  90.0917081711
    F20_4  AV20  1
    F20_4  PB4  1
    F20_10  COST  90.0917081711
    F20_10  AV20  1
    F20_10  PB10  1
    F20_11  COST  90.0917081711
    F20_11  AV20  1
    F20_11  PB11  1
    F20_12  COST  90.0917081711
    F20_12  AV20  1
    F20_12  PB12  1
    F20_14  COST  90.0917081711
    F20_14  AV20  1
    F20_14  PB14  1
    F20_15  COST  90.0917081711
    F20_15  AV20  1
    F20_15  PB15  1
    F20_16  COST  90.0917081711
    F20_16  AV20  1
    F20_16  PB16  1
    F20_18  COST  90.0917081711
    F20_18  AV20  1
    F20_18  PB18  1
    F20_19  COST  90.0917081711
    F20_19  AV20  1
    F20_19  PB19  1
    F20_20  COST  90.0917081711
    F20_20  AV20  1
    F20_20  PB20  1
    F20_21  COST  90.0917081711
    F20_21  AV20  1
    F20_21  PB21  1
    F20_22  COST  90.0917081711
    F20_22  AV20  1
    F20_22  PB22  1
    F20_23  COST  90.0917081711
    F20_23  AV20  1
    F20_23  PB23  1
    F20_25  COST  90.0917081711
    F20_25  AV20  1
    F20_25  PB25  1
    F21_0  COST  85.5193306
    F21_0  AV21  1
    F21_0  PB0  1
    F21_5  COST  85.5193306
    F21_5  AV21  1
    F21_5  PB5  1
    F21_6  COST  85.5193306
    F21_6  AV21  1
    F21_6  PB6  1
    F21_8  COST  85.5193306
    F21_8  AV21  1
    F21_8  PB8  1
    F21_10  COST  85.5193306
    F21_10  AV21  1
    F21_10  PB10  1
    F21_12  COST  85.5193306
    F21_12  AV21  1
    F21_12  PB12  1
    F21_15  COST  85.5193306
    F21_15  AV21  1
    F21_15  PB15  1
    F21_16  COST  85.5193306
    F21_16  AV21  1
    F21_16  PB16  1
    F21_17  COST  85.5193306
    F21_17  AV21  1
    F21_17  PB17  1
    F21_20  COST  85.5193306
    F21_20  AV21  1
    F21_20  PB20  1
    F21_25  COST  85.5193306
    F21_25  AV21  1
    F21_25  PB25  1
    F21_29  COST  85.5193306
    F21_29  AV21  1
    F21_29  PB29  1
    F22_1  COST  87.0351068147
    F22_1  AV22  1
    F22_1  PB1  1
    F22_5  COST  87.0351068147
    F22_5  AV22  1
    F22_5  PB5  1
    F22_6  COST  87.0351068147
    F22_6  AV22  1
    F22_6  PB6  1
    F22_10  COST  87.0351068147
    F22_10  AV22  1
    F22_10  PB10  1
    F22_12  COST  87.0351068147
    F22_12  AV22  1
    F22_12  PB12  1
    F22_16  COST  87.0351068147
    F22_16  AV22  1
    F22_16  PB16  1
    F22_18  COST  87.0351068147
    F22_18  AV22  1
    F22_18  PB18  1
    F22_19  COST  87.0351068147
    F22_19  AV22  1
    F22_19  PB19  1
    F22_22  COST  87.0351068147
    F22_22  AV22  1
    F22_22  PB22  1
    F22_23  COST  87.0351068147
    F22_23  AV22  1
    F22_23  PB23  1
    F22_24  COST  87.0351068147
    F22_24  AV22  1
    F22_24  PB24  1
    F22_26  COST  87.0351068147
    F22_26  AV22  1
    F22_26  PB26  1
    F22_28  COST  87.0351068147
    F22_28  AV22  1
    F22_28  PB28  1
    F23_3  COST  45.8762757181
    F23_3  AV23  1
    F23_3  PB3  1
    F23_7  COST  45.8762757181
    F23_7  AV23  1
    F23_7  PB7  1
    F23_8  COST  45.8762757181
    F23_8  AV23  1
    F23_8  PB8  1
    F23_9  COST  45.8762757181
    F23_9  AV23  1
    F23_9  PB9  1
    F23_16  COST  45.8762757181
    F23_16  AV23  1
    F23_16  PB16  1
    F23_18  COST  45.8762757181
    F23_18  AV23  1
    F23_18  PB18  1
    F23_21  COST  45.8762757181
    F23_21  AV23  1
    F23_21  PB21  1
    F23_23  COST  45.8762757181
    F23_23  AV23  1
    F23_23  PB23  1
    F23_24  COST  45.8762757181
    F23_24  AV23  1
    F23_24  PB24  1
    F23_25  COST  45.8762757181
    F23_25  AV23  1
    F23_25  PB25  1
    F23_28  COST  45.8762757181
    F23_28  AV23  1
    F23_28  PB28  1
    F23_29  COST  45.8762757181
    F23_29  AV23  1
    F23_29  PB29  1
    F24_1  COST  55.9955858502
    F24_1  AV24  1
    F24_1  PB1  1
    F24_3  COST  55.9955858502
    F24_3  AV24  1
    F24_3  PB3  1
    F24_4  COST  55.9955858502
    F24_4  AV24  1
    F24_4  PB4  1
    F24_8  COST  55.9955858502
    F24_8  AV24  1
    F24_8  PB8  1
    F24_9  COST  55.9955858502
    F24_9  AV24  1
    F24_9  PB9  1
    F24_10  COST  55.9955858502
    F24_10  AV24  1
    F24_10  PB10  1
    F24_11  COST  55.9955858502
    F24_11  AV24  1
    F24_11  PB11  1
    F24_13  COST  55.9955858502
    F24_13  AV24  1
    F24_13  PB13  1
    F24_14  COST  55.9955858502
    F24_14  AV24  1
    F24_14  PB14  1
    F24_18  COST  55.9955858502
    F24_18  AV24  1
    F24_18  PB18  1
    F24_22  COST  55.9955858502
    F24_22  AV24  1
    F24_22  PB22  1
    F24_24  COST  55.9955858502
    F24_24  AV24  1
    F24_24  PB24  1
    F24_28  COST  55.9955858502
    F24_28  AV24  1
    F24_28  PB28  1
    F25_1  COST  83.4570291463
    F25_1  AV25  1
    F25_1  PB1  1
    F25_2  COST  83.4570291463
    F25_2  AV25  1
    F25_2  PB2  1
    F25_3  COST  83.4570291463
    F25_3  AV25  1
    F25_3  PB3  1
    F25_6  COST  83.4570291463
    F25_6  AV25  1
    F25_6  PB6  1
    F25_8  COST  83.4570291463
    F25_8  AV25  1
    F25_8  PB8  1
    F25_9  COST  83.4570291463
    F25_9  AV25  1
    F25_9  PB9  1
    F25_10  COST  83.4570291463
    F25_10  AV25  1
    F25_10  PB10  1
    F25_12  COST  83.4570291463
    F25_12  AV25  1
    F25_12  PB12  1
    F25_15  COST  83.4570291463
    F25_15  AV25  1
    F25_15  PB15  1
    F25_16  COST  83.4570291463
    F25_16  AV25  1
    F25_16  PB16  1
    F25_18  COST  83.4570291463
    F25_18  AV25  1
    F25_18  PB18  1
    F25_20  COST  83.4570291463
    F25_20  AV25  1
    F25_20  PB20  1
    F25_26  COST  83.4570291463
    F25_26  AV25  1
    F25_26  PB26  1
    F25_29  COST  83.4570291463
    F25_29  AV25  1
    F25_29  PB29  1
    F26_0  COST  55.1144122737
    F26_0  AV26  1
    F26_0  PB0  1
    F26_2  COST  55.1144122737
    F26_2  AV26  1
    F26_2  PB2  1
    F26_6  COST  55.1144122737
    F26_6  AV26  1
    F26_6  PB6  1
    F26_8  COST  55.1144122737
    F26_8  AV26  1
    F26_8  PB8  1
    F26_16  COST  55.1144122737
    F26_16  AV26  1
    F26_16  PB16  1
    F26_17  COST  55.1144122737
    F26_17  AV26  1
    F26_17  PB17  1
    F26_18  COST  55.1144122737
    F26_18  AV26  1
    F26_18  PB18  1
    F26_22  COST  55.1144122737
    F26_22  AV26  1
    F26_22  PB22  1
    F26_24  COST  55.1144122737
    F26_24  AV26  1
    F26_24  PB24  1
    F26_27  COST  55.1144122737
    F26_27  AV26  1
    F26_27  PB27  1
    F26_29  COST  55.1144122737
    F26_29  AV26  1
    F26_29  PB29  1
    F27_1  COST  44.0538264557
    F27_1  AV27  1
    F27_1  PB1  1
    F27_2  COST  44.0538264557
    F27_2  AV27  1
    F27_2  PB2  1
    F27_4  COST  44.0538264557
    F27_4  AV27  1
    F27_4  PB4  1
    F27_5  COST  44.0538264557
    F27_5  AV27  1
    F27_5  PB5  1
    F27_7  COST  44.0538264557
    F27_7  AV27  1
    F27_7  PB7  1
    F27_9  COST  44.0538264557
    F27_9  AV27  1
    F27_9  PB9  1
    F27_10  COST  44.0538264557
    F27_10  AV27  1
    F27_10  PB10  1
    F27_13  COST  44.0538264557
    F27_13  AV27  1
    F27_13  PB13  1
    F27_14  COST  44.0538264557
    F27_14  AV27  1
    F27_14  PB14  1
    F27_18  COST  44.0538264557
    F27_18  AV27  1
    F27_18  PB18  1
    F27_24  COST  44.0538264557
    F27_24  AV27  1
    F27_24  PB24  1
    F27_28  COST  44.0538264557
    F27_28  AV27  1
    F27_28  PB28  1
    F28_0  COST  77.579630686
    F28_0  AV28  1
    F28_0  PB0  1
    F28_2  COST  77.579630686
    F28_2  AV28  1
    F28_2  PB2  1
    F28_4  COST  77.579630686
    F28_4  AV28  1
    F28_4  PB4  1
    F28_6  COST  77.579630686
    F28_6  AV28  1
    F28_6  PB6  1
    F28_7  COST  77.579630686
    F28_7  AV28  1
    F28_7  PB7  1
    F28_10  COST  77.579630686
    F28_10  AV28  1
    F28_10  PB10  1
    F28_13  COST  77.579630686
    F28_13  AV28  1
    F28_13  PB13  1
    F28_25  COST  77.579630686
    F28_25  AV28  1
    F28_25  PB25  1
    F28_26  COST  77.579630686
    F28_26  AV28  1
    F28_26  PB26  1
    F28_29  COST  77.579630686
    F28_29  AV28  1
    F28_29  PB29  1
    F29_1  COST  83.9598476063
    F29_1  AV29  1
    F29_1  PB1  1
    F29_2  COST  83.9598476063
    F29_2  AV29  1
    F29_2  PB2  1
    F29_9  COST  83.9598476063
    F29_9  AV29  1
    F29_9  PB9  1
    F29_11  COST  83.9598476063
    F29_11  AV29  1
    F29_11  PB11  1
    F29_14  COST  83.9598476063
    F29_14  AV29  1
    F29_14  PB14  1
    F29_15  COST  83.9598476063
    F29_15  AV29  1
    F29_15  PB15  1
    F29_16  COST  83.9598476063
    F29_16  AV29  1
    F29_16  PB16  1
    F29_17  COST  83.9598476063
    F29_17  AV29  1
    F29_17  PB17  1
    F29_22  COST  83.9598476063
    F29_22  AV29  1
    F29_22  PB22  1
    F30_0  COST  75.2972294477
    F30_0  AV30  1
    F30_0  PB0  1
    F30_4  COST  75.2972294477
    F30_4  AV30  1
    F30_4  PB4  1
    F30_8  COST  75.2972294477
    F30_8  AV30  1
    F30_8  PB8  1
    F30_14  COST  75.2972294477
    F30_14  AV30  1
    F30_14  PB14  1
    F30_16  COST  75.2972294477
    F30_16  AV30  1
    F30_16  PB16  1
    F30_17  COST  75.2972294477
    F30_17  AV30  1
    F30_17  PB17  1
    F30_20  COST  75.2972294477
    F30_20  AV30  1
    F30_20  PB20  1
    F30_28  COST  75.2972294477
    F30_28  AV30  1
    F30_28  PB28  1
    F31_3  COST  58.9663835034
    F31_3  AV31  1
    F31_3  PB3  1
    F31_7  COST  58.9663835034
    F31_7  AV31  1
    F31_7  PB7  1
    F31_8  COST  58.9663835034
    F31_8  AV31  1
    F31_8  PB8  1
    F31_9  COST  58.9663835034
    F31_9  AV31  1
    F31_9  PB9  1
    F31_11  COST  58.9663835034
    F31_11  AV31  1
    F31_11  PB11  1
    F31_15  COST  58.9663835034
    F31_15  AV31  1
    F31_15  PB15  1
    F31_16  COST  58.9663835034
    F31_16  AV31  1
    F31_16  PB16  1
    F31_17  COST  58.9663835034
    F31_17  AV31  1
    F31_17  PB17  1
    F31_18  COST  58.9663835034
    F31_18  AV31  1
    F31_18  PB18  1
    F31_25  COST  58.9663835034
    F31_25  AV31  1
    F31_25  PB25  1
    F31_28  COST  58.9663835034
    F31_28  AV31  1
    F31_28  PB28  1
    F32_0  COST  70.7875325432
    F32_0  AV32  1
    F32_0  PB0  1
    F32_4  COST  70.7875325432
    F32_4  AV32  1
    F32_4  PB4  1
    F32_10  COST  70.7875325432
    F32_10  AV32  1
    F32_10  PB10  1
    F32_11  COST  70.7875325432
    F32_11  AV32  1
    F32_11  PB11  1
    F32_13  COST  70.7875325432
    F32_13  AV32  1
    F32_13  PB13  1
    F32_16  COST  70.7875325432
    F32_16  AV32  1
    F32_16  PB16  1
    F32_19  COST  70.7875325432
    F32_19  AV32  1
    F32_19  PB19  1
    F32_22  COST  70.7875325432
    F32_22  AV32  1
    F32_22  PB22  1
    F32_27  COST  70.7875325432
    F32_27  AV32  1
    F32_27  PB27  1
    F33_0  COST  41.1835973296
    F33_0  AV33  1
    F33_0  PB0  1
    F33_2  COST  41.1835973296
    F33_2  AV33  1
    F33_2  PB2  1
    F33_4  COST  41.1835973296
    F33_4  AV33  1
    F33_4  PB4  1
    F33_5  COST  41.1835973296
    F33_5  AV33  1
    F33_5  PB5  1
    F33_7  COST  41.1835973296
    F33_7  AV33  1
    F33_7  PB7  1
    F33_9  COST  41.1835973296
    F33_9  AV33  1
    F33_9  PB9  1
    F33_16  COST  41.1835973296
    F33_16  AV33  1
    F33_16  PB16  1
    F33_23  COST  41.1835973296
    F33_23  AV33  1
    F33_23  PB23  1
    F33_25  COST  41.1835973296
    F33_25  AV33  1
    F33_25  PB25  1
    F34_2  COST  70.9463910664
    F34_2  AV34  1
    F34_2  PB2  1
    F34_3  COST  70.9463910664
    F34_3  AV34  1
    F34_3  PB3  1
    F34_10  COST  70.9463910664
    F34_10  AV34  1
    F34_10  PB10  1
    F34_15  COST  70.9463910664
    F34_15  AV34  1
    F34_15  PB15  1
    F34_18  COST  70.9463910664
    F34_18  AV34  1
    F34_18  PB18  1
    F34_19  COST  70.9463910664
    F34_19  AV34  1
    F34_19  PB19  1
    F34_21  COST  70.9463910664
    F34_21  AV34  1
    F34_21  PB21  1
    F34_22  COST  70.9463910664
    F34_22  AV34  1
    F34_22  PB22  1
    F34_26  COST  70.9463910664
    F34_26  AV34  1
    F34_26  PB26  1
    F35_0  COST  87.1240646093
    F35_0  AV35  1
    F35_0  PB0  1
    F35_2  COST  87.1240646093
    F35_2  AV35  1
    F35_2  PB2  1
    F35_4  COST  87.1240646093
    F35_4  AV35  1
    F35_4  PB4  1
    F35_7  COST  87.1240646093
    F35_7  AV35  1
    F35_7  PB7  1
    F35_8  COST  87.1240646093
    F35_8  AV35  1
    F35_8  PB8  1
    F35_11  COST  87.1240646093
    F35_11  AV35  1
    F35_11  PB11  1
    F35_12  COST  87.1240646093
    F35_12  AV35  1
    F35_12  PB12  1
    F35_14  COST  87.1240646093
    F35_14  AV35  1
    F35_14  PB14  1
    F35_15  COST  87.1240646093
    F35_15  AV35  1
    F35_15  PB15  1
    F35_20  COST  87.1240646093
    F35_20  AV35  1
    F35_20  PB20  1
    F35_22  COST  87.1240646093
    F35_22  AV35  1
    F35_22  PB22  1
    F35_24  COST  87.1240646093
    F35_24  AV35  1
    F35_24  PB24  1
    F36_4  COST  44.2929279258
    F36_4  AV36  1
    F36_4  PB4  1
    F36_7  COST  44.2929279258
    F36_7  AV36  1
    F36_7  PB7  1
    F36_10  COST  44.2929279258
    F36_10  AV36  1
    F36_10  PB10  1
    F36_12  COST  44.2929279258
    F36_12  AV36  1
    F36_12  PB12  1
    F36_14  COST  44.2929279258
    F36_14  AV36  1
    F36_14  PB14  1
    F36_23  COST  44.2929279258
    F36_23  AV36  1
    F36_23  PB23  1
    F36_26  COST  44.2929279258
    F36_26  AV36  1
    F36_26  PB26  1
    F36_28  COST  44.2929279258
    F36_28  AV36  1
    F36_28  PB28  1
    F36_29  COST  44.2929279258
    F36_29  AV36  1
    F36_29  PB29  1
    F37_5  COST  61.0825668101
    F37_5  AV37  1
    F37_5  PB5  1
    F37_7  COST  61.0825668101
    F37_7  AV37  1
    F37_7  PB7  1
    F37_11  COST  61.0825668101
    F37_11  AV37  1
    F37_11  PB11  1
    F37_14  COST  61.0825668101
    F37_14  AV37  1
    F37_14  PB14  1
    F37_19  COST  61.0825668101
    F37_19  AV37  1
    F37_19  PB19  1
    F37_20  COST  61.0825668101
    F37_20  AV37  1
    F37_20  PB20  1
    F37_21  COST  61.0825668101
    F37_21  AV37  1
    F37_21  PB21  1
    F37_22  COST  61.0825668101
    F37_22  AV37  1
    F37_22  PB22  1
    F37_24  COST  61.0825668101
    F37_24  AV37  1
    F37_24  PB24  1
    F37_28  COST  61.0825668101
    F37_28  AV37  1
    F37_28  PB28  1
    F38_0  COST  49.067504464
    F38_0  AV38  1
    F38_0  PB0  1
    F38_4  COST  49.067504464
    F38_4  AV38  1
    F38_4  PB4  1
    F38_9  COST  49.067504464
    F38_9  AV38  1
    F38_9  PB9  1
    F38_15  COST  49.067504464
    F38_15  AV38  1
    F38_15  PB15  1
    F38_18  COST  49.067504464
    F38_18  AV38  1
    F38_18  PB18  1
    F38_20  COST  49.067504464
    F38_20  AV38  1
    F38_20  PB20  1
    F38_21  COST  49.067504464
    F38_21  AV38  1
    F38_21  PB21  1
    F38_26  COST  49.067504464
    F38_26  AV38  1
    F38_26  PB26  1
    F39_2  COST  60.9004343148
    F39_2  AV39  1
    F39_2  PB2  1
    F39_4  COST  60.9004343148
    F39_4  AV39  1
    F39_4  PB4  1
    F39_15  COST  60.9004343148
    F39_15  AV39  1
    F39_15  PB15  1
    F39_18  COST  60.9004343148
    F39_18  AV39  1
    F39_18  PB18  1
    F39_19  COST  60.9004343148
    F39_19  AV39  1
    F39_19  PB19  1
    F39_21  COST  60.9004343148
    F39_21  AV39  1
    F39_21  PB21  1
    F39_25  COST  60.9004343148
    F39_25  AV39  1
    F39_25  PB25  1
    F39_28  COST  60.9004343148
    F39_28  AV39  1
    F39_28  PB28  1
    F40_1  COST  40.7154220356
    F40_1  AV40  1
    F40_1  PB1  1
    F40_2  COST  40.7154220356
    F40_2  AV40  1
    F40_2  PB2  1
    F40_3  COST  40.7154220356
    F40_3  AV40  1
    F40_3  PB3  1
    F40_4  COST  40.7154220356
    F40_4  AV40  1
    F40_4  PB4  1
    F40_5  COST  40.7154220356
    F40_5  AV40  1
    F40_5  PB5  1
    F40_10  COST  40.7154220356
    F40_10  AV40  1
    F40_10  PB10  1
    F40_11  COST  40.7154220356
    F40_11  AV40  1
    F40_11  PB11  1
    F40_14  COST  40.7154220356
    F40_14  AV40  1
    F40_14  PB14  1
    F40_19  COST  40.7154220356
    F40_19  AV40  1
    F40_19  PB19  1
    F40_21  COST  40.7154220356
    F40_21  AV40  1
    F40_21  PB21  1
    F40_25  COST  40.7154220356
    F40_25  AV40  1
    F40_25  PB25  1
    F40_26  COST  40.7154220356
    F40_26  AV40  1
    F40_26  PB26  1
    F40_28  COST  40.7154220356
    F40_28  AV40  1
    F40_28  PB28  1
    F40_29  COST  40.7154220356
    F40_29  AV40  1
    F40_29  PB29  1
    F41_0  COST  85.5269605907
    F41_0  AV41  1
    F41_0  PB0  1
    F41_1  COST  85.5269605907
    F41_1  AV41  1
    F41_1  PB1  1
    F41_6  COST  85.5269605907
    F41_6  AV41  1
    F41_6  PB6  1
    F41_7  COST  85.5269605907
    F41_7  AV41  1
    F41_7  PB7  1
    F41_16  COST  85.5269605907
    F41_16  AV41  1
    F41_16  PB16  1
    F41_17  COST  85.5269605907
    F41_17  AV41  1
    F41_17  PB17  1
    F41_19  COST  85.5269605907
    F41_19  AV41  1
    F41_19  PB19  1
    F41_21  COST  85.5269605907
    F41_21  AV41  1
    F41_21  PB21  1
    F41_24  COST  85.5269605907
    F41_24  AV41  1
    F41_24  PB24  1
    F41_25  COST  85.5269605907
    F41_25  AV41  1
    F41_25  PB25  1
    F42_0  COST  67.2933820688
    F42_0  AV42  1
    F42_0  PB0  1
    F42_1  COST  67.2933820688
    F42_1  AV42  1
    F42_1  PB1  1
    F42_2  COST  67.2933820688
    F42_2  AV42  1
    F42_2  PB2  1
    F42_3  COST  67.2933820688
    F42_3  AV42  1
    F42_3  PB3  1
    F42_5  COST  67.2933820688
    F42_5  AV42  1
    F42_5  PB5  1
    F42_6  COST  67.2933820688
    F42_6  AV42  1
    F42_6  PB6  1
    F42_9  COST  67.2933820688
    F42_9  AV42  1
    F42_9  PB9  1
    F42_11  COST  67.2933820688
    F42_11  AV42  1
    F42_11  PB11  1
    F42_12  COST  67.2933820688
    F42_12  AV42  1
    F42_12  PB12  1
    F42_16  COST  67.2933820688
    F42_16  AV42  1
    F42_16  PB16  1
    F42_22  COST  67.2933820688
    F42_22  AV42  1
    F42_22  PB22  1
    F42_25  COST  67.2933820688
    F42_25  AV42  1
    F42_25  PB25  1
    F42_27  COST  67.2933820688
    F42_27  AV42  1
    F42_27  PB27  1
    F43_1  COST  63.9754936059
    F43_1  AV43  1
    F43_1  PB1  1
    F43_5  COST  63.9754936059
    F43_5  AV43  1
    F43_5  PB5  1
    F43_8  COST  63.9754936059
    F43_8  AV43  1
    F43_8  PB8  1
    F43_11  COST  63.9754936059
    F43_11  AV43  1
    F43_11  PB11  1
    F43_12  COST  63.9754936059
    F43_12  AV43  1
    F43_12  PB12  1
    F43_14  COST  63.9754936059
    F43_14  AV43  1
    F43_14  PB14  1
    F43_15  COST  63.9754936059
    F43_15  AV43  1
    F43_15  PB15  1
    F43_21  COST  63.9754936059
    F43_21  AV43  1
    F43_21  PB21  1
    F43_22  COST  63.9754936059
    F43_22  AV43  1
    F43_22  PB22  1
    F43_23  COST  63.9754936059
    F43_23  AV43  1
    F43_23  PB23  1
    F43_26  COST  63.9754936059
    F43_26  AV43  1
    F43_26  PB26  1
    F44_2  COST  73.09870936
    F44_2  AV44  1
    F44_2  PB2  1
    F44_14  COST  73.09870936
    F44_14  AV44  1
    F44_14  PB14  1
    F44_17  COST  73.09870936
    F44_17  AV44  1
    F44_17  PB17  1
    F44_20  COST  73.09870936
    F44_20  AV44  1
    F44_20  PB20  1
    F44_27  COST  73.09870936
    F44_27  AV44  1
    F44_27  PB27  1
    F44_29  COST  73.09870936
    F44_29  AV44  1
    F44_29  PB29  1
    F45_2  COST  86.751551234
    F45_2  AV45  1
    F45_2  PB2  1
    F45_11  COST  86.751551234
    F45_11  AV45  1
    F45_11  PB11  1
    F45_14  COST  86.751551234
    F45_14  AV45  1
    F45_14  PB14  1
    F45_15  COST  86.751551234
    F45_15  AV45  1
    F45_15  PB15  1
    F45_16  COST  86.751551234
    F45_16  AV45  1
    F45_16  PB16  1
    F45_19  COST  86.751551234
    F45_19  AV45  1
    F45_19  PB19  1
    F45_21  COST  86.751551234
    F45_21  AV45  1
    F45_21  PB21  1
    F45_23  COST  86.751551234
    F45_23  AV45  1
    F45_23  PB23  1
    F45_29  COST  86.751551234
    F45_29  AV45  1
    F45_29  PB29  1
    F46_2  COST  56.0193398653
    F46_2  AV46  1
    F46_2  PB2  1
    F46_8  COST  56.0193398653
    F46_8  AV46  1
    F46_8  PB8  1
    F46_11  COST  56.0193398653
    F46_11  AV46  1
    F46_11  PB11  1
    F46_13  COST  56.0193398653
    F46_13  AV46  1
    F46_13  PB13  1
    F46_19  COST  56.0193398653
    F46_19  AV46  1
    F46_19  PB19  1
    F46_21  COST  56.0193398653
    F46_21  AV46  1
    F46_21  PB21  1
    F46_24  COST  56.0193398653
    F46_24  AV46  1
    F46_24  PB24  1
    F46_25  COST  56.0193398653
    F46_25  AV46  1
    F46_25  PB25  1
    F46_26  COST  56.0193398653
    F46_26  AV46  1
    F46_26  PB26  1
    F46_27  COST  56.0193398653
    F46_27  AV46  1
    F46_27  PB27  1
    F46_29  COST  56.0193398653
    F46_29  AV46  1
    F46_29  PB29  1
    F47_0  COST  54.7134334823
    F47_0  AV47  1
    F47_0  PB0  1
    F47_2  COST  54.7134334823
    F47_2  AV47  1
    F47_2  PB2  1
    F47_3  COST  54.7134334823
    F47_3  AV47  1
    F47_3  PB3  1
    F47_4  COST  54.7134334823
    F47_4  AV47  1
    F47_4  PB4  1
    F47_5  COST  54.7134334823
    F47_5  AV47  1
    F47_5  PB5  1
    F47_7  COST  54.7134334823
    F47_7  AV47  1
    F47_7  PB7  1
    F47_8  COST  54.7134334823
    F47_8  AV47  1
    F47_8  PB8  1
    F47_10  COST  54.7134334823
    F47_10  AV47  1
    F47_10  PB10  1
    F47_11  COST  54.7134334823
    F47_11  AV47  1
    F47_11  PB11  1
    F47_12  COST  54.7134334823
    F47_12  AV47  1
    F47_12  PB12  1
    F47_15  COST  54.7134334823
    F47_15  AV47  1
    F47_15  PB15  1
    F47_16  COST  54.7134334823
    F47_16  AV47  1
    F47_16  PB16  1
    F47_18  COST  54.7134334823
    F47_18  AV47  1
    F47_18  PB18  1
    F47_20  COST  54.7134334823
    F47_20  AV47  1
    F47_20  PB20  1
    F47_21  COST  54.7134334823
    F47_21  AV47  1
    F47_21  PB21  1
    F47_23  COST  54.7134334823
    F47_23  AV47  1
    F47_23  PB23  1
    F48_7  COST  42.7221814242
    F48_7  AV48  1
    F48_7  PB7  1
    F48_8  COST  42.7221814242
    F48_8  AV48  1
    F48_8  PB8  1
    F48_10  COST  42.7221814242
    F48_10  AV48  1
    F48_10  PB10  1
    F48_11  COST  42.7221814242
    F48_11  AV48  1
    F48_11  PB11  1
    F48_14  COST  42.7221814242
    F48_14  AV48  1
    F48_14  PB14  1
    F48_15  COST  42.7221814242
    F48_15  AV48  1
    F48_15  PB15  1
    F48_18  COST  42.7221814242
    F48_18  AV48  1
    F48_18  PB18  1
    F48_25  COST  42.7221814242
    F48_25  AV48  1
    F48_25  PB25  1
    F48_26  COST  42.7221814242
    F48_26  AV48  1
    F48_26  PB26  1
    F49_1  COST  54.6519501553
    F49_1  AV49  1
    F49_1  PB1  1
    F49_4  COST  54.6519501553
    F49_4  AV49  1
    F49_4  PB4  1
    F49_7  COST  54.6519501553
    F49_7  AV49  1
    F49_7  PB7  1
    F49_9  COST  54.6519501553
    F49_9  AV49  1
    F49_9  PB9  1
    F49_10  COST  54.6519501553
    F49_10  AV49  1
    F49_10  PB10  1
    F49_11  COST  54.6519501553
    F49_11  AV49  1
    F49_11  PB11  1
    F49_12  COST  54.6519501553
    F49_12  AV49  1
    F49_12  PB12  1
    F49_14  COST  54.6519501553
    F49_14  AV49  1
    F49_14  PB14  1
    F49_18  COST  54.6519501553
    F49_18  AV49  1
    F49_18  PB18  1
    F49_20  COST  54.6519501553
    F49_20  AV49  1
    F49_20  PB20  1
    F49_23  COST  54.6519501553
    F49_23  AV49  1
    F49_23  PB23  1
    F49_27  COST  54.6519501553
    F49_27  AV49  1
    F49_27  PB27  1
    F49_28  COST  54.6519501553
    F49_28  AV49  1
    F49_28  PB28  1
    F49_29  COST  54.6519501553
    F49_29  AV49  1
    F49_29  PB29  1
    F50_0  COST  43.6416516513
    F50_0  AV50  1
    F50_0  PB0  1
    F50_1  COST  43.6416516513
    F50_1  AV50  1
    F50_1  PB1  1
    F50_2  COST  43.6416516513
    F50_2  AV50  1
    F50_2  PB2  1
    F50_3  COST  43.6416516513
    F50_3  AV50  1
    F50_3  PB3  1
    F50_12  COST  43.6416516513
    F50_12  AV50  1
    F50_12  PB12  1
    F50_14  COST  43.6416516513
    F50_14  AV50  1
    F50_14  PB14  1
    F50_15  COST  43.6416516513
    F50_15  AV50  1
    F50_15  PB15  1
    F50_19  COST  43.6416516513
    F50_19  AV50  1
    F50_19  PB19  1
    F50_21  COST  43.6416516513
    F50_21  AV50  1
    F50_21  PB21  1
    F50_25  COST  43.6416516513
    F50_25  AV50  1
    F50_25  PB25  1
    F51_5  COST  42.2857167946
    F51_5  AV51  1
    F51_5  PB5  1
    F51_6  COST  42.2857167946
    F51_6  AV51  1
    F51_6  PB6  1
    F51_8  COST  42.2857167946
    F51_8  AV51  1
    F51_8  PB8  1
    F51_12  COST  42.2857167946
    F51_12  AV51  1
    F51_12  PB12  1
    F51_13  COST  42.2857167946
    F51_13  AV51  1
    F51_13  PB13  1
    F51_19  COST  42.2857167946
    F51_19  AV51  1
    F51_19  PB19  1
    F51_23  COST  42.2857167946
    F51_23  AV51  1
    F51_23  PB23  1
    F51_25  COST  42.2857167946
    F51_25  AV51  1
    F51_25  PB25  1
    F52_1  COST  70.4001809216
    F52_1  AV52  1
    F52_1  PB1  1
    F52_2  COST  70.4001809216
    F52_2  AV52  1
    F52_2  PB2  1
    F52_15  COST  70.4001809216
    F52_15  AV52  1
    F52_15  PB15  1
    F52_19  COST  70.4001809216
    F52_19  AV52  1
    F52_19  PB19  1
    F52_22  COST  70.4001809216
    F52_22  AV52  1
    F52_22  PB22  1
    F53_5  COST  50.1109188072
    F53_5  AV53  1
    F53_5  PB5  1
    F53_7  COST  50.1109188072
    F53_7  AV53  1
    F53_7  PB7  1
    F53_11  COST  50.1109188072
    F53_11  AV53  1
    F53_11  PB11  1
    F53_19  COST  50.1109188072
    F53_19  AV53  1
    F53_19  PB19  1
    F53_20  COST  50.1109188072
    F53_20  AV53  1
    F53_20  PB20  1
    F53_27  COST  50.1109188072
    F53_27  AV53  1
    F53_27  PB27  1
    F54_0  COST  44.0841747136
    F54_0  AV54  1
    F54_0  PB0  1
    F54_10  COST  44.0841747136
    F54_10  AV54  1
    F54_10  PB10  1
    F54_15  COST  44.0841747136
    F54_15  AV54  1
    F54_15  PB15  1
    F54_16  COST  44.0841747136
    F54_16  AV54  1
    F54_16  PB16  1
    F54_18  COST  44.0841747136
    F54_18  AV54  1
    F54_18  PB18  1
    F54_21  COST  44.0841747136
    F54_21  AV54  1
    F54_21  PB21  1
    F54_27  COST  44.0841747136
    F54_27  AV54  1
    F54_27  PB27  1
    F54_29  COST  44.0841747136
    F54_29  AV54  1
    F54_29  PB29  1
    F55_4  COST  90.4193107777
    F55_4  AV55  1
    F55_4  PB4  1
    F55_6  COST  90.4193107777
    F55_6  AV55  1
    F55_6  PB6  1
    F55_8  COST  90.4193107777
    F55_8  AV55  1
    F55_8  PB8  1
    F55_10  COST  90.4193107777
    F55_10  AV55  1
    F55_10  PB10  1
    F55_16  COST  90.4193107777
    F55_16  AV55  1
    F55_16  PB16  1
    F55_17  COST  90.4193107777
    F55_17  AV55  1
    F55_17  PB17  1
    F55_19  COST  90.4193107777
    F55_19  AV55  1
    F55_19  PB19  1
    F55_20  COST  90.4193107777
    F55_20  AV55  1
    F55_20  PB20  1
    F55_22  COST  90.4193107777
    F55_22  AV55  1
    F55_22  PB22  1
    F55_23  COST  90.4193107777
    F55_23  AV55  1
    F55_23  PB23  1
    F55_26  COST  90.4193107777
    F55_26  AV55  1
    F55_26  PB26  1
    F55_28  COST  90.4193107777
    F55_28  AV55  1
    F55_28  PB28  1
    F56_3  COST  48.1803640859
    F56_3  AV56  1
    F56_3  PB3  1
    F56_6  COST  48.1803640859
    F56_6  AV56  1
    F56_6  PB6  1
    F56_8  COST  48.1803640859
    F56_8  AV56  1
    F56_8  PB8  1
    F56_11  COST  48.1803640859
    F56_11  AV56  1
    F56_11  PB11  1
    F56_17  COST  48.1803640859
    F56_17  AV56  1
    F56_17  PB17  1
    F56_20  COST  48.1803640859
    F56_20  AV56  1
    F56_20  PB20  1
    F56_23  COST  48.1803640859
    F56_23  AV56  1
    F56_23  PB23  1
    F56_24  COST  48.1803640859
    F56_24  AV56  1
    F56_24  PB24  1
    F56_26  COST  48.1803640859
    F56_26  AV56  1
    F56_26  PB26  1
    F56_27  COST  48.1803640859
    F56_27  AV56  1
    F56_27  PB27  1
    F57_0  COST  45.2156934898
    F57_0  AV57  1
    F57_0  PB0  1
    F57_1  COST  45.2156934898
    F57_1  AV57  1
    F57_1  PB1  1
    F57_5  COST  45.2156934898
    F57_5  AV57  1
    F57_5  PB5  1
    F57_7  COST  45.2156934898
    F57_7  AV57  1
    F57_7  PB7  1
    F57_8  COST  45.2156934898
    F57_8  AV57  1
    F57_8  PB8  1
    F57_9  COST  45.2156934898
    F57_9  AV57  1
    F57_9  PB9  1
    F57_10  COST  45.2156934898
    F57_10  AV57  1
    F57_10  PB10  1
    F57_12  COST  45.2156934898
    F57_12  AV57  1
    F57_12  PB12  1
    F57_14  COST  45.2156934898
    F57_14  AV57  1
    F57_14  PB14  1
    F57_17  COST  45.2156934898
    F57_17  AV57  1
    F57_17  PB17  1
    F57_18  COST  45.2156934898
    F57_18  AV57  1
    F57_18  PB18  1
    F57_21  COST  45.2156934898
    F57_21  AV57  1
    F57_21  PB21  1
    F57_25  COST  45.2156934898
    F57_25  AV57  1
    F57_25  PB25  1
    F57_28  COST  45.2156934898
    F57_28  AV57  1
    F57_28  PB28  1
    F58_4  COST  93.387293208
    F58_4  AV58  1
    F58_4  PB4  1
    F58_6  COST  93.387293208
    F58_6  AV58  1
    F58_6  PB6  1
    F58_7  COST  93.387293208
    F58_7  AV58  1
    F58_7  PB7  1
    F58_11  COST  93.387293208
    F58_11  AV58  1
    F58_11  PB11  1
    F58_13  COST  93.387293208
    F58_13  AV58  1
    F58_13  PB13  1
    F58_14  COST  93.387293208
    F58_14  AV58  1
    F58_14  PB14  1
    F58_18  COST  93.387293208
    F58_18  AV58  1
    F58_18  PB18  1
    F58_20  COST  93.387293208
    F58_20  AV58  1
    F58_20  PB20  1
    F58_21  COST  93.387293208
    F58_21  AV58  1
    F58_21  PB21  1
    F58_22  COST  93.387293208
    F58_22  AV58  1
    F58_22  PB22  1
    F58_24  COST  93.387293208
    F58_24  AV58  1
    F58_24  PB24  1
    F59_1  COST  76.6831830146
    F59_1  AV59  1
    F59_1  PB1  1
    F59_4  COST  76.6831830146
    F59_4  AV59  1
    F59_4  PB4  1
    F59_11  COST  76.6831830146
    F59_11  AV59  1
    F59_11  PB11  1
    F59_16  COST  76.6831830146
    F59_16  AV59  1
    F59_16  PB16  1
    F59_18  COST  76.6831830146
    F59_18  AV59  1
    F59_18  PB18  1
    F59_19  COST  76.6831830146
    F59_19  AV59  1
    F59_19  PB19  1
    F59_21  COST  76.6831830146
    F59_21  AV59  1
    F59_21  PB21  1
    F59_23  COST  76.6831830146
    F59_23  AV59  1
    F59_23  PB23  1
    F59_28  COST  76.6831830146
    F59_28  AV59  1
    F59_28  PB28  1
    F59_29  COST  76.6831830146
    F59_29  AV59  1
    F59_29  PB29  1
    F60_5  COST  79.9164722918
    F60_5  AV60  1
    F60_5  PB5  1
    F60_8  COST  79.9164722918
    F60_8  AV60  1
    F60_8  PB8  1
    F60_11  COST  79.9164722918
    F60_11  AV60  1
    F60_11  PB11  1
    F60_17  COST  79.9164722918
    F60_17  AV60  1
    F60_17  PB17  1
    F60_18  COST  79.9164722918
    F60_18  AV60  1
    F60_18  PB18  1
    F60_20  COST  79.9164722918
    F60_20  AV60  1
    F60_20  PB20  1
    F60_21  COST  79.9164722918
    F60_21  AV60  1
    F60_21  PB21  1
    F60_23  COST  79.9164722918
    F60_23  AV60  1
    F60_23  PB23  1
    F60_24  COST  79.9164722918
    F60_24  AV60  1
    F60_24  PB24  1
    F60_28  COST  79.9164722918
    F60_28  AV60  1
    F60_28  PB28  1
    F61_1  COST  70.9762197701
    F61_1  AV61  1
    F61_1  PB1  1
    F61_2  COST  70.9762197701
    F61_2  AV61  1
    F61_2  PB2  1
    F61_3  COST  70.9762197701
    F61_3  AV61  1
    F61_3  PB3  1
    F61_12  COST  70.9762197701
    F61_12  AV61  1
    F61_12  PB12  1
    F61_15  COST  70.9762197701
    F61_15  AV61  1
    F61_15  PB15  1
    F61_17  COST  70.9762197701
    F61_17  AV61  1
    F61_17  PB17  1
    F61_18  COST  70.9762197701
    F61_18  AV61  1
    F61_18  PB18  1
    F61_19  COST  70.9762197701
    F61_19  AV61  1
    F61_19  PB19  1
    F61_21  COST  70.9762197701
    F61_21  AV61  1
    F61_21  PB21  1
    F61_26  COST  70.9762197701
    F61_26  AV61  1
    F61_26  PB26  1
    F61_27  COST  70.9762197701
    F61_27  AV61  1
    F61_27  PB27  1
    F62_0  COST  43.8714342766
    F62_0  AV62  1
    F62_0  PB0  1
    F62_2  COST  43.8714342766
    F62_2  AV62  1
    F62_2  PB2  1
    F62_8  COST  43.8714342766
    F62_8  AV62  1
    F62_8  PB8  1
    F62_10  COST  43.8714342766
    F62_10  AV62  1
    F62_10  PB10  1
    F62_13  COST  43.8714342766
    F62_13  AV62  1
    F62_13  PB13  1
    F62_14  COST  43.8714342766
    F62_14  AV62  1
    F62_14  PB14  1
    F62_15  COST  43.8714342766
    F62_15  AV62  1
    F62_15  PB15  1
    F62_16  COST  43.8714342766
    F62_16  AV62  1
    F62_16  PB16  1
    F62_18  COST  43.8714342766
    F62_18  AV62  1
    F62_18  PB18  1
    F62_21  COST  43.8714342766
    F62_21  AV62  1
    F62_21  PB21  1
    F62_23  COST  43.8714342766
    F62_23  AV62  1
    F62_23  PB23  1
    F62_28  COST  43.8714342766
    F62_28  AV62  1
    F62_28  PB28  1
    F63_2  COST  86.3032482227
    F63_2  AV63  1
    F63_2  PB2  1
    F63_4  COST  86.3032482227
    F63_4  AV63  1
    F63_4  PB4  1
    F63_6  COST  86.3032482227
    F63_6  AV63  1
    F63_6  PB6  1
    F63_7  COST  86.3032482227
    F63_7  AV63  1
    F63_7  PB7  1
    F63_8  COST  86.3032482227
    F63_8  AV63  1
    F63_8  PB8  1
    F63_16  COST  86.3032482227
    F63_16  AV63  1
    F63_16  PB16  1
    F63_23  COST  86.3032482227
    F63_23  AV63  1
    F63_23  PB23  1
    F63_26  COST  86.3032482227
    F63_26  AV63  1
    F63_26  PB26  1
    F63_27  COST  86.3032482227
    F63_27  AV63  1
    F63_27  PB27  1
    F64_6  COST  62.9915952313
    F64_6  AV64  1
    F64_6  PB6  1
    F64_9  COST  62.9915952313
    F64_9  AV64  1
    F64_9  PB9  1
    F64_10  COST  62.9915952313
    F64_10  AV64  1
    F64_10  PB10  1
    F64_12  COST  62.9915952313
    F64_12  AV64  1
    F64_12  PB12  1
    F64_18  COST  62.9915952313
    F64_18  AV64  1
    F64_18  PB18  1
    F64_20  COST  62.9915952313
    F64_20  AV64  1
    F64_20  PB20  1
    F64_28  COST  62.9915952313
    F64_28  AV64  1
    F64_28  PB28  1
    F65_3  COST  61.5857303407
    F65_3  AV65  1
    F65_3  PB3  1
    F65_6  COST  61.5857303407
    F65_6  AV65  1
    F65_6  PB6  1
    F65_8  COST  61.5857303407
    F65_8  AV65  1
    F65_8  PB8  1
    F65_12  COST  61.5857303407
    F65_12  AV65  1
    F65_12  PB12  1
    F65_13  COST  61.5857303407
    F65_13  AV65  1
    F65_13  PB13  1
    F65_15  COST  61.5857303407
    F65_15  AV65  1
    F65_15  PB15  1
    F65_23  COST  61.5857303407
    F65_23  AV65  1
    F65_23  PB23  1
    F65_25  COST  61.5857303407
    F65_25  AV65  1
    F65_25  PB25  1
    F66_3  COST  47.4420084202
    F66_3  AV66  1
    F66_3  PB3  1
    F66_6  COST  47.4420084202
    F66_6  AV66  1
    F66_6  PB6  1
    F66_7  COST  47.4420084202
    F66_7  AV66  1
    F66_7  PB7  1
    F66_8  COST  47.4420084202
    F66_8  AV66  1
    F66_8  PB8  1
    F66_10  COST  47.4420084202
    F66_10  AV66  1
    F66_10  PB10  1
    F66_14  COST  47.4420084202
    F66_14  AV66  1
    F66_14  PB14  1
    F66_16  COST  47.4420084202
    F66_16  AV66  1
    F66_16  PB16  1
    F66_17  COST  47.4420084202
    F66_17  AV66  1
    F66_17  PB17  1
    F66_20  COST  47.4420084202
    F66_20  AV66  1
    F66_20  PB20  1
    F66_22  COST  47.4420084202
    F66_22  AV66  1
    F66_22  PB22  1
    F67_1  COST  46.2270937207
    F67_1  AV67  1
    F67_1  PB1  1
    F67_6  COST  46.2270937207
    F67_6  AV67  1
    F67_6  PB6  1
    F67_7  COST  46.2270937207
    F67_7  AV67  1
    F67_7  PB7  1
    F67_12  COST  46.2270937207
    F67_12  AV67  1
    F67_12  PB12  1
    F67_13  COST  46.2270937207
    F67_13  AV67  1
    F67_13  PB13  1
    F67_14  COST  46.2270937207
    F67_14  AV67  1
    F67_14  PB14  1
    F67_19  COST  46.2270937207
    F67_19  AV67  1
    F67_19  PB19  1
    F67_22  COST  46.2270937207
    F67_22  AV67  1
    F67_22  PB22  1
    F67_29  COST  46.2270937207
    F67_29  AV67  1
    F67_29  PB29  1
    F68_0  COST  68.7235263101
    F68_0  AV68  1
    F68_0  PB0  1
    F68_1  COST  68.7235263101
    F68_1  AV68  1
    F68_1  PB1  1
    F68_2  COST  68.7235263101
    F68_2  AV68  1
    F68_2  PB2  1
    F68_4  COST  68.7235263101
    F68_4  AV68  1
    F68_4  PB4  1
    F68_5  COST  68.7235263101
    F68_5  AV68  1
    F68_5  PB5  1
    F68_7  COST  68.7235263101
    F68_7  AV68  1
    F68_7  PB7  1
    F68_9  COST  68.7235263101
    F68_9  AV68  1
    F68_9  PB9  1
    F68_12  COST  68.7235263101
    F68_12  AV68  1
    F68_12  PB12  1
    F68_16  COST  68.7235263101
    F68_16  AV68  1
    F68_16  PB16  1
    F68_19  COST  68.7235263101
    F68_19  AV68  1
    F68_19  PB19  1
    F68_26  COST  68.7235263101
    F68_26  AV68  1
    F68_26  PB26  1
    F68_28  COST  68.7235263101
    F68_28  AV68  1
    F68_28  PB28  1
    F68_29  COST  68.7235263101
    F68_29  AV68  1
    F68_29  PB29  1
    F69_0  COST  71.2808974263
    F69_0  AV69  1
    F69_0  PB0  1
    F69_4  COST  71.2808974263
    F69_4  AV69  1
    F69_4  PB4  1
    F69_8  COST  71.2808974263
    F69_8  AV69  1
    F69_8  PB8  1
    F69_10  COST  71.2808974263
    F69_10  AV69  1
    F69_10  PB10  1
    F69_11  COST  71.2808974263
    F69_11  AV69  1
    F69_11  PB11  1
    F69_14  COST  71.2808974263
    F69_14  AV69  1
    F69_14  PB14  1
    F69_22  COST  71.2808974263
    F69_22  AV69  1
    F69_22  PB22  1
    F69_23  COST  71.2808974263
    F69_23  AV69  1
    F69_23  PB23  1
    F69_27  COST  71.2808974263
    F69_27  AV69  1
    F69_27  PB27  1
    F69_28  COST  71.2808974263
    F69_28  AV69  1
    F69_28  PB28  1
    F70_1  COST  68.527704851
    F70_1  AV70  1
    F70_1  PB1  1
    F70_2  COST  68.527704851
    F70_2  AV70  1
    F70_2  PB2  1
    F70_5  COST  68.527704851
    F70_5  AV70  1
    F70_5  PB5  1
    F70_6  COST  68.527704851
    F70_6  AV70  1
    F70_6  PB6  1
    F70_8  COST  68.527704851
    F70_8  AV70  1
    F70_8  PB8  1
    F70_9  COST  68.527704851
    F70_9  AV70  1
    F70_9  PB9  1
    F70_12  COST  68.527704851
    F70_12  AV70  1
    F70_12  PB12  1
    F70_15  COST  68.527704851
    F70_15  AV70  1
    F70_15  PB15  1
    F70_17  COST  68.527704851
    F70_17  AV70  1
    F70_17  PB17  1
    F70_21  COST  68.527704851
    F70_21  AV70  1
    F70_21  PB21  1
    F70_27  COST  68.527704851
    F70_27  AV70  1
    F70_27  PB27  1
    F70_28  COST  68.527704851
    F70_28  AV70  1
    F70_28  PB28  1
    F70_29  COST  68.527704851
    F70_29  AV70  1
    F70_29  PB29  1
    F71_2  COST  73.7218572875
    F71_2  AV71  1
    F71_2  PB2  1
    F71_4  COST  73.7218572875
    F71_4  AV71  1
    F71_4  PB4  1
    F71_7  COST  73.7218572875
    F71_7  AV71  1
    F71_7  PB7  1
    F71_12  COST  73.7218572875
    F71_12  AV71  1
    F71_12  PB12  1
    F71_13  COST  73.7218572875
    F71_13  AV71  1
    F71_13  PB13  1
    F71_16  COST  73.7218572875
    F71_16  AV71  1
    F71_16  PB16  1
    F71_17  COST  73.7218572875
    F71_17  AV71  1
    F71_17  PB17  1
    F71_26  COST  73.7218572875
    F71_26  AV71  1
    F71_26  PB26  1
    F71_27  COST  73.7218572875
    F71_27  AV71  1
    F71_27  PB27  1
    F71_28  COST  73.7218572875
    F71_28  AV71  1
    F71_28  PB28  1
    F72_0  COST  88.2703904698
    F72_0  AV72  1
    F72_0  PB0  1
    F72_3  COST  88.2703904698
    F72_3  AV72  1
    F72_3  PB3  1
    F72_5  COST  88.2703904698
    F72_5  AV72  1
    F72_5  PB5  1
    F72_6  COST  88.2703904698
    F72_6  AV72  1
    F72_6  PB6  1
    F72_10  COST  88.2703904698
    F72_10  AV72  1
    F72_10  PB10  1
    F72_16  COST  88.2703904698
    F72_16  AV72  1
    F72_16  PB16  1
    F72_17  COST  88.2703904698
    F72_17  AV72  1
    F72_17  PB17  1
    F72_18  COST  88.2703904698
    F72_18  AV72  1
    F72_18  PB18  1
    F72_24  COST  88.2703904698
    F72_24  AV72  1
    F72_24  PB24  1
    F73_0  COST  67.731266472
    F73_0  AV73  1
    F73_0  PB0  1
    F73_1  COST  67.731266472
    F73_1  AV73  1
    F73_1  PB1  1
    F73_3  COST  67.731266472
    F73_3  AV73  1
    F73_3  PB3  1
    F73_7  COST  67.731266472
    F73_7  AV73  1
    F73_7  PB7  1
    F73_8  COST  67.731266472
    F73_8  AV73  1
    F73_8  PB8  1
    F73_10  COST  67.731266472
    F73_10  AV73  1
    F73_10  PB10  1
    F73_13  COST  67.731266472
    F73_13  AV73  1
    F73_13  PB13  1
    F73_21  COST  67.731266472
    F73_21  AV73  1
    F73_21  PB21  1
    F73_22  COST  67.731266472
    F73_22  AV73  1
    F73_22  PB22  1
    F73_29  COST  67.731266472
    F73_29  AV73  1
    F73_29  PB29  1
    F74_2  COST  60.8531223285
    F74_2  AV74  1
    F74_2  PB2  1
    F74_4  COST  60.8531223285
    F74_4  AV74  1
    F74_4  PB4  1
    F74_6  COST  60.8531223285
    F74_6  AV74  1
    F74_6  PB6  1
    F74_7  COST  60.8531223285
    F74_7  AV74  1
    F74_7  PB7  1
    F74_8  COST  60.8531223285
    F74_8  AV74  1
    F74_8  PB8  1
    F74_11  COST  60.8531223285
    F74_11  AV74  1
    F74_11  PB11  1
    F74_14  COST  60.8531223285
    F74_14  AV74  1
    F74_14  PB14  1
    F74_28  COST  60.8531223285
    F74_28  AV74  1
    F74_28  PB28  1
    F74_29  COST  60.8531223285
    F74_29  AV74  1
    F74_29  PB29  1
    F75_1  COST  54.1114986419
    F75_1  AV75  1
    F75_1  PB1  1
    F75_4  COST  54.1114986419
    F75_4  AV75  1
    F75_4  PB4  1
    F75_5  COST  54.1114986419
    F75_5  AV75  1
    F75_5  PB5  1
    F75_6  COST  54.1114986419
    F75_6  AV75  1
    F75_6  PB6  1
    F75_8  COST  54.1114986419
    F75_8  AV75  1
    F75_8  PB8  1
    F75_11  COST  54.1114986419
    F75_11  AV75  1
    F75_11  PB11  1
    F75_12  COST  54.1114986419
    F75_12  AV75  1
    F75_12  PB12  1
    F75_14  COST  54.1114986419
    F75_14  AV75  1
    F75_14  PB14  1
    F75_15  COST  54.1114986419
    F75_15  AV75  1
    F75_15  PB15  1
    F75_16  COST  54.1114986419
    F75_16  AV75  1
    F75_16  PB16  1
    F75_20  COST  54.1114986419
    F75_20  AV75  1
    F75_20  PB20  1
    F76_2  COST  56.876565335
    F76_2  AV76  1
    F76_2  PB2  1
    F76_3  COST  56.876565335
    F76_3  AV76  1
    F76_3  PB3  1
    F76_7  COST  56.876565335
    F76_7  AV76  1
    F76_7  PB7  1
    F76_8  COST  56.876565335
    F76_8  AV76  1
    F76_8  PB8  1
    F76_12  COST  56.876565335
    F76_12  AV76  1
    F76_12  PB12  1
    F76_17  COST  56.876565335
    F76_17  AV76  1
    F76_17  PB17  1
    F76_25  COST  56.876565335
    F76_25  AV76  1
    F76_25  PB25  1
    F76_28  COST  56.876565335
    F76_28  AV76  1
    F76_28  PB28  1
    F76_29  COST  56.876565335
    F76_29  AV76  1
    F76_29  PB29  1
    F77_2  COST  70.8443879347
    F77_2  AV77  1
    F77_2  PB2  1
    F77_9  COST  70.8443879347
    F77_9  AV77  1
    F77_9  PB9  1
    F77_10  COST  70.8443879347
    F77_10  AV77  1
    F77_10  PB10  1
    F77_11  COST  70.8443879347
    F77_11  AV77  1
    F77_11  PB11  1
    F77_13  COST  70.8443879347
    F77_13  AV77  1
    F77_13  PB13  1
    F77_14  COST  70.8443879347
    F77_14  AV77  1
    F77_14  PB14  1
    F77_16  COST  70.8443879347
    F77_16  AV77  1
    F77_16  PB16  1
    F77_17  COST  70.8443879347
    F77_17  AV77  1
    F77_17  PB17  1
    F77_18  COST  70.8443879347
    F77_18  AV77  1
    F77_18  PB18  1
    F77_19  COST  70.8443879347
    F77_19  AV77  1
    F77_19  PB19  1
    F77_20  COST  70.8443879347
    F77_20  AV77  1
    F77_20  PB20  1
    F77_21  COST  70.8443879347
    F77_21  AV77  1
    F77_21  PB21  1
    F77_22  COST  70.8443879347
    F77_22  AV77  1
    F77_22  PB22  1
    F77_27  COST  70.8443879347
    F77_27  AV77  1
    F77_27  PB27  1
    F77_28  COST  70.8443879347
    F77_28  AV77  1
    F77_28  PB28  1
    F78_1  COST  83.7454787642
    F78_1  AV78  1
    F78_1  PB1  1
    F78_3  COST  83.7454787642
    F78_3  AV78  1
    F78_3  PB3  1
    F78_6  COST  83.7454787642
    F78_6  AV78  1
    F78_6  PB6  1
    F78_8  COST  83.7454787642
    F78_8  AV78  1
    F78_8  PB8  1
    F78_11  COST  83.7454787642
    F78_11  AV78  1
    F78_11  PB11  1
    F78_12  COST  83.7454787642
    F78_12  AV78  1
    F78_12  PB12  1
    F78_13  COST  83.7454787642
    F78_13  AV78  1
    F78_13  PB13  1
    F78_16  COST  83.7454787642
    F78_16  AV78  1
    F78_16  PB16  1
    F78_18  COST  83.7454787642
    F78_18  AV78  1
    F78_18  PB18  1
    F78_19  COST  83.7454787642
    F78_19  AV78  1
    F78_19  PB19  1
    F78_21  COST  83.7454787642
    F78_21  AV78  1
    F78_21  PB21  1
    F78_25  COST  83.7454787642
    F78_25  AV78  1
    F78_25  PB25  1
    F78_27  COST  83.7454787642
    F78_27  AV78  1
    F78_27  PB27  1
    F78_28  COST  83.7454787642
    F78_28  AV78  1
    F78_28  PB28  1
    F78_29  COST  83.7454787642
    F78_29  AV78  1
    F78_29  PB29  1
    F79_0  COST  64.2616566463
    F79_0  AV79  1
    F79_0  PB0  1
    F79_4  COST  64.2616566463
    F79_4  AV79  1
    F79_4  PB4  1
    F79_10  COST  64.2616566463
    F79_10  AV79  1
    F79_10  PB10  1
    F79_17  COST  64.2616566463
    F79_17  AV79  1
    F79_17  PB17  1
    F79_18  COST  64.2616566463
    F79_18  AV79  1
    F79_18  PB18  1
    F79_19  COST  64.2616566463
    F79_19  AV79  1
    F79_19  PB19  1
    F79_21  COST  64.2616566463
    F79_21  AV79  1
    F79_21  PB21  1
    F79_23  COST  64.2616566463
    F79_23  AV79  1
    F79_23  PB23  1
    F79_24  COST  64.2616566463
    F79_24  AV79  1
    F79_24  PB24  1
    F79_26  COST  64.2616566463
    F79_26  AV79  1
    F79_26  PB26  1
    F79_27  COST  64.2616566463
    F79_27  AV79  1
    F79_27  PB27  1
    F80_0  COST  42.241928002
    F80_0  AV80  1
    F80_0  PB0  1
    F80_1  COST  42.241928002
    F80_1  AV80  1
    F80_1  PB1  1
    F80_2  COST  42.241928002
    F80_2  AV80  1
    F80_2  PB2  1
    F80_8  COST  42.241928002
    F80_8  AV80  1
    F80_8  PB8  1
    F80_10  COST  42.241928002
    F80_10  AV80  1
    F80_10  PB10  1
    F80_11  COST  42.241928002
    F80_11  AV80  1
    F80_11  PB11  1
    F80_16  COST  42.241928002
    F80_16  AV80  1
    F80_16  PB16  1
    F80_17  COST  42.241928002
    F80_17  AV80  1
    F80_17  PB17  1
    F80_21  COST  42.241928002
    F80_21  AV80  1
    F80_21  PB21  1
    F80_25  COST  42.241928002
    F80_25  AV80  1
    F80_25  PB25  1
    F80_26  COST  42.241928002
    F80_26  AV80  1
    F80_26  PB26  1
    F80_29  COST  42.241928002
    F80_29  AV80  1
    F80_29  PB29  1
    F81_1  COST  50.3484977059
    F81_1  AV81  1
    F81_1  PB1  1
    F81_4  COST  50.3484977059
    F81_4  AV81  1
    F81_4  PB4  1
    F81_8  COST  50.3484977059
    F81_8  AV81  1
    F81_8  PB8  1
    F81_9  COST  50.3484977059
    F81_9  AV81  1
    F81_9  PB9  1
    F81_13  COST  50.3484977059
    F81_13  AV81  1
    F81_13  PB13  1
    F81_14  COST  50.3484977059
    F81_14  AV81  1
    F81_14  PB14  1
    F81_17  COST  50.3484977059
    F81_17  AV81  1
    F81_17  PB17  1
    F81_24  COST  50.3484977059
    F81_24  AV81  1
    F81_24  PB24  1
    F81_25  COST  50.3484977059
    F81_25  AV81  1
    F81_25  PB25  1
    F81_27  COST  50.3484977059
    F81_27  AV81  1
    F81_27  PB27  1
    F81_28  COST  50.3484977059
    F81_28  AV81  1
    F81_28  PB28  1
    F82_2  COST  44.9858728384
    F82_2  AV82  1
    F82_2  PB2  1
    F82_3  COST  44.9858728384
    F82_3  AV82  1
    F82_3  PB3  1
    F82_4  COST  44.9858728384
    F82_4  AV82  1
    F82_4  PB4  1
    F82_5  COST  44.9858728384
    F82_5  AV82  1
    F82_5  PB5  1
    F82_7  COST  44.9858728384
    F82_7  AV82  1
    F82_7  PB7  1
    F82_8  COST  44.9858728384
    F82_8  AV82  1
    F82_8  PB8  1
    F82_13  COST  44.9858728384
    F82_13  AV82  1
    F82_13  PB13  1
    F82_14  COST  44.9858728384
    F82_14  AV82  1
    F82_14  PB14  1
    F82_22  COST  44.9858728384
    F82_22  AV82  1
    F82_22  PB22  1
    F82_24  COST  44.9858728384
    F82_24  AV82  1
    F82_24  PB24  1
    F82_28  COST  44.9858728384
    F82_28  AV82  1
    F82_28  PB28  1
    F83_0  COST  58.3338877716
    F83_0  AV83  1
    F83_0  PB0  1
    F83_3  COST  58.3338877716
    F83_3  AV83  1
    F83_3  PB3  1
    F83_6  COST  58.3338877716
    F83_6  AV83  1
    F83_6  PB6  1
    F83_11  COST  58.3338877716
    F83_11  AV83  1
    F83_11  PB11  1
    F83_12  COST  58.3338877716
    F83_12  AV83  1
    F83_12  PB12  1
    F83_16  COST  58.3338877716
    F83_16  AV83  1
    F83_16  PB16  1
    F83_17  COST  58.3338877716
    F83_17  AV83  1
    F83_17  PB17  1
    F83_20  COST  58.3338877716
    F83_20  AV83  1
    F83_20  PB20  1
    F83_21  COST  58.3338877716
    F83_21  AV83  1
    F83_21  PB21  1
    F83_27  COST  58.3338877716
    F83_27  AV83  1
    F83_27  PB27  1
    F84_5  COST  77.6407161939
    F84_5  AV84  1
    F84_5  PB5  1
    F84_11  COST  77.6407161939
    F84_11  AV84  1
    F84_11  PB11  1
    F84_12  COST  77.6407161939
    F84_12  AV84  1
    F84_12  PB12  1
    F84_14  COST  77.6407161939
    F84_14  AV84  1
    F84_14  PB14  1
    F84_16  COST  77.6407161939
    F84_16  AV84  1
    F84_16  PB16  1
    F84_20  COST  77.6407161939
    F84_20  AV84  1
    F84_20  PB20  1
    F84_24  COST  77.6407161939
    F84_24  AV84  1
    F84_24  PB24  1
    F85_5  COST  72.4893102548
    F85_5  AV85  1
    F85_5  PB5  1
    F85_9  COST  72.4893102548
    F85_9  AV85  1
    F85_9  PB9  1
    F85_10  COST  72.4893102548
    F85_10  AV85  1
    F85_10  PB10  1
    F85_14  COST  72.4893102548
    F85_14  AV85  1
    F85_14  PB14  1
    F85_16  COST  72.4893102548
    F85_16  AV85  1
    F85_16  PB16  1
    F85_17  COST  72.4893102548
    F85_17  AV85  1
    F85_17  PB17  1
    F85_18  COST  72.4893102548
    F85_18  AV85  1
    F85_18  PB18  1
    F85_20  COST  72.4893102548
    F85_20  AV85  1
    F85_20  PB20  1
    F85_23  COST  72.4893102548
    F85_23  AV85  1
    F85_23  PB23  1
    F85_25  COST  72.4893102548
    F85_25  AV85  1
    F85_25  PB25  1
    F85_29  COST  72.4893102548
    F85_29  AV85  1
    F85_29  PB29  1
    F86_4  COST  76.4170174477
    F86_4  AV86  1
    F86_4  PB4  1
    F86_6  COST  76.4170174477
    F86_6  AV86  1
    F86_6  PB6  1
    F86_7  COST  76.4170174477
    F86_7  AV86  1
    F86_7  PB7  1
    F86_10  COST  76.4170174477
    F86_10  AV86  1
    F86_10  PB10  1
    F86_11  COST  76.4170174477
    F86_11  AV86  1
    F86_11  PB11  1
    F86_14  COST  76.4170174477
    F86_14  AV86  1
    F86_14  PB14  1
    F86_22  COST  76.4170174477
    F86_22  AV86  1
    F86_22  PB22  1
    F86_26  COST  76.4170174477
    F86_26  AV86  1
    F86_26  PB26  1
    F86_27  COST  76.4170174477
    F86_27  AV86  1
    F86_27  PB27  1
    F86_28  COST  76.4170174477
    F86_28  AV86  1
    F86_28  PB28  1
    F87_0  COST  65.0027322006
    F87_0  AV87  1
    F87_0  PB0  1
    F87_1  COST  65.0027322006
    F87_1  AV87  1
    F87_1  PB1  1
    F87_2  COST  65.0027322006
    F87_2  AV87  1
    F87_2  PB2  1
    F87_5  COST  65.0027322006
    F87_5  AV87  1
    F87_5  PB5  1
    F87_6  COST  65.0027322006
    F87_6  AV87  1
    F87_6  PB6  1
    F87_9  COST  65.0027322006
    F87_9  AV87  1
    F87_9  PB9  1
    F87_11  COST  65.0027322006
    F87_11  AV87  1
    F87_11  PB11  1
    F87_13  COST  65.0027322006
    F87_13  AV87  1
    F87_13  PB13  1
    F87_18  COST  65.0027322006
    F87_18  AV87  1
    F87_18  PB18  1
    F87_21  COST  65.0027322006
    F87_21  AV87  1
    F87_21  PB21  1
    F87_24  COST  65.0027322006
    F87_24  AV87  1
    F87_24  PB24  1
    F87_25  COST  65.0027322006
    F87_25  AV87  1
    F87_25  PB25  1
    F87_27  COST  65.0027322006
    F87_27  AV87  1
    F87_27  PB27  1
    F87_29  COST  65.0027322006
    F87_29  AV87  1
    F87_29  PB29  1
    F88_1  COST  46.0379295323
    F88_1  AV88  1
    F88_1  PB1  1
    F88_2  COST  46.0379295323
    F88_2  AV88  1
    F88_2  PB2  1
    F88_5  COST  46.0379295323
    F88_5  AV88  1
    F88_5  PB5  1
    F88_6  COST  46.0379295323
    F88_6  AV88  1
    F88_6  PB6  1
    F88_9  COST  46.0379295323
    F88_9  AV88  1
    F88_9  PB9  1
    F88_11  COST  46.0379295323
    F88_11  AV88  1
    F88_11  PB11  1
    F88_15  COST  46.0379295323
    F88_15  AV88  1
    F88_15  PB15  1
    F88_24  COST  46.0379295323
    F88_24  AV88  1
    F88_24  PB24  1
    F88_25  COST  46.0379295323
    F88_25  AV88  1
    F88_25  PB25  1
    F88_27  COST  46.0379295323
    F88_27  AV88  1
    F88_27  PB27  1
    F89_1  COST  56.2940775272
    F89_1  AV89  1
    F89_1  PB1  1
    F89_5  COST  56.2940775272
    F89_5  AV89  1
    F89_5  PB5  1
    F89_15  COST  56.2940775272
    F89_15  AV89  1
    F89_15  PB15  1
    F89_18  COST  56.2940775272
    F89_18  AV89  1
    F89_18  PB18  1
    F89_20  COST  56.2940775272
    F89_20  AV89  1
    F89_20  PB20  1
    F90_0  COST  68.1028263407
    F90_0  AV90  1
    F90_0  PB0  1
    F90_1  COST  68.1028263407
    F90_1  AV90  1
    F90_1  PB1  1
    F90_2  COST  68.1028263407
    F90_2  AV90  1
    F90_2  PB2  1
    F90_3  COST  68.1028263407
    F90_3  AV90  1
    F90_3  PB3  1
    F90_8  COST  68.1028263407
    F90_8  AV90  1
    F90_8  PB8  1
    F90_10  COST  68.1028263407
    F90_10  AV90  1
    F90_10  PB10  1
    F90_12  COST  68.1028263407
    F90_12  AV90  1
    F90_12  PB12  1
    F90_13  COST  68.1028263407
    F90_13  AV90  1
    F90_13  PB13  1
    F90_14  COST  68.1028263407
    F90_14  AV90  1
    F90_14  PB14  1
    F90_18  COST  68.1028263407
    F90_18  AV90  1
    F90_18  PB18  1
    F90_19  COST  68.1028263407
    F90_19  AV90  1
    F90_19  PB19  1
    F90_26  COST  68.1028263407
    F90_26  AV90  1
    F90_26  PB26  1
    F90_27  COST  68.1028263407
    F90_27  AV90  1
    F90_27  PB27  1
    F90_28  COST  68.1028263407
    F90_28  AV90  1
    F90_28  PB28  1
    F91_0  COST  67.344073079
    F91_0  AV91  1
    F91_0  PB0  1
    F91_2  COST  67.344073079
    F91_2  AV91  1
    F91_2  PB2  1
    F91_4  COST  67.344073079
    F91_4  AV91  1
    F91_4  PB4  1
    F91_5  COST  67.344073079
    F91_5  AV91  1
    F91_5  PB5  1
    F91_6  COST  67.344073079
    F91_6  AV91  1
    F91_6  PB6  1
    F91_10  COST  67.344073079
    F91_10  AV91  1
    F91_10  PB10  1
    F91_14  COST  67.344073079
    F91_14  AV91  1
    F91_14  PB14  1
    F91_15  COST  67.344073079
    F91_15  AV91  1
    F91_15  PB15  1
    F91_21  COST  67.344073079
    F91_21  AV91  1
    F91_21  PB21  1
    F91_22  COST  67.344073079
    F91_22  AV91  1
    F91_22  PB22  1
    F91_26  COST  67.344073079
    F91_26  AV91  1
    F91_26  PB26  1
    F92_0  COST  53.4013763336
    F92_0  AV92  1
    F92_0  PB0  1
    F92_1  COST  53.4013763336
    F92_1  AV92  1
    F92_1  PB1  1
    F92_2  COST  53.4013763336
    F92_2  AV92  1
    F92_2  PB2  1
    F92_3  COST  53.4013763336
    F92_3  AV92  1
    F92_3  PB3  1
    F92_4  COST  53.4013763336
    F92_4  AV92  1
    F92_4  PB4  1
    F92_12  COST  53.4013763336
    F92_12  AV92  1
    F92_12  PB12  1
    F92_17  COST  53.4013763336
    F92_17  AV92  1
    F92_17  PB17  1
    F92_22  COST  53.4013763336
    F92_22  AV92  1
    F92_22  PB22  1
    F93_0  COST  85.3915856992
    F93_0  AV93  1
    F93_0  PB0  1
    F93_3  COST  85.3915856992
    F93_3  AV93  1
    F93_3  PB3  1
    F93_4  COST  85.3915856992
    F93_4  AV93  1
    F93_4  PB4  1
    F93_5  COST  85.3915856992
    F93_5  AV93  1
    F93_5  PB5  1
    F93_7  COST  85.3915856992
    F93_7  AV93  1
    F93_7  PB7  1
    F93_8  COST  85.3915856992
    F93_8  AV93  1
    F93_8  PB8  1
    F93_10  COST  85.3915856992
    F93_10  AV93  1
    F93_10  PB10  1
    F93_11  COST  85.3915856992
    F93_11  AV93  1
    F93_11  PB11  1
    F93_16  COST  85.3915856992
    F93_16  AV93  1
    F93_16  PB16  1
    F93_18  COST  85.3915856992
    F93_18  AV93  1
    F93_18  PB18  1
    F93_20  COST  85.3915856992
    F93_20  AV93  1
    F93_20  PB20  1
    F93_21  COST  85.3915856992
    F93_21  AV93  1
    F93_21  PB21  1
    F93_25  COST  85.3915856992
    F93_25  AV93  1
    F93_25  PB25  1
    F93_26  COST  85.3915856992
    F93_26  AV93  1
    F93_26  PB26  1
    F94_2  COST  63.8322334793
    F94_2  AV94  1
    F94_2  PB2  1
    F94_3  COST  63.8322334793
    F94_3  AV94  1
    F94_3  PB3  1
    F94_4  COST  63.8322334793
    F94_4  AV94  1
    F94_4  PB4  1
    F94_5  COST  63.8322334793
    F94_5  AV94  1
    F94_5  PB5  1
    F94_7  COST  63.8322334793
    F94_7  AV94  1
    F94_7  PB7  1
    F94_13  COST  63.8322334793
    F94_13  AV94  1
    F94_13  PB13  1
    F94_14  COST  63.8322334793
    F94_14  AV94  1
    F94_14  PB14  1
    F94_16  COST  63.8322334793
    F94_16  AV94  1
    F94_16  PB16  1
    F95_2  COST  86.5000868838
    F95_2  AV95  1
    F95_2  PB2  1
    F95_4  COST  86.5000868838
    F95_4  AV95  1
    F95_4  PB4  1
    F95_7  COST  86.5000868838
    F95_7  AV95  1
    F95_7  PB7  1
    F95_8  COST  86.5000868838
    F95_8  AV95  1
    F95_8  PB8  1
    F95_9  COST  86.5000868838
    F95_9  AV95  1
    F95_9  PB9  1
    F95_11  COST  86.5000868838
    F95_11  AV95  1
    F95_11  PB11  1
    F95_18  COST  86.5000868838
    F95_18  AV95  1
    F95_18  PB18  1
    F95_19  COST  86.5000868838
    F95_19  AV95  1
    F95_19  PB19  1
    F95_20  COST  86.5000868838
    F95_20  AV95  1
    F95_20  PB20  1
    F95_25  COST  86.5000868838
    F95_25  AV95  1
    F95_25  PB25  1
    F95_28  COST  86.5000868838
    F95_28  AV95  1
    F95_28  PB28  1
    F96_0  COST  54.6020946682
    F96_0  AV96  1
    F96_0  PB0  1
    F96_1  COST  54.6020946682
    F96_1  AV96  1
    F96_1  PB1  1
    F96_3  COST  54.6020946682
    F96_3  AV96  1
    F96_3  PB3  1
    F96_4  COST  54.6020946682
    F96_4  AV96  1
    F96_4  PB4  1
    F96_7  COST  54.6020946682
    F96_7  AV96  1
    F96_7  PB7  1
    F96_8  COST  54.6020946682
    F96_8  AV96  1
    F96_8  PB8  1
    F96_13  COST  54.6020946682
    F96_13  AV96  1
    F96_13  PB13  1
    F96_14  COST  54.6020946682
    F96_14  AV96  1
    F96_14  PB14  1
    F96_17  COST  54.6020946682
    F96_17  AV96  1
    F96_17  PB17  1
    F96_21  COST  54.6020946682
    F96_21  AV96  1
    F96_21  PB21  1
    F96_22  COST  54.6020946682
    F96_22  AV96  1
    F96_22  PB22  1
    F96_23  COST  54.6020946682
    F96_23  AV96  1
    F96_23  PB23  1
    F96_28  COST  54.6020946682
    F96_28  AV96  1
    F96_28  PB28  1
    F97_0  COST  91.806677223
    F97_0  AV97  1
    F97_0  PB0  1
    F97_1  COST  91.806677223
    F97_1  AV97  1
    F97_1  PB1  1
    F97_3  COST  91.806677223
    F97_3  AV97  1
    F97_3  PB3  1
    F97_5  COST  91.806677223
    F97_5  AV97  1
    F97_5  PB5  1
    F97_11  COST  91.806677223
    F97_11  AV97  1
    F97_11  PB11  1
    F97_13  COST  91.806677223
    F97_13  AV97  1
    F97_13  PB13  1
    F97_16  COST  91.806677223
    F97_16  AV97  1
    F97_16  PB16  1
    F97_17  COST  91.806677223
    F97_17  AV97  1
    F97_17  PB17  1
    F97_19  COST  91.806677223
    F97_19  AV97  1
    F97_19  PB19  1
    F97_21  COST  91.806677223
    F97_21  AV97  1
    F97_21  PB21  1
    F97_22  COST  91.806677223
    F97_22  AV97  1
    F97_22  PB22  1
    F97_23  COST  91.806677223
    F97_23  AV97  1
    F97_23  PB23  1
    F97_26  COST  91.806677223
    F97_26  AV97  1
    F97_26  PB26  1
    F97_28  COST  91.806677223
    F97_28  AV97  1
    F97_28  PB28  1
    F98_0  COST  46.1521540521
    F98_0  AV98  1
    F98_0  PB0  1
    F98_4  COST  46.1521540521
    F98_4  AV98  1
    F98_4  PB4  1
    F98_7  COST  46.1521540521
    F98_7  AV98  1
    F98_7  PB7  1
    F98_11  COST  46.1521540521
    F98_11  AV98  1
    F98_11  PB11  1
    F98_12  COST  46.1521540521
    F98_12  AV98  1
    F98_12  PB12  1
    F98_17  COST  46.1521540521
    F98_17  AV98  1
    F98_17  PB17  1
    F98_18  COST  46.1521540521
    F98_18  AV98  1
    F98_18  PB18  1
    F98_20  COST  46.1521540521
    F98_20  AV98  1
    F98_20  PB20  1
    F98_22  COST  46.1521540521
    F98_22  AV98  1
    F98_22  PB22  1
    F98_27  COST  46.1521540521
    F98_27  AV98  1
    F98_27  PB27  1
    F98_29  COST  46.1521540521
    F98_29  AV98  1
    F98_29  PB29  1
    F99_0  COST  82.3050369783
    F99_0  AV99  1
    F99_0  PB0  1
    F99_5  COST  82.3050369783
    F99_5  AV99  1
    F99_5  PB5  1
    F99_8  COST  82.3050369783
    F99_8  AV99  1
    F99_8  PB8  1
    F99_10  COST  82.3050369783
    F99_10  AV99  1
    F99_10  PB10  1
    F99_11  COST  82.3050369783
    F99_11  AV99  1
    F99_11  PB11  1
    F99_14  COST  82.3050369783
    F99_14  AV99  1
    F99_14  PB14  1
    F99_18  COST  82.3050369783
    F99_18  AV99  1
    F99_18  PB18  1
    F99_21  COST  82.3050369783
    F99_21  AV99  1
    F99_21  PB21  1
    F99_22  COST  82.3050369783
    F99_22  AV99  1
    F99_22  PB22  1
    F99_23  COST  82.3050369783
    F99_23  AV99  1
    F99_23  PB23  1
    F100_5  COST  41.1102549155
    F100_5  AV100  1
    F100_5  PB5  1
    F100_8  COST  41.1102549155
    F100_8  AV100  1
    F100_8  PB8  1
    F100_9  COST  41.1102549155
    F100_9  AV100  1
    F100_9  PB9  1
    F100_11  COST  41.1102549155
    F100_11  AV100  1
    F100_11  PB11  1
    F100_12  COST  41.1102549155
    F100_12  AV100  1
    F100_12  PB12  1
    F100_17  COST  41.1102549155
    F100_17  AV100  1
    F100_17  PB17  1
    F100_23  COST  41.1102549155
    F100_23  AV100  1
    F100_23  PB23  1
    F100_25  COST  41.1102549155
    F100_25  AV100  1
    F100_25  PB25  1
    F101_1  COST  52.9976364948
    F101_1  AV101  1
    F101_1  PB1  1
    F101_2  COST  52.9976364948
    F101_2  AV101  1
    F101_2  PB2  1
    F101_3  COST  52.9976364948
    F101_3  AV101  1
    F101_3  PB3  1
    F101_5  COST  52.9976364948
    F101_5  AV101  1
    F101_5  PB5  1
    F101_9  COST  52.9976364948
    F101_9  AV101  1
    F101_9  PB9  1
    F101_10  COST  52.9976364948
    F101_10  AV101  1
    F101_10  PB10  1
    F101_11  COST  52.9976364948
    F101_11  AV101  1
    F101_11  PB11  1
    F101_12  COST  52.9976364948
    F101_12  AV101  1
    F101_12  PB12  1
    F101_13  COST  52.9976364948
    F101_13  AV101  1
    F101_13  PB13  1
    F101_14  COST  52.9976364948
    F101_14  AV101  1
    F101_14  PB14  1
    F101_19  COST  52.9976364948
    F101_19  AV101  1
    F101_19  PB19  1
    F101_20  COST  52.9976364948
    F101_20  AV101  1
    F101_20  PB20  1
    F101_22  COST  52.9976364948
    F101_22  AV101  1
    F101_22  PB22  1
    F101_23  COST  52.9976364948
    F101_23  AV101  1
    F101_23  PB23  1
    F101_26  COST  52.9976364948
    F101_26  AV101  1
    F101_26  PB26  1
    F101_29  COST  52.9976364948
    F101_29  AV101  1
    F101_29  PB29  1
    F102_2  COST  87.8804317371
    F102_2  AV102  1
    F102_2  PB2  1
    F102_7  COST  87.8804317371
    F102_7  AV102  1
    F102_7  PB7  1
    F102_17  COST  87.8804317371
    F102_17  AV102  1
    F102_17  PB17  1
    F102_18  COST  87.8804317371
    F102_18  AV102  1
    F102_18  PB18  1
    F102_21  COST  87.8804317371
    F102_21  AV102  1
    F102_21  PB21  1
    F102_26  COST  87.8804317371
    F102_26  AV102  1
    F102_26  PB26  1
    F103_3  COST  59.2557749896
    F103_3  AV103  1
    F103_3  PB3  1
    F103_6  COST  59.2557749896
    F103_6  AV103  1
    F103_6  PB6  1
    F103_7  COST  59.2557749896
    F103_7  AV103  1
    F103_7  PB7  1
    F103_9  COST  59.2557749896
    F103_9  AV103  1
    F103_9  PB9  1
    F103_10  COST  59.2557749896
    F103_10  AV103  1
    F103_10  PB10  1
    F103_11  COST  59.2557749896
    F103_11  AV103  1
    F103_11  PB11  1
    F103_12  COST  59.2557749896
    F103_12  AV103  1
    F103_12  PB12  1
    F103_15  COST  59.2557749896
    F103_15  AV103  1
    F103_15  PB15  1
    F103_21  COST  59.2557749896
    F103_21  AV103  1
    F103_21  PB21  1
    F103_24  COST  59.2557749896
    F103_24  AV103  1
    F103_24  PB24  1
    F103_26  COST  59.2557749896
    F103_26  AV103  1
    F103_26  PB26  1
    F103_28  COST  59.2557749896
    F103_28  AV103  1
    F103_28  PB28  1
    F103_29  COST  59.2557749896
    F103_29  AV103  1
    F103_29  PB29  1
    F104_1  COST  91.2863721182
    F104_1  AV104  1
    F104_1  PB1  1
    F104_2  COST  91.2863721182
    F104_2  AV104  1
    F104_2  PB2  1
    F104_3  COST  91.2863721182
    F104_3  AV104  1
    F104_3  PB3  1
    F104_4  COST  91.2863721182
    F104_4  AV104  1
    F104_4  PB4  1
    F104_13  COST  91.2863721182
    F104_13  AV104  1
    F104_13  PB13  1
    F104_17  COST  91.2863721182
    F104_17  AV104  1
    F104_17  PB17  1
    F104_19  COST  91.2863721182
    F104_19  AV104  1
    F104_19  PB19  1
    F104_20  COST  91.2863721182
    F104_20  AV104  1
    F104_20  PB20  1
    F104_21  COST  91.2863721182
    F104_21  AV104  1
    F104_21  PB21  1
    F104_24  COST  91.2863721182
    F104_24  AV104  1
    F104_24  PB24  1
    F104_25  COST  91.2863721182
    F104_25  AV104  1
    F104_25  PB25  1
    F104_26  COST  91.2863721182
    F104_26  AV104  1
    F104_26  PB26  1
    F105_0  COST  91.1179350343
    F105_0  AV105  1
    F105_0  PB0  1
    F105_1  COST  91.1179350343
    F105_1  AV105  1
    F105_1  PB1  1
    F105_2  COST  91.1179350343
    F105_2  AV105  1
    F105_2  PB2  1
    F105_9  COST  91.1179350343
    F105_9  AV105  1
    F105_9  PB9  1
    F105_15  COST  91.1179350343
    F105_15  AV105  1
    F105_15  PB15  1
    F105_21  COST  91.1179350343
    F105_21  AV105  1
    F105_21  PB21  1
    F105_23  COST  91.1179350343
    F105_23  AV105  1
    F105_23  PB23  1
    F106_0  COST  84.0105917291
    F106_0  AV106  1
    F106_0  PB0  1
    F106_4  COST  84.0105917291
    F106_4  AV106  1
    F106_4  PB4  1
    F106_8  COST  84.0105917291
    F106_8  AV106  1
    F106_8  PB8  1
    F106_13  COST  84.0105917291
    F106_13  AV106  1
    F106_13  PB13  1
    F106_14  COST  84.0105917291
    F106_14  AV106  1
    F106_14  PB14  1
    F106_16  COST  84.0105917291
    F106_16  AV106  1
    F106_16  PB16  1
    F106_23  COST  84.0105917291
    F106_23  AV106  1
    F106_23  PB23  1
    F106_26  COST  84.0105917291
    F106_26  AV106  1
    F106_26  PB26  1
    F107_0  COST  61.7857997074
    F107_0  AV107  1
    F107_0  PB0  1
    F107_4  COST  61.7857997074
    F107_4  AV107  1
    F107_4  PB4  1
    F107_6  COST  61.7857997074
    F107_6  AV107  1
    F107_6  PB6  1
    F107_7  COST  61.7857997074
    F107_7  AV107  1
    F107_7  PB7  1
    F107_10  COST  61.7857997074
    F107_10  AV107  1
    F107_10  PB10  1
    F107_20  COST  61.7857997074
    F107_20  AV107  1
    F107_20  PB20  1
    F107_21  COST  61.7857997074
    F107_21  AV107  1
    F107_21  PB21  1
    F107_26  COST  61.7857997074
    F107_26  AV107  1
    F107_26  PB26  1
    F107_28  COST  61.7857997074
    F107_28  AV107  1
    F107_28  PB28  1
    F108_3  COST  87.204767689
    F108_3  AV108  1
    F108_3  PB3  1
    F108_8  COST  87.204767689
    F108_8  AV108  1
    F108_8  PB8  1
    F108_9  COST  87.204767689
    F108_9  AV108  1
    F108_9  PB9  1
    F108_11  COST  87.204767689
    F108_11  AV108  1
    F108_11  PB11  1
    F108_19  COST  87.204767689
    F108_19  AV108  1
    F108_19  PB19  1
    F108_20  COST  87.204767689
    F108_20  AV108  1
    F108_20  PB20  1
    F108_25  COST  87.204767689
    F108_25  AV108  1
    F108_25  PB25  1
    F108_29  COST  87.204767689
    F108_29  AV108  1
    F108_29  PB29  1
    F109_0  COST  65.1407385311
    F109_0  AV109  1
    F109_0  PB0  1
    F109_1  COST  65.1407385311
    F109_1  AV109  1
    F109_1  PB1  1
    F109_5  COST  65.1407385311
    F109_5  AV109  1
    F109_5  PB5  1
    F109_8  COST  65.1407385311
    F109_8  AV109  1
    F109_8  PB8  1
    F109_11  COST  65.1407385311
    F109_11  AV109  1
    F109_11  PB11  1
    F109_16  COST  65.1407385311
    F109_16  AV109  1
    F109_16  PB16  1
    F109_18  COST  65.1407385311
    F109_18  AV109  1
    F109_18  PB18  1
    F109_21  COST  65.1407385311
    F109_21  AV109  1
    F109_21  PB21  1
    F109_23  COST  65.1407385311
    F109_23  AV109  1
    F109_23  PB23  1
    F109_25  COST  65.1407385311
    F109_25  AV109  1
    F109_25  PB25  1
    F109_27  COST  65.1407385311
    F109_27  AV109  1
    F109_27  PB27  1
    F109_29  COST  65.1407385311
    F109_29  AV109  1
    F109_29  PB29  1
    F110_0  COST  46.9394707297
    F110_0  AV110  1
    F110_0  PB0  1
    F110_1  COST  46.9394707297
    F110_1  AV110  1
    F110_1  PB1  1
    F110_2  COST  46.9394707297
    F110_2  AV110  1
    F110_2  PB2  1
    F110_3  COST  46.9394707297
    F110_3  AV110  1
    F110_3  PB3  1
    F110_4  COST  46.9394707297
    F110_4  AV110  1
    F110_4  PB4  1
    F110_5  COST  46.9394707297
    F110_5  AV110  1
    F110_5  PB5  1
    F110_8  COST  46.9394707297
    F110_8  AV110  1
    F110_8  PB8  1
    F110_10  COST  46.9394707297
    F110_10  AV110  1
    F110_10  PB10  1
    F110_15  COST  46.9394707297
    F110_15  AV110  1
    F110_15  PB15  1
    F110_18  COST  46.9394707297
    F110_18  AV110  1
    F110_18  PB18  1
    F110_19  COST  46.9394707297
    F110_19  AV110  1
    F110_19  PB19  1
    F110_22  COST  46.9394707297
    F110_22  AV110  1
    F110_22  PB22  1
    F110_23  COST  46.9394707297
    F110_23  AV110  1
    F110_23  PB23  1
    F110_28  COST  46.9394707297
    F110_28  AV110  1
    F110_28  PB28  1
    F110_29  COST  46.9394707297
    F110_29  AV110  1
    F110_29  PB29  1
    F111_4  COST  86.8577102906
    F111_4  AV111  1
    F111_4  PB4  1
    F111_7  COST  86.8577102906
    F111_7  AV111  1
    F111_7  PB7  1
    F111_8  COST  86.8577102906
    F111_8  AV111  1
    F111_8  PB8  1
    F111_9  COST  86.8577102906
    F111_9  AV111  1
    F111_9  PB9  1
    F111_10  COST  86.8577102906
    F111_10  AV111  1
    F111_10  PB10  1
    F111_12  COST  86.8577102906
    F111_12  AV111  1
    F111_12  PB12  1
    F111_15  COST  86.8577102906
    F111_15  AV111  1
    F111_15  PB15  1
    F111_17  COST  86.8577102906
    F111_17  AV111  1
    F111_17  PB17  1
    F111_22  COST  86.8577102906
    F111_22  AV111  1
    F111_22  PB22  1
    F111_23  COST  86.8577102906
    F111_23  AV111  1
    F111_23  PB23  1
    F111_28  COST  86.8577102906
    F111_28  AV111  1
    F111_28  PB28  1
    F111_29  COST  86.8577102906
    F111_29  AV111  1
    F111_29  PB29  1
    F112_5  COST  84.8935687432
    F112_5  AV112  1
    F112_5  PB5  1
    F112_6  COST  84.8935687432
    F112_6  AV112  1
    F112_6  PB6  1
    F112_8  COST  84.8935687432
    F112_8  AV112  1
    F112_8  PB8  1
    F112_11  COST  84.8935687432
    F112_11  AV112  1
    F112_11  PB11  1
    F112_14  COST  84.8935687432
    F112_14  AV112  1
    F112_14  PB14  1
    F112_19  COST  84.8935687432
    F112_19  AV112  1
    F112_19  PB19  1
    F112_21  COST  84.8935687432
    F112_21  AV112  1
    F112_21  PB21  1
    F112_22  COST  84.8935687432
    F112_22  AV112  1
    F112_22  PB22  1
    F112_26  COST  84.8935687432
    F112_26  AV112  1
    F112_26  PB26  1
    F112_27  COST  84.8935687432
    F112_27  AV112  1
    F112_27  PB27  1
    F112_29  COST  84.8935687432
    F112_29  AV112  1
    F112_29  PB29  1
    F113_0  COST  47.4560992249
    F113_0  AV113  1
    F113_0  PB0  1
    F113_1  COST  47.4560992249
    F113_1  AV113  1
    F113_1  PB1  1
    F113_3  COST  47.4560992249
    F113_3  AV113  1
    F113_3  PB3  1
    F113_5  COST  47.4560992249
    F113_5  AV113  1
    F113_5  PB5  1
    F113_8  COST  47.4560992249
    F113_8  AV113  1
    F113_8  PB8  1
    F113_11  COST  47.4560992249
    F113_11  AV113  1
    F113_11  PB11  1
    F113_12  COST  47.4560992249
    F113_12  AV113  1
    F113_12  PB12  1
    F113_13  COST  47.4560992249
    F113_13  AV113  1
    F113_13  PB13  1
    F113_14  COST  47.4560992249
    F113_14  AV113  1
    F113_14  PB14  1
    F113_16  COST  47.4560992249
    F113_16  AV113  1
    F113_16  PB16  1
    F113_18  COST  47.4560992249
    F113_18  AV113  1
    F113_18  PB18  1
    F113_19  COST  47.4560992249
    F113_19  AV113  1
    F113_19  PB19  1
    F113_23  COST  47.4560992249
    F113_23  AV113  1
    F113_23  PB23  1
    F113_24  COST  47.4560992249
    F113_24  AV113  1
    F113_24  PB24  1
    F113_25  COST  47.4560992249
    F113_25  AV113  1
    F113_25  PB25  1
    F113_29  COST  47.4560992249
    F113_29  AV113  1
    F113_29  PB29  1
    F114_5  COST  87.6589584338
    F114_5  AV114  1
    F114_5  PB5  1
    F114_10  COST  87.6589584338
    F114_10  AV114  1
    F114_10  PB10  1
    F114_11  COST  87.6589584338
    F114_11  AV114  1
    F114_11  PB11  1
    F114_12  COST  87.6589584338
    F114_12  AV114  1
    F114_12  PB12  1
    F114_23  COST  87.6589584338
    F114_23  AV114  1
    F114_23  PB23  1
    F114_25  COST  87.6589584338
    F114_25  AV114  1
    F114_25  PB25  1
    F114_27  COST  87.6589584338
    F114_27  AV114  1
    F114_27  PB27  1
    F115_0  COST  68.5429679207
    F115_0  AV115  1
    F115_0  PB0  1
    F115_5  COST  68.5429679207
    F115_5  AV115  1
    F115_5  PB5  1
    F115_9  COST  68.5429679207
    F115_9  AV115  1
    F115_9  PB9  1
    F115_11  COST  68.5429679207
    F115_11  AV115  1
    F115_11  PB11  1
    F115_13  COST  68.5429679207
    F115_13  AV115  1
    F115_13  PB13  1
    F115_19  COST  68.5429679207
    F115_19  AV115  1
    F115_19  PB19  1
    F115_21  COST  68.5429679207
    F115_21  AV115  1
    F115_21  PB21  1
    F115_22  COST  68.5429679207
    F115_22  AV115  1
    F115_22  PB22  1
    F115_26  COST  68.5429679207
    F115_26  AV115  1
    F115_26  PB26  1
    F115_29  COST  68.5429679207
    F115_29  AV115  1
    F115_29  PB29  1
    F116_1  COST  80.8974917182
    F116_1  AV116  1
    F116_1  PB1  1
    F116_2  COST  80.8974917182
    F116_2  AV116  1
    F116_2  PB2  1
    F116_9  COST  80.8974917182
    F116_9  AV116  1
    F116_9  PB9  1
    F116_12  COST  80.8974917182
    F116_12  AV116  1
    F116_12  PB12  1
    F116_15  COST  80.8974917182
    F116_15  AV116  1
    F116_15  PB15  1
    F116_26  COST  80.8974917182
    F116_26  AV116  1
    F116_26  PB26  1
    F116_27  COST  80.8974917182
    F116_27  AV116  1
    F116_27  PB27  1
    F116_28  COST  80.8974917182
    F116_28  AV116  1
    F116_28  PB28  1
    F116_29  COST  80.8974917182
    F116_29  AV116  1
    F116_29  PB29  1
    F117_0  COST  54.749681144
    F117_0  AV117  1
    F117_0  PB0  1
    F117_3  COST  54.749681144
    F117_3  AV117  1
    F117_3  PB3  1
    F117_4  COST  54.749681144
    F117_4  AV117  1
    F117_4  PB4  1
    F117_16  COST  54.749681144
    F117_16  AV117  1
    F117_16  PB16  1
    F117_17  COST  54.749681144
    F117_17  AV117  1
    F117_17  PB17  1
    F117_18  COST  54.749681144
    F117_18  AV117  1
    F117_18  PB18  1
    F117_19  COST  54.749681144
    F117_19  AV117  1
    F117_19  PB19  1
    F117_21  COST  54.749681144
    F117_21  AV117  1
    F117_21  PB21  1
    F117_27  COST  54.749681144
    F117_27  AV117  1
    F117_27  PB27  1
    F117_28  COST  54.749681144
    F117_28  AV117  1
    F117_28  PB28  1
    F118_2  COST  51.8503816102
    F118_2  AV118  1
    F118_2  PB2  1
    F118_8  COST  51.8503816102
    F118_8  AV118  1
    F118_8  PB8  1
    F118_10  COST  51.8503816102
    F118_10  AV118  1
    F118_10  PB10  1
    F118_11  COST  51.8503816102
    F118_11  AV118  1
    F118_11  PB11  1
    F118_13  COST  51.8503816102
    F118_13  AV118  1
    F118_13  PB13  1
    F118_14  COST  51.8503816102
    F118_14  AV118  1
    F118_14  PB14  1
    F118_18  COST  51.8503816102
    F118_18  AV118  1
    F118_18  PB18  1
    F118_22  COST  51.8503816102
    F118_22  AV118  1
    F118_22  PB22  1
    F118_24  COST  51.8503816102
    F118_24  AV118  1
    F118_24  PB24  1
    F118_27  COST  51.8503816102
    F118_27  AV118  1
    F118_27  PB27  1
    F119_2  COST  86.6572048199
    F119_2  AV119  1
    F119_2  PB2  1
    F119_12  COST  86.6572048199
    F119_12  AV119  1
    F119_12  PB12  1
    F119_13  COST  86.6572048199
    F119_13  AV119  1
    F119_13  PB13  1
    F119_15  COST  86.6572048199
    F119_15  AV119  1
    F119_15  PB15  1
    F119_18  COST  86.6572048199
    F119_18  AV119  1
    F119_18  PB18  1
    F119_21  COST  86.6572048199
    F119_21  AV119  1
    F119_21  PB21  1
    F119_22  COST  86.6572048199
    F119_22  AV119  1
    F119_22  PB22  1
    F119_23  COST  86.6572048199
    F119_23  AV119  1
    F119_23  PB23  1
    F119_27  COST  86.6572048199
    F119_27  AV119  1
    F119_27  PB27  1
    G0_4  COST  -137.510572437
    G0_4  PB0  -1
    G0_4  DM4  1
    G0_4  Q4_0  -0.0282860530487
    G0_4  Q4_1  0.00229400143499
    G0_4  Q4_2  -0.0329480699528
    G0_4  Q4_3  -0.100423218222
    G0_4  Q4_4  -0.194893901037
    G0_4  Q4_5  -0.0499003272241
    G0_4  Q4_6  -0.011260973177
    G0_4  Q4_7  -0.0218708088003
    G0_5  COST  -131.682337746
    G0_5  PB0  -1
    G0_5  DM5  1
    G0_5  Q5_0  -0.0513120853059
    G0_5  Q5_1  -0.0116680692489
    G0_5  Q5_2  0.00255671649433
    G0_5  Q5_3  -0.0751531737279
    G0_5  Q5_4  -0.175686394043
    G0_5  Q5_5  -0.0532866538259
    G0_5  Q5_6  0.00141554880036
    G0_5  Q5_7  -0.0175003070228
    G0_8  COST  -106.767755964
    G0_8  PB0  -1
    G0_8  DM8  1
    G0_8  Q8_0  -0.0560359108167
    G0_8  Q8_1  -0.000777871283257
    G0_8  Q8_2  0.0137568511158
    G0_8  Q8_3  -0.103079020713
    G0_8  Q8_4  -0.188867135434
    G0_8  Q8_5  -0.0558215662426
    G0_8  Q8_6  -0.00125121924189
    G0_8  Q8_7  0.0270594281835
    G0_9  COST  -102.291948084
    G0_9  PB0  -1
    G0_9  DM9  1
    G0_9  Q9_0  -0.0437218927829
    G0_9  Q9_1  -0.0201250715321
    G0_9  Q9_2  -0.00235052648664
    G0_9  Q9_3  -0.0904654825581
    G0_9  Q9_4  -0.190192398255
    G0_9  Q9_5  -0.0484360325373
    G0_9  Q9_6  0.0143298945204
    G0_9  Q9_7  0.0321944838878
    G0_10  COST  -119.377262621
    G0_10  PB0  -1
    G0_10  DM10  1
    G0_10  Q10_0  -0.0554757874212
    G0_10  Q10_1  -0.0320097242375
    G0_10  Q10_2  -0.00117526324332
    G0_10  Q10_3  -0.0990112543901
    G0_10  Q10_4  -0.188867135434
    G0_10  Q10_5  -0.020182668741
    G0_10  Q10_6  0.0121007108455
    G0_10  Q10_7  -0.000809467974693
    G0_11  COST  -112.2567622
    G0_11  PB0  -1
    G0_11  DM11  1
    G0_11  Q11_0  -0.0409991972489
    G0_11  Q11_1  -0.038948189813
    G0_11  Q11_2  -0.011872643783
    G0_11  Q11_3  -0.0862464922158
    G0_11  Q11_4  -0.193288523207
    G0_11  Q11_5  -0.0143998175432
    G0_11  Q11_6  -0.0298225508061
    G0_11  Q11_7  0.0341046521641
    G0_14  COST  -130.595506027
    G0_14  PB0  -1
    G0_14  DM14  1
    G0_14  Q14_0  -0.0391955997319
    G0_14  Q14_1  -0.0171072895939
    G0_14  Q14_2  0.0619524971568
    G0_14  Q14_3  -0.084864986223
    G0_14  Q14_4  -0.187468409891
    G0_14  Q14_5  -0.0413016603727
    G0_14  Q14_6  -0.0131098902801
    G0_14  Q14_7  0.0406291180761
    G0_15  COST  -101.192354289
    G0_15  PB0  -1
    G0_15  DM15  1
    G0_15  Q15_0  -0.0374534552791
    G0_15  Q15_1  -0.0695625932247
    G0_15  Q15_2  0.0113576046375
    G0_15  Q15_3  -0.085576900631
    G0_15  Q15_4  -0.123433581163
    G0_15  Q15_5  -0.0427355326089
    G0_15  Q15_6  0.00647171663116
    G0_15  Q15_7  -0.0129514875951
    G0_17  COST  -128.893635511
    G0_17  PB0  -1
    G0_17  DM17  1
    G0_17  Q17_0  -0.028716527477
    G0_17  Q17_1  -0.0191464043578
    G0_17  Q17_2  -0.00791509585534
    G0_17  Q17_3  -0.0467413643769
    G0_17  Q17_4  -0.188778743468
    G0_17  Q17_5  -0.0566431281761
    G0_17  Q17_6  -0.0251704806222
    G0_17  Q17_7  -0.0163641524977
    G0_20  COST  -165.470681874
    G0_20  PB0  -1
    G0_20  DM20  1
    G0_20  Q20_0  -0.051883802993
    G0_20  Q20_1  -0.0267923320528
    G0_20  Q20_2  -0.0199794751364
    G0_20  Q20_3  -0.101835182054
    G0_20  Q20_4  -0.17861497072
    G0_20  Q20_5  -0.0434524687271
    G0_20  Q20_6  0.000849329280215
    G0_20  Q20_7  -0.0226766769417
    G0_23  COST  -170.438674511
    G0_23  PB0  -1
    G0_23  DM23  1
    G0_23  Q23_0  -0.0370468257592
    G0_23  Q23_1  0.00799419062156
    G0_23  Q23_2  -0.0222446380848
    G0_23  Q23_3  -0.0939890548495
    G0_23  Q23_4  -0.18686435283
    G0_23  Q23_5  -0.0384339159001
    G0_23  Q23_6  0.0147061490532
    G0_23  Q23_7  -0.0133392217304
    G0_26  COST  -149.011681845
    G0_26  PB0  -1
    G0_26  DM26  1
    G0_26  Q26_0  -0.0301345100189
    G0_26  Q26_1  -0.0236402929877
    G0_26  Q26_2  -0.0333669571272
    G0_26  Q26_3  -0.0882804900389
    G0_26  Q26_4  -0.203019386234
    G0_26  Q26_5  -0.0187137767926
    G0_26  Q26_6  -0.0406478649645
    G0_26  Q26_7  0.0299257608729
    G0_35  COST  -153.515246559
    G0_35  PB0  -1
    G0_35  DM35  1
    G0_35  Q35_0  -0.0345641730532
    G0_35  Q35_1  -0.0271857351525
    G0_35  Q35_2  0.00868853754683
    G0_35  Q35_3  -0.1287754745
    G0_35  Q35_4  -0.192315615086
    G0_35  Q35_5  -0.0605065881518
    G0_35  Q35_6  0.0193450978885
    G0_35  Q35_7  -0.0168885315093
    G0_36  COST  -109.496117872
    G0_36  PB0  -1
    G0_36  DM36  1
    G0_36  Q36_0  -0.0466134305897
    G0_36  Q36_1  -0.0354350593475
    G0_36  Q36_2  -0.0583539491231
    G0_36  Q36_3  -0.0931673859346
    G0_36  Q36_4  -0.193833935386
    G0_36  Q36_5  -0.0237467774152
    G0_36  Q36_6  -0.00749136587435
    G0_36  Q36_7  -0.00647574379754
    G0_37  COST  -153.298206262
    G0_37  PB0  -1
    G0_37  DM37  1
    G0_37  Q37_0  -0.0374534552791
    G0_37  Q37_1  0.000834182339995
    G0_37  Q37_2  0.020312236572
    G0_37  Q37_3  -0.0950441242023
    G0_37  Q37_4  -0.18160164667
    G0_37  Q37_5  -0.0149202636252
    G0_37  Q37_6  0.01315871991
    G0_37  Q37_7  0.0303206612894
    G0_38  COST  -168.206235695
    G0_38  PB0  -1
    G0_38  DM38  1
    G0_38  Q38_0  -0.0402988302966
    G0_38  Q38_1  0.0118952397136
    G0_38  Q38_2  0.014055492918
    G0_38  Q38_3  -0.0808077619093
    G0_38  Q38_4  -0.188778743468
    G0_38  Q38_5  -0.0216304116025
    G0_38  Q38_6  -0.00187284146859
    G0_38  Q38_7  0.0353064034656
    G0_39  COST  -148.23927624
    G0_39  PB0  -1
    G0_39  DM39  1
    G0_39  Q39_0  -0.05610762381
    G0_39  Q39_1  -0.0171537221637
    G0_39  Q39_2  -0.0820999925416
    G0_39  Q39_3  -0.0906866904043
    G0_39  Q39_4  -0.209422974436
    G0_39  Q39_5  -0.0199878887635
    G0_39  Q39_6  0.00509597568129
    G0_39  Q39_7  0.030826995884
    G1_0  COST  -152.34227309
    G1_0  PB1  -1
    G1_0  DM0  1
    G1_0  Q0_0  0.0186836235497
    G1_0  Q0_1  -0.0309024128547
    G1_0  Q0_2  -0.0665825936271
    G1_0  Q0_3  -0.0722283722099
    G1_0  Q0_4  -0.0593362899624
    G1_0  Q0_5  -0.010037105654
    G1_0  Q0_6  -0.0170734269211
    G1_0  Q0_7  -0.189940077999
    G1_2  COST  -159.268847256
    G1_2  PB1  -1
    G1_2  DM2  1
    G1_2  Q2_0  0.0268340392537
    G1_2  Q2_1  -0.0315666402528
    G1_2  Q2_2  -0.0281588085006
    G1_2  Q2_3  -0.0601761108516
    G1_2  Q2_4  -0.0721283827257
    G1_2  Q2_5  -0.0332577664982
    G1_2  Q2_6  -0.0287977889937
    G1_2  Q2_7  -0.154409668867
    G1_4  COST  -137.510572437
    G1_4  PB1  -1
    G1_4  DM4  1
    G1_4  Q4_0  0.0450842582596
    G1_4  Q4_1  -0.00187691026499
    G1_4  Q4_2  -0.0897360931402
    G1_4  Q4_3  -0.0766505180088
    G1_4  Q4_4  -0.0795538738718
    G1_4  Q4_5  -0.0186357725054
    G1_4  Q4_6  -0.0169231683785
    G1_4  Q4_7  -0.194397976278
    G1_5  COST  -131.682337746
    G1_5  PB1  -1
    G1_5  DM5  1
    G1_5  Q5_0  0.0220582260024
    G1_5  Q5_1  -0.0158389809488
    G1_5  Q5_2  -0.0542313066931
    G1_5  Q5_3  -0.051380473515
    G1_5  Q5_4  -0.060346366877
    G1_5  Q5_5  -0.0220220991072
    G1_5  Q5_6  -0.00424664640107
    G1_5  Q5_7  -0.190027474501
    G1_6  COST  -103.656002187
    G1_6  PB1  -1
    G1_6  DM6  1
    G1_6  Q6_0  0.0336375180832
    G1_6  Q6_1  0.00226150532879
    G1_6  Q6_2  -0.0454976497266
    G1_6  Q6_3  -0.0569943620476
    G1_6  Q6_4  -0.0760663282051
    G1_6  Q6_5  -0.0123189212922
    G1_6  Q6_6  0.00229526072337
    G1_6  Q6_7  -0.182561414618
    G1_8  COST  -106.767755964
    G1_8  PB1  -1
    G1_8  DM8  1
    G1_8  Q8_0  0.0173344004917
    G1_8  Q8_1  -0.00494878298323
    G1_8  Q8_2  -0.0430311720716
    G1_8  Q8_3  -0.0793063204997
    G1_8  Q8_4  -0.0735271082683
    G1_8  Q8_5  -0.0245570115239
    G1_8  Q8_6  -0.00691341444332
    G1_8  Q8_7  -0.145467739295
    G1_9  COST  -102.291948084
    G1_9  PB1  -1
    G1_9  DM9  1
    G1_9  Q9_0  0.0296484185254
    G1_9  Q9_1  -0.0242959832321
    G1_9  Q9_2  -0.0591385496741
    G1_9  Q9_3  -0.0666927823451
    G1_9  Q9_4  -0.0748523710897
    G1_9  Q9_5  -0.0171714778187
    G1_9  Q9_6  0.00866769931901
    G1_9  Q9_7  -0.14033268359
    G1_11  COST  -112.2567622
    G1_11  PB1  -1
    G1_11  DM11  1
    G1_11  Q11_0  0.0323711140595
    G1_11  Q11_1  -0.043119101513
    G1_11  Q11_2  -0.0686606669704
    G1_11  Q11_3  -0.0624737920028
    G1_11  Q11_4  -0.0779484960411
    G1_11  Q11_5  0.0168647371755
    G1_11  Q11_6  -0.0354847460075
    G1_11  Q11_7  -0.138422515314
    G1_12  COST  -171.498955341
    G1_12  PB1  -1
    G1_12  DM12  1
    G1_12  Q12_0  0.0171292621336
    G1_12  Q12_1  -0.0366699695246
    G1_12  Q12_2  -0.0499343702945
    G1_12  Q12_3  -0.0622889305282
    G1_12  Q12_4  -0.0707204595262
    G1_12  Q12_5  0.0126057655524
    G1_12  Q12_6  -0.0251663026868
    G1_12  Q12_7  -0.145524431722
    G1_14  COST  -130.595506027
    G1_14  PB1  -1
    G1_14  DM14  1
    G1_14  Q14_0  0.0341747115764
    G1_14  Q14_1  -0.0212782012939
    G1_14  Q14_2  0.00516447396938
    G1_14  Q14_3  -0.06109228601
    G1_14  Q14_4  -0.0721283827257
    G1_14  Q14_5  -0.010037105654
    G1_14  Q14_6  -0.0187720854815
    G1_14  Q14_7  -0.131898049402
    G1_15  COST  -101.192354289
    G1_15  PB1  -1
    G1_15  DM15  1
    G1_15  Q15_0  0.0359168560292
    G1_15  Q15_1  -0.0737335049246
    G1_15  Q15_2  -0.0454304185499
    G1_15  Q15_3  -0.061804200418
    G1_15  Q15_4  -0.0080935539977
    G1_15  Q15_5  -0.0114709778903
    G1_15  Q15_6  0.000809521429733
    G1_15  Q15_7  -0.185478655073
    G1_19  COST  -186.574135721
    G1_19  PB1  -1
    G1_19  DM19  1
    G1_19  Q19_0  0.016760696545
    G1_19  Q19_1  -0.0088777518143
    G1_19  Q19_2  -0.0617406160898
    G1_19  Q19_3  -0.0714554261137
    G1_19  Q19_4  -0.0610537617577
    G1_19  Q19_5  0.00689129586149
    G1_19  Q19_6  -0.0229639054171
    G1_19  Q19_7  -0.105540724939
    G1_20  COST  -165.470681874
    G1_20  PB1  -1
    G1_20  DM20  1
    G1_20  Q20_0  0.0214865083153
    G1_20  Q20_1  -0.0309632437527
    G1_20  Q20_2  -0.0767674983238
    G1_20  Q20_3  -0.0780624818406
    G1_20  Q20_4  -0.0632749435546
    G1_20  Q20_5  -0.0121879140084
    G1_20  Q20_6  -0.00481286592122
    G1_20  Q20_7  -0.19520384442
    G1_21  COST  -123.466766883
    G1_21  PB1  -1
    G1_21  DM21  1
    G1_21  Q21_0  0.018556391241
    G1_21  Q21_1  -0.03410848057
    G1_21  Q21_2  -0.0319047127606
    G1_21  Q21_3  -0.0703237653122
    G1_21  Q21_4  -0.0363478618963
    G1_21  Q21_5  -0.0107540417721
    G1_21  Q21_6  -0.0302083058839
    G1_21  Q21_7  -0.197020322457
    G1_23  COST  -170.438674511
    G1_23  PB1  -1
    G1_23  DM23  1
    G1_23  Q23_0  0.0363234855491
    G1_23  Q23_1  0.00382327892158
    G1_23  Q23_2  -0.0790326612722
    G1_23  Q23_3  -0.0702163546365
    G1_23  Q23_4  -0.0715243256642
    G1_23  Q23_5  -0.00716936118142
    G1_23  Q23_6  0.00904395385176
    G1_23  Q23_7  -0.185866389209
    G1_24  COST  -162.878154135
    G1_24  PB1  -1
    G1_24  DM24  1
    G1_24  Q24_0  0.0369001165772
    G1_24  Q24_1  0.0045879347059
    G1_24  Q24_2  -0.0312304095992
    G1_24  Q24_3  -0.0763739954335
    G1_24  Q24_4  -0.0794010758304
    G1_24  Q24_5  -0.0936791554259
    G1_24  Q24_6  -0.0312709631767
    G1_24  Q24_7  -0.134833675041
    G1_26  COST  -149.011681845
    G1_26  PB1  -1
    G1_26  DM26  1
    G1_26  Q26_0  0.0432358012894
    G1_26  Q26_1  -0.0278112046877
    G1_26  Q26_2  -0.0901549803146
    G1_26  Q26_3  -0.0645077898259
    G1_26  Q26_4  -0.0876793590686
    G1_26  Q26_5  0.0125507779261
    G1_26  Q26_6  -0.0463100601659
    G1_26  Q26_7  -0.142601406605
    G1_27  COST  -159.175234463
    G1_27  PB1  -1
    G1_27  DM27  1
    G1_27  Q27_0  0.0165720466156
    G1_27  Q27_1  -0.0300281920564
    G1_27  Q27_2  -0.0600540095476
    G1_27  Q27_3  -0.0764740225299
    G1_27  Q27_4  -0.0712222971335
    G1_27  Q27_5  -0.00657009135587
    G1_27  Q27_6  0.00424523709738
    G1_27  Q27_7  -0.189415698987
    G1_28  COST  -132.687660165
    G1_28  PB1  -1
    G1_28  DM28  1
    G1_28  Q28_0  0.0299028831427
    G1_28  Q28_1  -0.00454779740933
    G1_28  Q28_2  -0.0499343702945
    G1_28  Q28_3  -0.063442291368
    G1_28  Q28_4  -0.0784906029543
    G1_28  Q28_5  -0.0300482310449
    G1_28  Q28_6  -0.0308326758236
    G1_28  Q28_7  -0.137257694684
    G1_31  COST  -100.259410695
    G1_31  PB1  -1
    G1_31  DM31  1
    G1_31  Q31_0  0.0246857949909
    G1_31  Q31_1  0.0123511271178
    G1_31  Q31_2  -0.037691828244
    G1_31  Q31_3  -0.0744237781029
    G1_31  Q31_4  -0.0497373274004
    G1_31  Q31_5  -0.0215004726005
    G1_31  Q31_6  -0.0182929574155
    G1_31  Q31_7  -0.14174724302
    G1_32  COST  -170.549284717
    G1_32  PB1  -1
    G1_32  DM32  1
    G1_32  Q32_0  0.0183237422007
    G1_32  Q32_1  -0.0315666402528
    G1_32  Q32_2  -0.0949820959661
    G1_32  Q32_3  -0.0643352176761
    G1_32  Q32_4  -0.0811441715776
    G1_32  Q32_5  -0.0216489743927
    G1_32  Q32_6  -0.0317092505297
    G1_32  Q32_7  -0.142312976154
    G1_34  COST  -155.512082857
    G1_34  PB1  -1
    G1_34  DM34  1
    G1_34  Q34_0  0.0169908364579
    G1_34  Q34_1  0.00649957416669
    G1_34  Q34_2  -0.0429452317661
    G1_34  Q34_3  -0.0807350249441
    G1_34  Q34_4  -0.0461036360067
    G1_34  Q34_5  0.0106501845132
    G1_34  Q34_6  -0.0354847460075
    G1_34  Q34_7  -0.153377665561
    G1_36  COST  -109.496117872
    G1_36  PB1  -1
    G1_36  DM36  1
    G1_36  Q36_0  0.0267568807187
    G1_36  Q36_1  -0.0396059710475
    G1_36  Q36_2  -0.115141972311
    G1_36  Q36_3  -0.0693946857216
    G1_36  Q36_4  -0.0784939082206
    G1_36  Q36_5  0.00751777730345
    G1_36  Q36_6  -0.0131535610758
    G1_36  Q36_7  -0.179002911276
    G1_37  COST  -153.298206262
    G1_37  PB1  -1
    G1_37  DM37  1
    G1_37  Q37_0  0.0359168560292
    G1_37  Q37_1  -0.00333672935998
    G1_37  Q37_2  -0.0364757866154
    G1_37  Q37_3  -0.0712714239894
    G1_37  Q37_4  -0.0662616195046
    G1_37  Q37_5  0.0163442910935
    G1_37  Q37_6  0.00749652470853
    G1_37  Q37_7  -0.142206506189
    G1_39  COST  -148.23927624
    G1_39  PB1  -1
    G1_39  DM39  1
    G1_39  Q39_0  0.0172626874983
    G1_39  Q39_1  -0.0213246338636
    G1_39  Q39_2  -0.138888015729
    G1_39  Q39_3  -0.0669139901913
    G1_39  Q39_4  -0.0940829472702
    G1_39  Q39_5  0.0112766659552
    G1_39  Q39_6  -0.000566219520143
    G1_39  Q39_7  -0.141700171594
    G2_0  COST  -152.34227309
    G2_0  PB2  -1
    G2_0  DM0  1
    G2_0  Q0_0  -0.00178125232098
    G2_0  Q0_1  0.0543075505803
    G2_0  Q0_2  -0.11983880482
    G2_0  Q0_3  -0.0634933151845
    G2_0  Q0_4  -0.0960069545285
    G2_0  Q0_5  -0.0548156306852
    G2_0  Q0_6  0.0373221651267
    G2_0  Q0_7  -0.141327906531
    G2_1  COST  -138.180720418
    G2_1  PB2  -1
    G2_1  DM1  1
    G2_1  Q1_0  0.0113668408214
    G2_1  Q1_1  0.0530131223258
    G2_1  Q1_2  -0.125116466536
    G2_1  Q1_3  -0.11937717252
    G2_1  Q1_4  -0.110827563554
    G2_1  Q1_5  -0.0322277471051
    G2_1  Q1_6  0.0399798025254
    G2_1  Q1_7  -0.130247061006
    G2_2  COST  -159.268847256
    G2_2  PB2  -1
    G2_2  DM2  1
    G2_2  Q2_0  0.00636916338309
    G2_2  Q2_1  0.0536433231822
    G2_2  Q2_2  -0.0814150196938
    G2_2  Q2_3  -0.0514410538262
    G2_2  Q2_4  -0.108799047292
    G2_2  Q2_5  -0.0780362915294
    G2_2  Q2_6  0.0255978030541
    G2_2  Q2_7  -0.105797497399
    G2_8  COST  -106.767755964
    G2_8  PB2  -1
    G2_8  DM8  1
    G2_8  Q8_0  -0.00313047537899
    G2_8  Q8_1  0.0802611804518
    G2_8  Q8_2  -0.0962873832648
    G2_8  Q8_3  -0.0705712634743
    G2_8  Q8_4  -0.110197772834
    G2_8  Q8_5  -0.0693355365551
    G2_8  Q8_6  0.0474821776045
    G2_8  Q8_7  -0.0968555678266
    G2_11  COST  -112.2567622
    G2_11  PB2  -1
    G2_11  DM11  1
    G2_11  Q11_0  0.0119062381888
    G2_11  Q11_1  0.042090861922
    G2_11  Q11_2  -0.121916878164
    G2_11  Q11_3  -0.0537387349774
    G2_11  Q11_4  -0.114619160607
    G2_11  Q11_5  -0.0279137878557
    G2_11  Q11_6  0.0189108460403
    G2_11  Q11_7  -0.089810343846
    G2_12  COST  -171.498955341
    G2_12  PB2  -1
    G2_12  DM12  1
    G2_12  Q12_0  -0.00333561373705
    G2_12  Q12_1  0.0485399939104
    G2_12  Q12_2  -0.103190581488
    G2_12  Q12_3  -0.0535538735028
    G2_12  Q12_4  -0.107391124092
    G2_12  Q12_5  -0.0321727594788
    G2_12  Q12_6  0.029229289361
    G2_12  Q12_7  -0.0969122602535
    G2_14  COST  -130.595506027
    G2_14  PB2  -1
    G2_14  DM14  1
    G2_14  Q14_0  0.0137098357058
    G2_14  Q14_1  0.0639317621411
    G2_14  Q14_2  -0.0480917372238
    G2_14  Q14_3  -0.0523572289846
    G2_14  Q14_4  -0.108799047292
    G2_14  Q14_5  -0.0548156306852
    G2_14  Q14_6  0.0356235065663
    G2_14  Q14_7  -0.083285877934
    G2_16  COST  -183.841217894
    G2_16  PB2  -1
    G2_16  DM16  1
    G2_16  Q16_0  0.0126066051411
    G2_16  Q16_1  0.0485399939104
    G2_16  Q16_2  -0.135647900377
    G2_16  Q16_3  -0.0666799926307
    G2_16  Q16_4  -0.120390554762
    G2_16  Q16_5  -0.0700048253993
    G2_16  Q16_6  0.0583243867051
    G2_16  Q16_7  -0.113226539925
    G2_17  COST  -128.893635511
    G2_17  PB2  -1
    G2_17  DM17  1
    G2_17  Q17_0  0.0241889079607
    G2_17  Q17_1  0.0618926473772
    G2_17  Q17_2  -0.117959330236
    G2_17  Q17_3  -0.0142336071385
    G2_17  Q17_4  -0.110109380869
    G2_17  Q17_5  -0.0701570984886
    G2_17  Q17_6  0.0235629162242
    G2_17  Q17_7  -0.140279148508
    G2_18  COST  -175.859057143
    G2_18  PB2  -1
    G2_18  DM18  1
    G2_18  Q18_0  -0.00101785846913
    G2_18  Q18_1  0.023839193605
    G2_18  Q18_2  -0.113310220741
    G2_18  Q18_3  -0.0677389655045
    G2_18  Q18_4  -0.0917934656652
    G2_18  Q18_5  -0.0629368475208
    G2_18  Q18_6  0.0193488657446
    G2_18  Q18_7  -0.113999746655
    G2_19  COST  -186.574135721
    G2_19  PB2  -1
    G2_19  DM19  1
    G2_19  Q19_0  -0.0037041793256
    G2_19  Q19_1  0.0763322116207
    G2_19  Q19_2  -0.114996827283
    G2_19  Q19_3  -0.0627203690883
    G2_19  Q19_4  -0.0977244263237
    G2_19  Q19_5  -0.0378872291697
    G2_19  Q19_6  0.0314316866307
    G2_19  Q19_7  -0.0569285534708
    G2_21  COST  -123.466766883
    G2_21  PB2  -1
    G2_21  DM21  1
    G2_21  Q21_0  -0.00190848462963
    G2_21  Q21_1  0.051101482865
    G2_21  Q21_2  -0.0851609239538
    G2_21  Q21_3  -0.0615887082868
    G2_21  Q21_4  -0.0730185264623
    G2_21  Q21_5  -0.0555325668033
    G2_21  Q21_6  0.0241872861639
    G2_21  Q21_7  -0.148408150989
    G2_22  COST  -144.293092726
    G2_22  PB2  -1
    G2_22  DM22  1
    G2_22  Q22_0  0.0493698439066
    G2_22  Q22_1  0.042090861922
    G2_22  Q22_2  -0.0680109612425
    G2_22  Q22_3  -0.0687317619798
    G2_22  Q22_4  -0.125111043049
    G2_22  Q22_5  -0.0625574639741
    G2_22  Q22_6  0.0585408870242
    G2_22  Q22_7  -0.0905280697164
    G2_24  COST  -162.878154135
    G2_24  PB2  -1
    G2_24  DM24  1
    G2_24  Q24_0  0.0164352407066
    G2_24  Q24_1  0.0897978981409
    G2_24  Q24_2  -0.0844866207924
    G2_24  Q24_3  -0.0676389384081
    G2_24  Q24_4  -0.116071740396
    G2_24  Q24_5  -0.138457680457
    G2_24  Q24_6  0.0231246288711
    G2_24  Q24_7  -0.086221503573
    G2_26  COST  -149.011681845
    G2_26  PB2  -1
    G2_26  DM26  1
    G2_26  Q26_0  0.0227709254188
    G2_26  Q26_1  0.0573987587473
    G2_26  Q26_2  -0.143411191508
    G2_26  Q26_3  -0.0557727328005
    G2_26  Q26_4  -0.124350023635
    G2_26  Q26_5  -0.0322277471051
    G2_26  Q26_6  0.0080855318819
    G2_26  Q26_7  -0.0939892351372
    G2_27  COST  -159.175234463
    G2_27  PB2  -1
    G2_27  DM27  1
    G2_27  Q27_0  -0.00389282925504
    G2_27  Q27_1  0.0551817713786
    G2_27  Q27_2  -0.113310220741
    G2_27  Q27_3  -0.0677389655045
    G2_27  Q27_4  -0.1078929617
    G2_27  Q27_5  -0.0513486163871
    G2_27  Q27_6  0.0586408291452
    G2_27  Q27_7  -0.140803527519
    G2_28  COST  -132.687660165
    G2_28  PB2  -1
    G2_28  DM28  1
    G2_28  Q28_0  0.00943800727203
    G2_28  Q28_1  0.0806621660257
    G2_28  Q28_2  -0.103190581488
    G2_28  Q28_3  -0.0547072343426
    G2_28  Q28_4  -0.11516126752
    G2_28  Q28_5  -0.0748267560761
    G2_28  Q28_6  0.0235629162242
    G2_28  Q28_7  -0.0886455232155
    G2_32  COST  -170.549284717
    G2_32  PB2  -1
    G2_32  DM32  1
    G2_32  Q32_0  -0.00214113366996
    G2_32  Q32_1  0.0536433231822
    G2_32  Q32_2  -0.148238307159
    G2_32  Q32_3  -0.0556001606507
    G2_32  Q32_4  -0.117814836144
    G2_32  Q32_5  -0.0664274994239
    G2_32  Q32_6  0.0226863415181
    G2_32  Q32_7  -0.0937008046855
    G2_34  COST  -155.512082857
    G2_34  PB2  -1
    G2_34  DM34  1
    G2_34  Q34_0  -0.00347403941275
    G2_34  Q34_1  0.0917095376017
    G2_34  Q34_2  -0.0962014429593
    G2_34  Q34_3  -0.0719999679187
    G2_34  Q34_4  -0.0827743005727
    G2_34  Q34_5  -0.034128340518
    G2_34  Q34_6  0.0189108460403
    G2_34  Q34_7  -0.104765494093
    G2_36  COST  -109.496117872
    G2_36  PB2  -1
    G2_36  DM36  1
    G2_36  Q36_0  0.00629200484802
    G2_36  Q36_1  0.0456039923875
    G2_36  Q36_2  -0.168398183504
    G2_36  Q36_3  -0.0606596286962
    G2_36  Q36_4  -0.115164572787
    G2_36  Q36_5  -0.0372607477278
    G2_36  Q36_6  0.041242030972
    G2_36  Q36_7  -0.130390739808
    G2_38  COST  -168.206235695
    G2_38  PB2  -1
    G2_38  DM38  1
    G2_38  Q38_0  0.0126066051411
    G2_38  Q38_1  0.0929342914486
    G2_38  Q38_2  -0.0959887414626
    G2_38  Q38_3  -0.048300004671
    G2_38  Q38_4  -0.110109380869
    G2_38  Q38_5  -0.035144381915
    G2_38  Q38_6  0.0468605553778
    G2_38  Q38_7  -0.0886085925445
    G3_2  COST  -159.268847256
    G3_2  PB3  -1
    G3_2  DM2  1
    G3_2  Q2_0  -0.20548833086
    G3_2  Q2_1  -0.00962421156082
    G3_2  Q2_2  -0.188033492489
    G3_2  Q2_3  -0.0415352848449
    G3_2  Q2_4  -0.147645190699
    G3_2  Q2_5  0.0869833597395
    G3_2  Q2_6  -0.0328453961424
    G3_2  Q2_7  -0.0294188603333
    G3_5  COST  -131.682337746
    G3_5  PB3  -1
    G3_5  DM5  1
    G3_5  Q5_0  -0.210264144111
    G3_5  Q5_1  0.00610344774313
    G3_5  Q5_2  -0.214105990681
    G3_5  Q5_3  -0.0327396475083
    G3_5  Q5_4  -0.13586317485
    G3_5  Q5_5  0.0982190271305
    G3_5  Q5_6  -0.00829425354974
    G3_5  Q5_7  -0.065036665967
    G3_9  COST  -102.291948084
    G3_9  PB3  -1
    G3_9  DM9  1
    G3_9  Q9_0  -0.202673951588
    G3_9  Q9_1  -0.00235355454013
    G3_9  Q9_2  -0.219013233662
    G3_9  Q9_3  -0.0480519563384
    G3_9  Q9_4  -0.150369179063
    G3_9  Q9_5  0.103069648419
    G3_9  Q9_6  0.00462009217034
    G3_9  Q9_7  -0.0153418750564
    G3_14  COST  -130.595506027
    G3_14  PB3  -1
    G3_14  DM14  1
    G3_14  Q14_0  -0.198147658537
    G3_14  Q14_1  0.000664227398053
    G3_14  Q14_2  -0.154710210019
    G3_14  Q14_3  -0.0424514600034
    G3_14  Q14_4  -0.147645190699
    G3_14  Q14_5  0.110204020584
    G3_14  Q14_6  -0.0228196926302
    G3_14  Q14_7  -0.00690724086805
    G3_15  COST  -101.192354289
    G3_15  PB3  -1
    G3_15  DM15  1
    G3_15  Q15_0  -0.196405514084
    G3_15  Q15_1  -0.0517910762327
    G3_15  Q15_2  -0.205305102538
    G3_15  Q15_3  -0.0431633744113
    G3_15  Q15_4  -0.0836103619712
    G3_15  Q15_5  0.108770148347
    G3_15  Q15_6  -0.00323808571893
    G3_15  Q15_7  -0.0604878465393
    G3_17  COST  -128.893635511
    G3_17  PB3  -1
    G3_17  DM17  1
    G3_17  Q17_0  -0.187668586282
    G3_17  Q17_1  -0.00137488736583
    G3_17  Q17_2  -0.224577803031
    G3_17  Q17_3  -0.00432783815724
    G3_17  Q17_4  -0.148955524276
    G3_17  Q17_5  0.0948625527803
    G3_17  Q17_6  -0.0348802829723
    G3_17  Q17_7  -0.0639005114419
    G3_18  COST  -175.859057143
    G3_18  PB3  -1
    G3_18  DM18  1
    G3_18  Q18_0  -0.212875352712
    G3_18  Q18_1  -0.039428341138
    G3_18  Q18_2  -0.219928693536
    G3_18  Q18_3  -0.0578331965232
    G3_18  Q18_4  -0.130639609073
    G3_18  Q18_5  0.102082803748
    G3_18  Q18_6  -0.0390943334518
    G3_18  Q18_7  -0.0376211095886
    G3_24  COST  -162.878154135
    G3_24  PB3  -1
    G3_24  DM24  1
    G3_24  Q24_0  -0.195422253536
    G3_24  Q24_1  0.0265303633979
    G3_24  Q24_2  -0.191105093588
    G3_24  Q24_3  -0.0577331694268
    G3_24  Q24_4  -0.154917883804
    G3_24  Q24_5  0.0265619708118
    G3_24  Q24_6  -0.0353185703253
    G3_24  Q24_7  -0.00984286650703
    G3_25  COST  -174.481452841
    G3_25  PB3  -1
    G3_25  DM25  1
    G3_25  Q25_0  -0.187668586282
    G3_25  Q25_1  -0.00818133737676
    G3_25  Q25_2  -0.195662675678
    G3_25  Q25_3  -0.039363376502
    G3_25  Q25_4  -0.153958672292
    G3_25  Q25_5  0.0969091400538
    G3_25  Q25_6  -0.0290678140512
    G3_25  Q25_7  -0.0370226958632
    G3_30  COST  -162.75162392
    G3_30  PB3  -1
    G3_30  DM30  1
    G3_30  Q30_0  -0.179597356831
    G3_30  Q30_1  -0.00206233104875
    G3_30  Q30_2  -0.19184264257
    G3_30  Q30_3  -0.0556833479307
    G3_30  Q30_4  -0.159018415173
    G3_30  Q30_5  0.0121400800949
    G3_30  Q30_6  -0.0293826125588
    G3_30  Q30_7  -0.0257536955462
    G3_32  COST  -170.549284717
    G3_32  PB3  -1
    G3_32  DM32  1
    G3_32  Q32_0  -0.213998627913
    G3_32  Q32_1  -0.00962421156082
    G3_32  Q32_2  -0.254856779954
    G3_32  Q32_3  -0.0456943916694
    G3_32  Q32_4  -0.156660979551
    G3_32  Q32_5  0.098592151845
    G3_32  Q32_6  -0.0357568576784
    G3_32  Q32_7  -0.0173221676195
    G3_35  COST  -153.515246559
    G3_35  PB3  -1
    G3_35  DM35  1
    G3_35  Q35_0  -0.193516231859
    G3_35  Q35_1  -0.00941421816053
    G3_35  Q35_2  -0.207974169629
    G3_35  Q35_3  -0.0863619482804
    G3_35  Q35_4  -0.152492395894
    G3_35  Q35_5  0.0909990928046
    G3_35  Q35_6  0.00963529553837
    G3_35  Q35_7  -0.0644248904535
    G4_0  COST  -152.34227309
    G4_0  PB4  -1
    G4_0  DM0  1
    G4_0  Q0_0  -0.0631837719419
    G4_0  Q0_1  -0.121909761411
    G4_0  Q0_2  0.0920417840536
    G4_0  Q0_3  -0.0678700019442
    G4_0  Q0_4  0.0677721383622
    G4_0  Q0_5  -0.053387758948
    G4_0  Q0_6  -0.216703493463
    G4_0  Q0_7  -0.0550817825107
    G4_3  COST  -147.831627981
    G4_3  PB4  -1
    G4_3  DM3  1
    G4_3  Q3_0  -0.0351645859188
    G4_3  Q3_1  -0.154115947093
    G4_3  Q3_2  0.0276509190732
    G4_3  Q3_3  -0.0574458301523
    G4_3  Q3_4  -0.00613491567622
    G4_3  Q3_5  -0.0267999876922
    G4_3  Q3_6  -0.168028123856
    G4_3  Q3_7  -0.00273332347275
    G4_4  COST  -137.510572437
    G4_4  PB4  -1
    G4_4  DM4  1
    G4_4  Q4_0  -0.0367831372319
    G4_4  Q4_1  -0.0928842588211
    G4_4  Q4_2  0.0688882845404
    G4_4  Q4_3  -0.0722921477431
    G4_4  Q4_4  0.0475545544528
    G4_4  Q4_5  -0.0619864257995
    G4_4  Q4_6  -0.21655323492
    G4_4  Q4_7  -0.0595396807901
    G4_5  COST  -131.682337746
    G4_5  PB4  -1
    G4_5  DM5  1
    G4_5  Q5_0  -0.0598091694891
    G4_5  Q5_1  -0.106846329505
    G4_5  Q5_2  0.104393070988
    G4_5  Q5_3  -0.0470221032493
    G4_5  Q5_4  0.0667620614476
    G4_5  Q5_5  -0.0653727524012
    G4_5  Q5_6  -0.203876712943
    G4_5  Q5_7  -0.0551691790127
    G4_8  COST  -106.767755964
    G4_8  PB4  -1
    G4_8  DM8  1
    G4_8  Q8_0  -0.0645329949999
    G4_8  Q8_1  -0.0959561315393
    G4_8  Q8_2  0.115593205609
    G4_8  Q8_3  -0.074947950234
    G4_8  Q8_4  0.0535813200563
    G4_8  Q8_5  -0.0679076648179
    G4_8  Q8_6  -0.206543480985
    G4_8  Q8_7  -0.0106094438063
    G4_9  COST  -102.291948084
    G4_9  PB4  -1
    G4_9  DM9  1
    G4_9  Q9_0  -0.0522189769661
    G4_9  Q9_1  -0.115303331788
    G4_9  Q9_2  0.0994858280066
    G4_9  Q9_3  -0.0623344120794
    G4_9  Q9_4  0.0522560572349
    G4_9  Q9_5  -0.0605221311127
    G4_9  Q9_6  -0.190962367223
    G4_9  Q9_7  -0.00547438810201
    G4_12  COST  -171.498955341
    G4_12  PB4  -1
    G4_12  DM12  1
    G4_12  Q12_0  -0.0647381333579
    G4_12  Q12_1  -0.127677318081
    G4_12  Q12_2  0.108690007386
    G4_12  Q12_3  -0.0579305602625
    G4_12  Q12_4  0.0563879687984
    G4_12  Q12_5  -0.0307448877417
    G4_12  Q12_6  -0.224796369228
    G4_12  Q12_7  -0.0106661362332
    G4_14  COST  -130.595506027
    G4_14  PB4  -1
    G4_14  DM14  1
    G4_14  Q14_0  -0.0476926839151
    G4_14  Q14_1  -0.11228554985
    G4_14  Q14_2  0.16378885165
    G4_14  Q14_3  -0.0567339157443
    G4_14  Q14_4  0.0549800455989
    G4_14  Q14_5  -0.053387758948
    G4_14  Q14_6  -0.218402152023
    G4_14  Q14_7  0.00296024608631
    G4_17  COST  -128.893635511
    G4_17  PB4  -1
    G4_17  DM17  1
    G4_17  Q17_0  -0.0372136116602
    G4_17  Q17_1  -0.114324664614
    G4_17  Q17_2  0.0939212586379
    G4_17  Q17_3  -0.0186102938982
    G4_17  Q17_4  0.0536697120217
    G4_17  Q17_5  -0.0687292267515
    G4_17  Q17_6  -0.230462742365
    G4_17  Q17_7  -0.0540330244875
    G4_24  COST  -162.878154135
    G4_24  PB4  -1
    G4_24  DM24  1
    G4_24  Q24_0  -0.0449672789143
    G4_24  Q24_1  -0.0864194138502
    G4_24  Q24_2  0.127393968081
    G4_24  Q24_3  -0.0720156251678
    G4_24  Q24_4  0.0477073524942
    G4_24  Q24_5  -0.13702980872
    G4_24  Q24_6  -0.230901029718
    G4_24  Q24_7  2.46204473331e-05
    G4_25  COST  -174.481452841
    G4_25  PB4  -1
    G4_25  DM25  1
    G4_25  Q25_0  -0.0372136116602
    G4_25  Q25_1  -0.121131114625
    G4_25  Q25_2  0.122836385991
    G4_25  Q25_3  -0.053645832243
    G4_25  Q25_4  0.048666564006
    G4_25  Q25_5  -0.0666826394779
    G4_25  Q25_6  -0.224650273444
    G4_25  Q25_7  -0.0271552089088
    G4_26  COST  -149.011681845
    G4_26  PB4  -1
    G4_26  DM26  1
    G4_26  Q26_0  -0.0386315942021
    G4_26  Q26_1  -0.118818553244
    G4_26  Q26_2  0.068469397366
    G4_26  Q26_3  -0.0601494195602
    G4_26  Q26_4  0.039429069256
    G4_26  Q26_5  -0.0307998753679
    G4_26  Q26_6  -0.245940126707
    G4_26  Q26_7  -0.00774311111692
    G4_27  COST  -159.175234463
    G4_27  PB4  -1
    G4_27  DM27  1
    G4_27  Q27_0  -0.0652953488759
    G4_27  Q27_1  -0.121035540612
    G4_27  Q27_2  0.0985703681331
    G4_27  Q27_3  -0.0721156522642
    G4_27  Q27_4  0.0558861311911
    G4_27  Q27_5  -0.0499207446499
    G4_27  Q27_6  -0.195384829444
    G4_27  Q27_7  -0.0545574034991
    G4_28  COST  -132.687660165
    G4_28  PB4  -1
    G4_28  DM28  1
    G4_28  Q28_0  -0.0519645123488
    G4_28  Q28_1  -0.0955551459654
    G4_28  Q28_2  0.108690007386
    G4_28  Q28_3  -0.0590839211023
    G4_28  Q28_4  0.0486178253703
    G4_28  Q28_5  -0.0733988843389
    G4_28  Q28_6  -0.230462742365
    G4_28  Q28_7  -0.00239939919518
    G4_29  COST  -117.226565852
    G4_29  PB4  -1
    G4_29  DM29  1
    G4_29  Q29_0  -0.0591921276371
    G4_29  Q29_1  -0.0795971352932
    G4_29  Q29_2  0.118745367118
    G4_29  Q29_3  -0.0688145641069
    G4_29  Q29_4  0.06084680882
    G4_29  Q29_5  -0.0308041051853
    G4_29  Q29_6  -0.245332909261
    G4_29  Q29_7  -0.00734821070046
    G4_31  COST  -100.259410695
    G4_31  PB4  -1
    G4_31  DM31  1
    G4_31  Q31_0  -0.0571816005006
    G4_31  Q31_1  -0.0786562214383
    G4_31  Q31_2  0.120932549437
    G4_31  Q31_3  -0.0700654078372
    G4_31  Q31_4  0.0773711009242
    G4_31  Q31_5  -0.0648511258945
    G4_31  Q31_6  -0.217923023957
    G4_31  Q31_7  -0.00688894753168
    G4_32  COST  -170.549284717
    G4_32  PB4  -1
    G4_32  DM32  1
    G4_32  Q32_0  -0.0635436532908
    G4_32  Q32_1  -0.122573988809
    G4_32  Q32_2  0.0636422817146
    G4_32  Q32_3  -0.0599768474104
    G4_32  Q32_4  0.045964256747
    G4_32  Q32_5  -0.0649996276867
    G4_32  Q32_6  -0.231339317071
    G4_32  Q32_7  -0.00745468066519
    G4_37  COST  -153.298206262
    G4_37  PB4  -1
    G4_37  DM37  1
    G4_37  Q37_0  -0.0459505394623
    G4_37  Q37_1  -0.0943440779161
    G4_37  Q37_2  0.122148591065
    G4_37  Q37_3  -0.0669130537237
    G4_37  Q37_4  0.06084680882
    G4_37  Q37_5  -0.0270063622006
    G4_37  Q37_6  -0.192133541833
    G4_37  Q37_7  -0.00734821070046
    G5_0  COST  -152.34227309
    G5_0  PB5  -1
    G5_0  DM0  1
    G5_0  Q0_0  -0.0230117969313
    G5_0  Q0_1  0.0728533896049
    G5_0  Q0_2  0.0693563881137
    G5_0  Q0_3  0.00283368648826
    G5_0  Q0_4  0.0106778930481
    G5_0  Q0_5  -0.153245454729
    G5_0  Q0_6  0.0460585502483
    G5_0  Q0_7  0.0163308588427
    G5_2  COST  -159.268847256
    G5_2  PB5  -1
    G5_2  DM2  1
    G5_2  Q2_0  -0.0148613812272
    G5_2  Q2_1  0.0721891622068
    G5_2  Q2_2  0.10778017324
    G5_2  Q2_3  0.0148859478465
    G5_2  Q2_4  -0.00211419971522
    G5_2  Q2_5  -0.176466115573
    G5_2  Q2_6  0.0343341881757
    G5_2  Q2_7  0.0518612679745
    G5_4  COST  -137.510572437
    G5_4  PB5  -1
    G5_4  DM4  1
    G5_4  Q4_0  0.00338883777869
    G5_4  Q4_1  0.101878892195
    G5_4  Q4_2  0.0462028886005
    G5_4  Q4_3  -0.00158845931071
    G5_4  Q4_4  -0.00953969086133
    G5_4  Q4_5  -0.16184412158
    G5_4  Q4_6  0.0462088087909
    G5_4  Q4_7  0.0118729605633
    G5_6  COST  -103.656002187
    G5_6  PB5  -1
    G5_6  DM6  1
    G5_6  Q6_0  -0.00805790239768
    G5_6  Q6_1  0.106017307788
    G5_6  Q6_2  0.0904413320142
    G5_6  Q6_3  0.0180676966505
    G5_6  Q6_4  -0.00605214519459
    G5_6  Q6_5  -0.155527270367
    G5_6  Q6_6  0.0654272378927
    G5_6  Q6_7  0.0237095222237
    G5_7  COST  -188.467036352
    G5_7  PB5  -1
    G5_7  DM7  1
    G5_7  Q7_0  0.00400568360052
    G5_7  Q7_1  0.111752226171
    G5_7  Q7_2  0.0483407179205
    G5_7  Q7_3  -0.0521676934525
    G5_7  Q7_4  -0.00605214519459
    G5_7  Q7_5  -0.130657571149
    G5_7  Q7_6  0.0340193896681
    G5_7  Q7_7  0.0636695302365
    G5_10  COST  -119.377262621
    G5_10  PB5  -1
    G5_10  DM10  1
    G5_10  Q10_0  -0.0238008965938
    G5_10  Q10_1  0.0675751665222
    G5_10  Q10_2  0.0779756953101
    G5_10  Q10_3  -0.000176495478968
    G5_10  Q10_4  -0.0035129252578
    G5_10  Q10_5  -0.132126463097
    G5_10  Q10_6  0.0695704928135
    G5_10  Q10_7  0.0329343013889
    G5_11  COST  -112.2567622
    G5_11  PB5  -1
    G5_11  DM11  1
    G5_11  Q11_0  -0.00932430642146
    G5_11  Q11_1  0.0606367009466
    G5_11  Q11_2  0.0672783147704
    G5_11  Q11_3  0.0125882666954
    G5_11  Q11_4  -0.00793431303058
    G5_11  Q11_5  -0.126343611899
    G5_11  Q11_6  0.0276472311619
    G5_11  Q11_7  0.0678484215277
    G5_12  COST  -171.498955341
    G5_12  PB5  -1
    G5_12  DM12  1
    G5_12  Q12_0  -0.0245661583473
    G5_12  Q12_1  0.067085832935
    G5_12  Q12_2  0.0860046114463
    G5_12  Q12_3  0.0127731281699
    G5_12  Q12_4  -0.000706276515697
    G5_12  Q12_5  -0.130602583522
    G5_12  Q12_6  0.0379656744825
    G5_12  Q12_7  0.0607465051202
    G5_13  COST  -113.646669801
    G5_13  PB5  -1
    G5_13  DM13  1
    G5_13  Q13_0  -0.00483474143861
    G5_13  Q13_1  0.063660497825
    G5_13  Q13_2  0.0190639253111
    G5_13  Q13_3  0.00519509189514
    G5_13  Q13_4  -0.0112008477804
    G5_13  Q13_5  -0.194818359398
    G5_13  Q13_6  0.0800592286138
    G5_13  Q13_7  0.0038859292465
    G5_14  COST  -130.595506027
    G5_14  PB5  -1
    G5_14  DM14  1
    G5_14  Q14_0  -0.00752070890451
    G5_14  Q14_1  0.0824776011657
    G5_14  Q14_2  0.14110345571
    G5_14  Q14_3  0.0139697726881
    G5_14  Q14_4  -0.00211419971522
    G5_14  Q14_5  -0.153245454729
    G5_14  Q14_6  0.0443598916878
    G5_14  Q14_7  0.0743728874397
    G5_15  COST  -101.192354289
    G5_15  PB5  -1
    G5_15  DM15  1
    G5_15  Q15_0  -0.00577856445169
    G5_15  Q15_1  0.030022297535
    G5_15  Q15_2  0.0905085631909
    G5_15  Q15_3  0.0132578582801
    G5_15  Q15_4  0.0619206290128
    G5_15  Q15_5  -0.154679326965
    G5_15  Q15_6  0.0639414985991
    G5_15  Q15_7  0.0207922817685
    G5_16  COST  -183.841217894
    G5_16  PB5  -1
    G5_16  DM16  1
    G5_16  Q16_0  -0.00862393946917
    G5_16  Q16_1  0.067085832935
    G5_16  Q16_2  0.0535472925567
    G5_16  Q16_3  -0.000352990957935
    G5_16  Q16_4  -0.0137057071855
    G5_16  Q16_5  -0.168434649443
    G5_16  Q16_6  0.0670607718267
    G5_16  Q16_7  0.0444322254485
    G5_17  COST  -128.893635511
    G5_17  PB5  -1
    G5_17  DM17  1
    G5_17  Q17_0  0.00295836335043
    G5_17  Q17_1  0.0804384864018
    G5_17  Q17_2  0.071235862698
    G5_17  Q17_3  0.0520933945342
    G5_17  Q17_4  -0.00342453329241
    G5_17  Q17_5  -0.168586922532
    G5_17  Q17_6  0.0322993013457
    G5_17  Q17_7  0.0173796168659
    G5_18  COST  -175.859057143
    G5_18  PB5  -1
    G5_18  DM18  1
    G5_18  Q18_0  -0.0222484030794
    G5_18  Q18_1  0.0423850326296
    G5_18  Q18_2  0.0758849721932
    G5_18  Q18_3  -0.00141196383174
    G5_18  Q18_4  0.0148913819113
    G5_18  Q18_5  -0.161366671564
    G5_18  Q18_6  0.0280852508662
    G5_18  Q18_7  0.0436590187191
    G5_20  COST  -165.470681874
    G5_20  PB5  -1
    G5_20  DM20  1
    G5_20  Q20_0  -0.0202089121656
    G5_20  Q20_1  0.0727925587069
    G5_20  Q20_2  0.059171483417
    G5_20  Q20_3  -0.00300042314245
    G5_20  Q20_4  0.00673923945592
    G5_20  Q20_5  -0.155396263083
    G5_20  Q20_6  0.0583191112481
    G5_20  Q20_7  0.0110670924219
    G5_21  COST  -123.466766883
    G5_21  PB5  -1
    G5_21  DM21  1
    G5_21  Q21_0  -0.0231390292399
    G5_21  Q21_1  0.0696473218897
    G5_21  Q21_2  0.10403426898
    G5_21  Q21_3  0.00473829338596
    G5_21  Q21_4  0.0336663211142
    G5_21  Q21_5  -0.153962390847
    G5_21  Q21_6  0.0329236712855
    G5_21  Q21_7  0.00925061438483
    G5_23  COST  -170.438674511
    G5_23  PB5  -1
    G5_23  DM23  1
    G5_23  Q23_0  -0.00537193493179
    G5_23  Q23_1  0.107579081381
    G5_23  Q23_2  0.0569063204686
    G5_23  Q23_3  0.00484570406165
    G5_23  Q23_4  -0.00151014265373
    G5_23  Q23_5  -0.150377710256
    G5_23  Q23_6  0.0721759310211
    G5_23  Q23_7  0.0204045476332
    G5_25  COST  -174.481452841
    G5_25  PB5  -1
    G5_25  DM25  1
    G5_25  Q25_0  0.00295836335043
    G5_25  Q25_1  0.0736320363909
    G5_25  Q25_2  0.100150990051
    G5_25  Q25_3  0.0170578561895
    G5_25  Q25_4  -0.00842768130812
    G5_25  Q25_5  -0.166540335259
    G5_25  Q25_6  0.0381117702669
    G5_25  Q25_7  0.0442574324446
    G5_26  COST  -149.011681845
    G5_26  PB5  -1
    G5_26  DM26  1
    G5_26  Q26_0  0.0015403808085
    G5_26  Q26_1  0.0759445977719
    G5_26  Q26_2  0.0457840014262
    G5_26  Q26_3  0.0105542688722
    G5_26  Q26_4  -0.0176651760581
    G5_26  Q26_5  -0.130657571149
    G5_26  Q26_6  0.0168219170035
    G5_26  Q26_7  0.0636695302365
    G5_27  COST  -159.175234463
    G5_27  PB5  -1
    G5_27  DM27  1
    G5_27  Q27_0  -0.0251233738653
    G5_27  Q27_1  0.0737276104032
    G5_27  Q27_2  0.0758849721932
    G5_27  Q27_3  -0.00141196383174
    G5_27  Q27_4  -0.00120811412298
    G5_27  Q27_5  -0.149778440431
    G5_27  Q27_6  0.0673772142667
    G5_27  Q27_7  0.0168552378543
    G5_29  COST  -117.226565852
    G5_29  PB5  -1
    G5_29  DM29  1
    G5_29  Q29_0  -0.0190201526265
    G5_29  Q29_1  0.115166015723
    G5_29  Q29_2  0.0960599711781
    G5_29  Q29_3  0.00188912432551
    G5_29  Q29_4  0.00375256350589
    G5_29  Q29_5  -0.130661800966
    G5_29  Q29_6  0.0174291344503
    G5_29  Q29_7  0.064064430653
    G5_32  COST  -170.549284717
    G5_32  PB5  -1
    G5_32  DM32  1
    G5_32  Q32_0  -0.0233716782802
    G5_32  Q32_1  0.0721891622068
    G5_32  Q32_2  0.0409568857747
    G5_32  Q32_3  0.010726841022
    G5_32  Q32_4  -0.0111299885672
    G5_32  Q32_5  -0.164857323468
    G5_32  Q32_6  0.0314227266397
    G5_32  Q32_7  0.0639579606882
    G5_34  COST  -155.512082857
    G5_34  PB5  -1
    G5_34  DM34  1
    G5_34  Q34_0  -0.024704584023
    G5_34  Q34_1  0.110255376626
    G5_34  Q34_2  0.0929937499746
    G5_34  Q34_3  -0.00567296624595
    G5_34  Q34_4  0.0239105470038
    G5_34  Q34_5  -0.132558164562
    G5_34  Q34_6  0.0276472311619
    G5_34  Q34_7  0.0528932712812
    G5_35  COST  -153.515246559
    G5_35  PB5  -1
    G5_35  DM35  1
    G5_35  Q35_0  -0.00288928222584
    G5_35  Q35_1  0.0723991556071
    G5_35  Q35_2  0.0878394961002
    G5_35  Q35_3  -0.029940715589
    G5_35  Q35_4  -0.00696140491022
    G5_35  Q35_5  -0.172450382508
    G5_35  Q35_6  0.0768148798564
    G5_35  Q35_7  0.0168552378543
    G5_36  COST  -109.496117872
    G5_36  PB5  -1
    G5_36  DM36  1
    G5_36  Q36_0  -0.0149385397623
    G5_36  Q36_1  0.0641498314121
    G5_36  Q36_2  0.0207970094303
    G5_36  Q36_3  0.00566737297652
    G5_36  Q36_4  -0.00847972521007
    G5_36  Q36_5  -0.135690571771
    G5_36  Q36_6  0.0499784160936
    G5_36  Q36_7  0.0272680255661
    G5_37  COST  -153.298206262
    G5_37  PB5  -1
    G5_37  DM37  1
    G5_37  Q37_0  -0.00577856445169
    G5_37  Q37_1  0.1004190731
    G5_37  Q37_2  0.0994631951253
    G5_37  Q37_3  0.00379063470877
    G5_37  Q37_4  0.00375256350589
    G5_37  Q37_5  -0.126864057981
    G5_37  Q37_6  0.0706285018779
    G5_37  Q37_7  0.064064430653
    G6_0  COST  -152.34227309
    G6_0  PB6  -1
    G6_0  DM0  1
    G6_0  Q0_0  0.00271176993122
    G6_0  Q0_1  -0.106039932617
    G6_0  Q0_2  0.03469470573
    G6_0  Q0_3  -0.00685772163504
    G6_0  Q0_4  0.0318772060733
    G6_0  Q0_5  0.0988165268644
    G6_0  Q0_6  0.0339574740058
    G6_0  Q0_7  -0.132351844786
    G6_2  COST  -159.268847256
    G6_2  PB6  -1
    G6_2  DM2  1
    G6_2  Q2_0  0.0108621856353
    G6_2  Q2_1  -0.106704160015
    G6_2  Q2_2  0.0731184908564
    G6_2  Q2_3  0.00519453972321
    G6_2  Q2_4  0.01908511331
    G6_2  Q2_5  0.0755958660202
    G6_2  Q2_6  0.0222331119333
    G6_2  Q2_7  -0.0968214356546
    G6_4  COST  -137.510572437
    G6_4  PB6  -1
    G6_4  DM4  1
    G6_4  Q4_0  0.0291124046412
    G6_4  Q4_1  -0.0770144300271
    G6_4  Q4_2  0.0115412062168
    G6_4  Q4_3  -0.011279867434
    G6_4  Q4_4  0.0116596221638
    G6_4  Q4_5  0.090217860013
    G6_4  Q4_6  0.0341077325485
    G6_4  Q4_7  -0.136809743066
    G6_6  COST  -103.656002187
    G6_6  PB6  -1
    G6_6  DM6  1
    G6_6  Q6_0  0.0176656644648
    G6_6  Q6_1  -0.0728760144334
    G6_6  Q6_2  0.0557796496304
    G6_6  Q6_3  0.00837628852722
    G6_6  Q6_4  0.0151471678306
    G6_6  Q6_5  0.0965347112261
    G6_6  Q6_6  0.0533261616503
    G6_6  Q6_7  -0.124973181405
    G6_7  COST  -188.467036352
    G6_7  PB6  -1
    G6_7  DM7  1
    G6_7  Q7_0  0.029729250463
    G6_7  Q7_1  -0.067141096051
    G6_7  Q7_2  0.0136790355367
    G6_7  Q7_3  -0.0618591015758
    G6_7  Q7_4  0.0151471678306
    G6_7  Q7_5  0.121404410445
    G6_7  Q7_6  0.0219183134257
    G6_7  Q7_7  -0.0850131733926
    G6_8  COST  -106.767755964
    G6_8  PB6  -1
    G6_8  DM8  1
    G6_8  Q8_0  0.00136254687322
    G6_8  Q8_1  -0.0800863027454
    G6_8  Q8_2  0.0582461272854
    G6_8  Q8_3  -0.0139356699249
    G6_8  Q8_4  0.0176863877674
    G6_8  Q8_5  0.0842966209945
    G6_8  Q8_6  0.0441174864836
    G6_8  Q8_7  -0.087879506082
    G6_9  COST  -102.291948084
    G6_9  PB6  -1
    G6_9  DM9  1
    G6_9  Q9_0  0.013676564907
    G6_9  Q9_1  -0.0994335029943
    G6_9  Q9_2  0.042138749683
    G6_9  Q9_3  -0.00132213177027
    G6_9  Q9_4  0.0163611249459
    G6_9  Q9_5  0.0916821546997
    G6_9  Q9_6  0.059698600246
    G6_9  Q9_7  -0.0827444503777
    G6_13  COST  -113.646669801
    G6_13  PB6  -1
    G6_13  DM13  1
    G6_13  Q13_0  0.0208888254239
    G6_13  Q13_1  -0.115232824397
    G6_13  Q13_2  -0.0155977570727
    G6_13  Q13_3  -0.00449631622816
    G6_13  Q13_4  0.00999846524475
    G6_13  Q13_5  0.0572436221953
    G6_13  Q13_6  0.0679581523714
    G6_13  Q13_7  -0.144796774383
    G6_14  COST  -130.595506027
    G6_14  PB6  -1
    G6_14  DM14  1
    G6_14  Q14_0  0.018202857958
    G6_14  Q14_1  -0.0964157210561
    G6_14  Q14_2  0.106441773326
    G6_14  Q14_3  0.0042783645648
    G6_14  Q14_4  0.01908511331
    G6_14  Q14_5  0.0988165268644
    G6_14  Q14_6  0.0322588154454
    G6_14  Q14_7  -0.0743098161894
    G6_16  COST  -183.841217894
    G6_16  PB6  -1
    G6_16  DM16  1
    G6_16  Q16_0  0.0170996273933
    G6_16  Q16_1  -0.111807489287
    G6_16  Q16_2  0.0188856101729
    G6_16  Q16_3  -0.0100443990812
    G6_16  Q16_4  0.00749360583972
    G6_16  Q16_5  0.0836273321503
    G6_16  Q16_6  0.0549596955843
    G6_16  Q16_7  -0.104250478181
    G6_18  COST  -175.859057143
    G6_18  PB6  -1
    G6_18  DM18  1
    G6_18  Q18_0  0.00347516378307
    G6_18  Q18_1  -0.136508289592
    G6_18  Q18_2  0.0412232898095
    G6_18  Q18_3  -0.011103371955
    G6_18  Q18_4  0.0360906949365
    G6_18  Q18_5  0.0906953100288
    G6_18  Q18_6  0.0159841746238
    G6_18  Q18_7  -0.10502368491
    G6_19  COST  -186.574135721
    G6_19  PB6  -1
    G6_19  DM19  1
    G6_19  Q19_0  0.000788842926602
    G6_19  Q19_1  -0.0840152715765
    G6_19  Q19_2  0.0395366832673
    G6_19  Q19_3  -0.00608477553887
    G6_19  Q19_4  0.030159734278
    G6_19  Q19_5  0.11574492838
    G6_19  Q19_6  0.0280669955098
    G6_19  Q19_7  -0.0479524917262
    G6_23  COST  -170.438674511
    G6_23  PB6  -1
    G6_23  DM23  1
    G6_23  Q23_0  0.0203516319307
    G6_23  Q23_1  -0.0713142408406
    G6_23  Q23_2  0.0222446380848
    G6_23  Q23_3  -0.00484570406165
    G6_23  Q23_4  0.0196891703714
    G6_23  Q23_5  0.101684271337
    G6_23  Q23_6  0.0600748547787
    G6_23  Q23_7  -0.128278155996
    G6_24  COST  -162.878154135
    G6_24  PB6  -1
    G6_24  DM24  1
    G6_24  Q24_0  0.0209282629588
    G6_24  Q24_1  -0.0705495850563
    G6_24  Q24_2  0.0700468897578
    G6_24  Q24_3  -0.0110033448587
    G6_24  Q24_4  0.0118124202052
    G6_24  Q24_5  0.0151744770925
    G6_24  Q24_6  0.0197599377503
    G6_24  Q24_7  -0.0772454418284
    G6_26  COST  -149.011681845
    G6_26  PB6  -1
    G6_26  DM26  1
    G6_26  Q26_0  0.027263947671
    G6_26  Q26_1  -0.10294872445
    G6_26  Q26_2  0.0111223190424
    G6_26  Q26_3  0.000862860748947
    G6_26  Q26_4  0.00353413696705
    G6_26  Q26_5  0.121404410445
    G6_26  Q26_6  0.00472084076105
    G6_26  Q26_7  -0.0850131733926
    G6_28  COST  -132.687660165
    G6_28  PB6  -1
    G6_28  DM28  1
    G6_28  Q28_0  0.0139310295242
    G6_28  Q28_1  -0.0796853171715
    G6_28  Q28_2  0.0513429290626
    G6_28  Q28_3  0.00192835920682
    G6_28  Q28_4  0.0127228930814
    G6_28  Q28_5  0.0788054014735
    G6_28  Q28_6  0.0201982251033
    G6_28  Q28_7  -0.0796694614709
    G6_29  COST  -117.226565852
    G6_29  PB6  -1
    G6_29  DM29  1
    G6_29  Q29_0  0.006703414236
    G6_29  Q29_1  -0.0637273064993
    G6_29  Q29_2  0.0613982887943
    G6_29  Q29_3  -0.0078022837978
    G6_29  Q29_4  0.0249518765311
    G6_29  Q29_5  0.121400180627
    G6_29  Q29_6  0.00532805820793
    G6_29  Q29_7  -0.0846182729762
    G6_32  COST  -170.549284717
    G6_32  PB6  -1
    G6_32  DM32  1
    G6_32  Q32_0  0.00235188858225
    G6_32  Q32_1  -0.106704160015
    G6_32  Q32_2  0.00629520339098
    G6_32  Q32_3  0.00103543289874
    G6_32  Q32_4  0.010069324458
    G6_32  Q32_5  0.0872046581257
    G6_32  Q32_6  0.0193216503972
    G6_32  Q32_7  -0.0847247429409
    G6_36  COST  -109.496117872
    G6_36  PB6  -1
    G6_36  DM36  1
    G6_36  Q36_0  0.0107850271002
    G6_36  Q36_1  -0.11474349081
    G6_36  Q36_2  -0.0138646729535
    G6_36  Q36_3  -0.00402403514678
    G6_36  Q36_4  0.0127195878151
    G6_36  Q36_5  0.116371409822
    G6_36  Q36_6  0.0378773398512
    G6_36  Q36_7  -0.121414678063
    G6_38  COST  -168.206235695
    G6_38  PB6  -1
    G6_38  DM38  1
    G6_38  Q38_0  0.0170996273933
    G6_38  Q38_1  -0.0674131917485
    G6_38  Q38_2  0.0585447690876
    G6_38  Q38_3  0.00833558887849
    G6_38  Q38_4  0.0177747797328
    G6_38  Q38_5  0.118487775635
    G6_38  Q38_6  0.0434958642569
    G6_38  Q38_7  -0.0796325307999
    G6_39  COST  -148.23927624
    G6_39  PB6  -1
    G6_39  DM39  1
    G6_39  Q39_0  0.00129083387989
    G6_39  Q39_1  -0.0964621536258
    G6_39  Q39_2  -0.037610716372
    G6_39  Q39_3  -0.00154333961646
    G6_39  Q39_4  -0.00286945123455
    G6_39  Q39_5  0.120130298474
    G6_39  Q39_6  0.0504646814068
    G6_39  Q39_7  -0.0841119383815
    G7_0  COST  -152.34227309
    G7_0  PB7  -1
    G7_0  DM0  1
    G7_0  Q0_0  0.00127751006467
    G7_0  Q0_1  0.0145755612385
    G7_0  Q0_2  0.0137106944267
    G7_0  Q0_3  0.00636359606761
    G7_0  Q0_4  -0.0580917524149
    G7_0  Q0_5  0.0138506170257
    G7_0  Q0_6  -0.166831996038
    G7_0  Q0_7  0.018697688635
    G7_1  COST  -138.180720418
    G7_1  PB7  -1
    G7_1  DM1  1
    G7_1  Q1_0  0.0144256032071
    G7_1  Q1_1  0.0132811329841
    G7_1  Q1_2  0.00843303271092
    G7_1  Q1_3  -0.049520261268
    G7_1  Q1_4  -0.0729123614406
    G7_1  Q1_5  0.0364385006058
    G7_1  Q1_6  -0.164174358639
    G7_1  Q1_7  0.0297785341601
    G7_2  COST  -159.268847256
    G7_2  PB7  -1
    G7_2  DM2  1
    G7_2  Q2_0  0.00942792576874
    G7_2  Q2_1  0.0139113338405
    G7_2  Q2_2  0.0521344795532
    G7_2  Q2_3  0.0184158574259
    G7_2  Q2_4  -0.0708838451782
    G7_2  Q2_5  -0.00937004381848
    G7_2  Q2_6  -0.178556358111
    G7_2  Q2_7  0.0542280977669
    G7_4  COST  -137.510572437
    G7_4  PB7  -1
    G7_4  DM4  1
    G7_4  Q4_0  0.0276781447746
    G7_4  Q4_1  0.0436010638283
    G7_4  Q4_2  -0.00944280508647
    G7_4  Q4_3  0.00194145026864
    G7_4  Q4_4  -0.0783093363243
    G7_4  Q4_5  0.00525195017427
    G7_4  Q4_6  -0.166681737495
    G7_4  Q4_7  0.0142397903557
    G7_5  COST  -131.682337746
    G7_5  PB7  -1
    G7_5  DM5  1
    G7_5  Q5_0  0.00465211251745
    G7_5  Q5_1  0.0296389931444
    G7_5  Q5_2  0.0260619813607
    G7_5  Q5_3  0.0272114947625
    G7_5  Q5_4  -0.0591018293295
    G7_5  Q5_5  0.00186562357251
    G7_5  Q5_6  -0.154005215518
    G7_5  Q5_7  0.0186102921331
    G7_8  COST  -106.767755964
    G7_8  PB7  -1
    G7_8  DM8  1
    G7_8  Q8_0  -7.17129933274e-05
    G7_8  Q8_1  0.04052919111
    G7_8  Q8_2  0.0372621159822
    G7_8  Q8_3  -0.000714352222199
    G7_8  Q8_4  -0.0722825707208
    G7_8  Q8_5  -0.000669288844177
    G7_8  Q8_6  -0.15667198356
    G7_8  Q8_7  0.0631700273395
    G7_9  COST  -102.291948084
    G7_9  PB7  -1
    G7_9  DM9  1
    G7_9  Q9_0  0.0122423050404
    G7_9  Q9_1  0.0211819908612
    G7_9  Q9_2  0.0211547383797
    G7_9  Q9_3  0.0118991859324
    G7_9  Q9_4  -0.0736078335422
    G7_9  Q9_5  0.00671624486104
    G7_9  Q9_6  -0.141090869798
    G7_9  Q9_7  0.0683050830437
    G7_10  COST  -119.377262621
    G7_10  PB7  -1
    G7_10  DM10  1
    G7_10  Q10_0  0.000488410402183
    G7_10  Q10_1  0.00929733815585
    G7_10  Q10_2  0.022330001623
    G7_10  Q10_3  0.00335341410039
    G7_10  Q10_4  -0.0722825707208
    G7_10  Q10_5  0.0349696086574
    G7_10  Q10_6  -0.143320053473
    G7_10  Q10_7  0.0353011311812
    G7_12  COST  -171.498955341
    G7_12  PB7  -1
    G7_12  DM12  1
    G7_12  Q12_0  -0.000276851351394
    G7_12  Q12_1  0.0088080045687
    G7_12  Q12_2  0.0303589177593
    G7_12  Q12_3  0.0163030377493
    G7_12  Q12_4  -0.0694759219787
    G7_12  Q12_5  0.0364934882321
    G7_12  Q12_6  -0.174924871804
    G7_12  Q12_7  0.0631133349126
    G7_13  COST  -113.646669801
    G7_13  PB7  -1
    G7_13  DM13  1
    G7_13  Q13_0  0.0194545655573
    G7_13  Q13_1  0.00538266945865
    G7_13  Q13_2  -0.0365817683759
    G7_13  Q13_3  0.0087250014745
    G7_13  Q13_4  -0.0799704932434
    G7_13  Q13_5  -0.0277222876434
    G7_13  Q13_6  -0.132831317672
    G7_13  Q13_7  0.00625275903884
    G7_15  COST  -101.192354289
    G7_15  PB7  -1
    G7_15  DM15  1
    G7_15  Q15_0  0.0185107425443
    G7_15  Q15_1  -0.0282555308314
    G7_15  Q15_2  0.0348628695038
    G7_15  Q15_3  0.0167877678595
    G7_15  Q15_4  -0.00684901645023
    G7_15  Q15_5  0.0124167447894
    G7_15  Q15_6  -0.148949047687
    G7_15  Q15_7  0.0231591115609
    G7_16  COST  -183.841217894
    G7_16  PB7  -1
    G7_16  DM16  1
    G7_16  Q16_0  0.0156653675268
    G7_16  Q16_1  0.0088080045687
    G7_16  Q16_2  -0.00209840113033
    G7_16  Q16_3  0.00317691862142
    G7_16  Q16_4  -0.0824753526485
    G7_16  Q16_5  -0.00133857768835
    G7_16  Q16_6  -0.145829774459
    G7_16  Q16_7  0.0467990552408
    G7_18  COST  -175.859057143
    G7_18  PB7  -1
    G7_18  DM18  1
    G7_18  Q18_0  0.00204090391652
    G7_18  Q18_1  -0.0158927957367
    G7_18  Q18_2  0.0202392785062
    G7_18  Q18_3  0.00211794574761
    G7_18  Q18_4  -0.0538782635517
    G7_18  Q18_5  0.00572940019012
    G7_18  Q18_6  -0.18480529542
    G7_18  Q18_7  0.0460258485115
    G7_19  COST  -186.574135721
    G7_19  PB7  -1
    G7_19  DM19  1
    G7_19  Q19_0  -0.000645416939947
    G7_19  Q19_1  0.036600222279
    G7_19  Q19_2  0.018552671964
    G7_19  Q19_3  0.00713654216379
    G7_19  Q19_4  -0.0598092242102
    G7_19  Q19_5  0.0307790185412
    G7_19  Q19_6  -0.172722474534
    G7_19  Q19_7  0.103097041695
    G7_20  COST  -165.470681874
    G7_20  PB7  -1
    G7_20  DM20  1
    G7_20  Q20_0  0.00408039483029
    G7_20  Q20_1  0.0145147303405
    G7_20  Q20_2  0.00352578972995
    G7_20  Q20_3  0.000529486436903
    G7_20  Q20_4  -0.0620304060071
    G7_20  Q20_5  0.0116998086713
    G7_20  Q20_6  -0.154571435038
    G7_20  Q20_7  0.0134339222142
    G7_21  COST  -123.466766883
    G7_21  PB7  -1
    G7_21  DM21  1
    G7_21  Q21_0  0.00115027775603
    G7_21  Q21_1  0.0113694935233
    G7_21  Q21_2  0.0483885752932
    G7_21  Q21_3  0.00826820296531
    G7_21  Q21_4  -0.0351033243488
    G7_21  Q21_5  0.0131336809076
    G7_21  Q21_6  -0.179966875001
    G7_21  Q21_7  0.0116174441772
    G7_27  COST  -159.175234463
    G7_27  PB7  -1
    G7_27  DM27  1
    G7_27  Q27_0  -0.000834066869382
    G7_27  Q27_1  0.0154497820369
    G7_27  Q27_2  0.0202392785062
    G7_27  Q27_3  0.00211794574761
    G7_27  Q27_4  -0.069977759586
    G7_27  Q27_5  0.0173176313238
    G7_27  Q27_6  -0.145513332019
    G7_27  Q27_7  0.0192220676466
    G7_28  COST  -132.687660165
    G7_28  PB7  -1
    G7_28  DM28  1
    G7_28  Q28_0  0.0124967696577
    G7_28  Q28_1  0.040930176684
    G7_28  Q28_2  0.0303589177593
    G7_28  Q28_3  0.0151496769095
    G7_28  Q28_4  -0.0772460654068
    G7_28  Q28_5  -0.00616050836519
    G7_28  Q28_6  -0.18059124494
    G7_28  Q28_7  0.0713800719506
    G7_29  COST  -117.226565852
    G7_29  PB7  -1
    G7_29  DM29  1
    G7_29  Q29_0  0.00526915436945
    G7_29  Q29_1  0.0568881873562
    G7_29  Q29_2  0.0404142774911
    G7_29  Q29_3  0.00541903390486
    G7_29  Q29_4  -0.0650170819571
    G7_29  Q29_5  0.0364342707884
    G7_29  Q29_6  -0.195461411836
    G7_29  Q29_7  0.0664312604453
    G7_31  COST  -100.259410695
    G7_31  PB7  -1
    G7_31  DM31  1
    G7_31  Q31_0  0.00727968150594
    G7_31  Q31_1  0.0578291012111
    G7_31  Q31_2  0.0426014598098
    G7_31  Q31_3  0.00416819017461
    G7_31  Q31_4  -0.0484927898529
    G7_31  Q31_5  0.00238725007922
    G7_31  Q31_6  -0.168051526532
    G7_31  Q31_7  0.0668905236141
    G7_32  COST  -170.549284717
    G7_32  PB7  -1
    G7_32  DM32  1
    G7_32  Q32_0  0.000917628715697
    G7_32  Q32_1  0.0139113338405
    G7_32  Q32_2  -0.0146888079123
    G7_32  Q32_3  0.0142567506014
    G7_32  Q32_4  -0.0798996340302
    G7_32  Q32_5  0.00223874828701
    G7_32  Q32_6  -0.181467819647
    G7_32  Q32_7  0.0663247904806
    G7_34  COST  -155.512082857
    G7_34  PB7  -1
    G7_34  DM34  1
    G7_34  Q34_0  -0.000415277027092
    G7_34  Q34_1  0.05197754826
    G7_34  Q34_2  0.0373480562876
    G7_34  Q34_3  -0.0021430566666
    G7_34  Q34_4  -0.0448590984592
    G7_34  Q34_5  0.0345379071929
    G7_34  Q34_6  -0.185243315124
    G7_34  Q34_7  0.0552601010735
    G7_35  COST  -153.515246559
    G7_35  PB7  -1
    G7_35  DM35  1
    G7_35  Q35_0  0.0214000247701
    G7_35  Q35_1  0.0141213272408
    G7_35  Q35_2  0.0321938024132
    G7_35  Q35_3  -0.0264108060096
    G7_35  Q35_4  -0.0757310503732
    G7_35  Q35_5  -0.00535431075342
    G7_35  Q35_6  -0.13607566643
    G7_35  Q35_7  0.0192220676466
    G7_36  COST  -109.496117872
    G7_36  PB7  -1
    G7_36  DM36  1
    G7_36  Q36_0  0.00935076723368
    G7_36  Q36_1  0.0058720030458
    G7_36  Q36_2  -0.0348486842568
    G7_36  Q36_3  0.00919728255587
    G7_36  Q36_4  -0.0772493706731
    G7_36  Q36_5  0.0314054999832
    G7_36  Q36_6  -0.162912130193
    G7_36  Q36_7  0.0296348553584
    G7_39  COST  -148.23927624
    G7_39  PB7  -1
    G7_39  DM39  1
    G7_39  Q39_0  -0.000143425986655
    G7_39  Q39_1  0.0241533402296
    G7_39  Q39_2  -0.0585947276752
    G7_39  Q39_3  0.0116779780862
    G7_39  Q39_4  -0.0928384097227
    G7_39  Q39_5  0.0351643886349
    G7_39  Q39_6  -0.150324788637
    G7_39  Q39_7  0.0669375950399
    G8_0  COST  -152.34227309
    G8_0  PB8  -1
    G8_0  DM0  1
    G8_0  Q0_0  -0.179872283143
    G8_0  Q0_1  0.00478888949555
    G8_0  Q0_2  0.0720180610726
    G8_0  Q0_3  -0.0103091646308
    G8_0  Q0_4  0.0605717184188
    G8_0  Q0_5  0.148315805735
    G8_0  Q0_6  0.135193189575
    G8_0  Q0_7  -0.125064006477
    G8_2  COST  -159.268847256
    G8_2  PB8  -1
    G8_2  DM2  1
    G8_2  Q2_0  -0.171721867439
    G8_2  Q2_1  0.0041246620975
    G8_2  Q2_2  0.110441846199
    G8_2  Q2_3  0.00174309672743
    G8_2  Q2_4  0.0477796256555
    G8_2  Q2_5  0.125095144891
    G8_2  Q2_6  0.123468827502
    G8_2  Q2_7  -0.0895335973448
    G8_5  COST  -131.682337746
    G8_5  PB8  -1
    G8_5  DM5  1
    G8_5  Q5_0  -0.17649768069
    G8_5  Q5_1  0.0198523214014
    G8_5  Q5_2  0.0843693480066
    G8_5  Q5_3  0.0105387340641
    G8_5  Q5_4  0.0595616415042
    G8_5  Q5_5  0.136330812282
    G8_5  Q5_6  0.148019970095
    G8_5  Q5_7  -0.125151402979
    G8_8  COST  -106.767755964
    G8_8  PB8  -1
    G8_8  DM8  1
    G8_8  Q8_0  -0.181221506201
    G8_8  Q8_1  0.0307425193671
    G8_8  Q8_2  0.095569482628
    G8_8  Q8_3  -0.0173871129206
    G8_8  Q8_4  0.0463809001129
    G8_8  Q8_5  0.133795899866
    G8_8  Q8_6  0.145353202053
    G8_8  Q8_7  -0.0805916677722
    G8_10  COST  -119.377262621
    G8_10  PB8  -1
    G8_10  DM10  1
    G8_10  Q10_0  -0.180661382806
    G8_10  Q10_1  -0.00048933358715
    G8_10  Q10_2  0.0806373682689
    G8_10  Q10_3  -0.0133193465981
    G8_10  Q10_4  0.0463809001129
    G8_10  Q10_5  0.169434797367
    G8_10  Q10_6  0.15870513214
    G8_10  Q10_7  -0.10846056393
    G8_11  COST  -112.2567622
    G8_11  PB8  -1
    G8_11  DM11  1
    G8_11  Q11_0  -0.166184792633
    G8_11  Q11_1  -0.00742779916271
    G8_11  Q11_2  0.0699399877292
    G8_11  Q11_3  -0.000554584423734
    G8_11  Q11_4  0.0419595123401
    G8_11  Q11_5  0.175217648565
    G8_11  Q11_6  0.116781870488
    G8_11  Q11_7  -0.0735464437916
    G8_12  COST  -171.498955341
    G8_12  PB8  -1
    G8_12  DM12  1
    G8_12  Q12_0  -0.181426644559
    G8_12  Q12_1  -0.0009786671743
    G8_12  Q12_2  0.0886662844052
    G8_12  Q12_3  -0.000369722949156
    G8_12  Q12_4  0.049187548855
    G8_12  Q12_5  0.170958676942
    G8_12  Q12_6  0.127100313809
    G8_12  Q12_7  -0.0806483601991
    G8_13  COST  -113.646669801
    G8_13  PB8  -1
    G8_13  DM13  1
    G8_13  Q13_0  -0.16169522765
    G8_13  Q13_1  -0.00440400228435
    G8_13  Q13_2  0.0217255982699
    G8_13  Q13_3  -0.00794775922395
    G8_13  Q13_4  0.0386929775903
    G8_13  Q13_5  0.106742901066
    G8_13  Q13_6  0.16919386794
    G8_13  Q13_7  -0.137508936073
    G8_16  COST  -183.841217894
    G8_16  PB8  -1
    G8_16  DM16  1
    G8_16  Q16_0  -0.165484425681
    G8_16  Q16_1  -0.0009786671743
    G8_16  Q16_2  0.0562089655155
    G8_16  Q16_3  -0.013495842077
    G8_16  Q16_4  0.0361881181853
    G8_16  Q16_5  0.133126611021
    G8_16  Q16_6  0.156195411153
    G8_16  Q16_7  -0.0969626398708
    G8_17  COST  -128.893635511
    G8_17  PB8  -1
    G8_17  DM17  1
    G8_17  Q17_0  -0.153902122861
    G8_17  Q17_1  0.0123739862925
    G8_17  Q17_2  0.0738975356569
    G8_17  Q17_3  0.0389505434151
    G8_17  Q17_4  0.0464692920783
    G8_17  Q17_5  0.132974337932
    G8_17  Q17_6  0.121433940672
    G8_17  Q17_7  -0.124015248453
    G8_19  COST  -186.574135721
    G8_19  PB8  -1
    G8_19  DM19  1
    G8_19  Q19_0  -0.181795210148
    G8_19  Q19_1  0.026813550536
    G8_19  Q19_2  0.0768600386099
    G8_19  Q19_3  -0.00953621853466
    G8_19  Q19_4  0.0588542466235
    G8_19  Q19_5  0.165244207251
    G8_19  Q19_6  0.129302711079
    G8_19  Q19_7  -0.0406646534164
    G8_20  COST  -165.470681874
    G8_20  PB8  -1
    G8_20  DM20  1
    G8_20  Q20_0  -0.177069398377
    G8_20  Q20_1  0.00472805859755
    G8_20  Q20_2  0.0618331563758
    G8_20  Q20_3  -0.0161432742615
    G8_20  Q20_4  0.0566330648266
    G8_20  Q20_5  0.146164997381
    G8_20  Q20_6  0.147453750575
    G8_20  Q20_7  -0.130327772897
    G8_22  COST  -144.293092726
    G8_22  PB8  -1
    G8_22  DM22  1
    G8_22  Q22_0  -0.128721186915
    G8_22  Q22_1  -0.00742779916271
    G8_22  Q22_2  0.12384590465
    G8_22  Q22_3  -0.0155476114262
    G8_22  Q22_4  0.0314676298979
    G8_22  Q22_5  0.140573972447
    G8_22  Q22_6  0.156411911472
    G8_22  Q22_7  -0.074264169662
    G8_24  COST  -162.878154135
    G8_24  PB8  -1
    G8_24  DM24  1
    G8_24  Q24_0  -0.161655790116
    G8_24  Q24_1  0.0402792370562
    G8_24  Q24_2  0.1073702451
    G8_24  Q24_3  -0.0144547878544
    G8_24  Q24_4  0.0405069325508
    G8_24  Q24_5  0.0646737559636
    G8_24  Q24_6  0.120995653319
    G8_24  Q24_7  -0.0699576035185
    G8_26  COST  -149.011681845
    G8_26  PB8  -1
    G8_26  DM26  1
    G8_26  Q26_0  -0.155320105403
    G8_26  Q26_1  0.00788009766258
    G8_26  Q26_2  0.048445674385
    G8_26  Q26_3  -0.00258858224684
    G8_26  Q26_4  0.0322286493126
    G8_26  Q26_5  0.170903689316
    G8_26  Q26_6  0.10595655633
    G8_26  Q26_7  -0.0777253350828
    G8_30  COST  -162.75162392
    G8_30  PB8  -1
    G8_30  DM30  1
    G8_30  Q30_0  -0.145830893411
    G8_30  Q30_1  0.0116865426096
    G8_30  Q30_2  0.106632696118
    G8_30  Q30_3  -0.0124049663584
    G8_30  Q30_4  0.0364064011817
    G8_30  Q30_5  0.0502518652467
    G8_30  Q30_6  0.126931611086
    G8_30  Q30_7  -0.0858684325577
    G8_31  COST  -100.259410695
    G8_31  PB8  -1
    G8_31  DM31  1
    G8_31  Q31_0  -0.173870111702
    G8_31  Q31_1  0.0480424294681
    G8_31  Q31_2  0.100908826456
    G8_31  Q31_3  -0.0125045705238
    G8_31  Q31_4  0.0701706809808
    G8_31  Q31_5  0.136852438789
    G8_31  Q31_6  0.13397365908
    G8_31  Q31_7  -0.0768711714976
    G8_32  COST  -170.549284717
    G8_32  PB8  -1
    G8_32  DM32  1
    G8_32  Q32_0  -0.180232164492
    G8_32  Q32_1  0.0041246620975
    G8_32  Q32_2  0.0436185587336
    G8_32  Q32_3  -0.00241601009705
    G8_32  Q32_4  0.0387638368036
    G8_32  Q32_5  0.136703936997
    G8_32  Q32_6  0.120557365966
    G8_32  Q32_7  -0.0774369046311
    G8_36  COST  -109.496117872
    G8_36  PB8  -1
    G8_36  DM36  1
    G8_36  Q36_0  -0.171799025974
    G8_36  Q36_1  -0.0039146686972
    G8_36  Q36_2  0.0234586823891
    G8_36  Q36_3  -0.00747547814257
    G8_36  Q36_4  0.0414141001607
    G8_36  Q36_5  0.165870688693
    G8_36  Q36_6  0.13911305542
    G8_36  Q36_7  -0.114126839753
    G8_39  COST  -148.23927624
    G8_39  PB8  -1
    G8_39  DM39  1
    G8_39  Q39_0  -0.181293219194
    G8_39  Q39_1  0.0143666684866
    G8_39  Q39_2  -0.000287361029367
    G8_39  Q39_3  -0.00499478261225
    G8_39  Q39_4  0.025825061111
    G8_39  Q39_5  0.169629577345
    G8_39  Q39_6  0.151700396976
    G8_39  Q39_7  -0.0768241000717
    G9_0  COST  -152.34227309
    G9_0  PB9  -1
    G9_0  DM0  1
    G9_0  Q0_0  0.0699520091222
    G9_0  Q0_1  -0.0111740754896
    G9_0  Q0_2  -0.093751896802
    G9_0  Q0_3  0.107567471525
    G9_0  Q0_4  -0.105979094929
    G9_0  Q0_5  -0.167200958924
    G9_0  Q0_6  -0.0241488220834
    G9_0  Q0_7  -0.00122355102706
    G9_5  COST  -131.682337746
    G9_5  PB9  -1
    G9_5  DM5  1
    G9_5  Q5_0  0.073326611575
    G9_5  Q5_1  0.00388935641629
    G9_5  Q5_2  -0.081400609868
    G9_5  Q5_3  0.12841537022
    G9_5  Q5_4  -0.106989171844
    G9_5  Q5_5  -0.179185952378
    G9_5  Q5_6  -0.0113220415634
    G9_5  Q5_7  -0.00131094752899
    G9_8  COST  -106.767755964
    G9_8  PB9  -1
    G9_8  DM8  1
    G9_8  Q8_0  0.0686027860642
    G9_8  Q8_1  0.0147795543819
    G9_8  Q8_2  -0.0702004752465
    G9_8  Q8_3  0.100489523235
    G9_8  Q8_4  -0.120169913235
    G9_8  Q8_5  -0.181720864794
    G9_8  Q8_6  -0.0139888096056
    G9_8  Q8_7  0.0432487876774
    G9_10  COST  -119.377262621
    G9_10  PB9  -1
    G9_10  DM10  1
    G9_10  Q10_0  0.0691629094597
    G9_10  Q10_1  -0.0164522985723
    G9_10  Q10_2  -0.0851325896057
    G9_10  Q10_3  0.104557289558
    G9_10  Q10_4  -0.120169913235
    G9_10  Q10_5  -0.146081967293
    G9_10  Q10_6  -0.000636879518186
    G9_10  Q10_7  0.0153798915192
    G9_12  COST  -171.498955341
    G9_12  PB9  -1
    G9_12  DM12  1
    G9_12  Q12_0  0.0683976477062
    G9_12  Q12_1  -0.0169416321595
    G9_12  Q12_2  -0.0771036734694
    G9_12  Q12_3  0.117506913207
    G9_12  Q12_4  -0.117363264493
    G9_12  Q12_5  -0.144558087718
    G9_12  Q12_6  -0.0322416978491
    G9_12  Q12_7  0.0431920952505
    G9_14  COST  -130.595506027
    G9_14  PB9  -1
    G9_14  DM14  1
    G9_14  Q14_0  0.085443097149
    G9_14  Q14_1  -0.00154986392879
    G9_14  Q14_2  -0.0220048292056
    G9_14  Q14_3  0.118703557725
    G9_14  Q14_4  -0.118771187693
    G9_14  Q14_5  -0.167200958924
    G9_14  Q14_6  -0.0258474806438
    G9_14  Q14_7  0.05681847757
    G9_15  COST  -101.192354289
    G9_15  PB9  -1
    G9_15  DM15  1
    G9_15  Q15_0  0.0871852416018
    G9_15  Q15_1  -0.0540051675595
    G9_15  Q15_2  -0.0725997217249
    G9_15  Q15_3  0.117991643317
    G9_15  Q15_4  -0.0547363589645
    G9_15  Q15_5  -0.168634831161
    G9_15  Q15_6  -0.00626587373256
    G9_15  Q15_7  0.00323787189877
    G9_16  COST  -183.841217894
    G9_16  PB9  -1
    G9_16  DM16  1
    G9_16  Q16_0  0.0843398665843
    G9_16  Q16_1  -0.0169416321595
    G9_16  Q16_2  -0.109560992359
    G9_16  Q16_3  0.104380794079
    G9_16  Q16_4  -0.130362695163
    G9_16  Q16_5  -0.182390153638
    G9_16  Q16_6  -0.00314660050496
    G9_16  Q16_7  0.0268778155787
    G9_17  COST  -128.893635511
    G9_17  PB9  -1
    G9_17  DM17  1
    G9_17  Q17_0  0.0959221694039
    G9_17  Q17_1  -0.00358897869268
    G9_17  Q17_2  -0.0918724222177
    G9_17  Q17_3  0.156827179571
    G9_17  Q17_4  -0.12008152127
    G9_17  Q17_5  -0.182542426728
    G9_17  Q17_6  -0.0379080709859
    G9_17  Q17_7  -0.000174793003865
    G9_19  COST  -186.574135721
    G9_19  PB9  -1
    G9_19  DM19  1
    G9_19  Q19_0  0.0680290821176
    G9_19  Q19_1  0.0108505855508
    G9_19  Q19_2  -0.0889099192647
    G9_19  Q19_3  0.108340417621
    G9_19  Q19_4  -0.107696566725
    G9_19  Q19_5  -0.150272557409
    G9_19  Q19_6  -0.0300393005794
    G9_19  Q19_7  0.0831758020332
    G9_27  COST  -159.175234463
    G9_27  PB9  -1
    G9_27  DM27  1
    G9_27  Q27_0  0.0678404321882
    G9_27  Q27_1  -0.0102998546913
    G9_27  Q27_2  -0.0872233127225
    G9_27  Q27_3  0.103321821205
    G9_27  Q27_4  -0.1178651021
    G9_27  Q27_5  -0.163733944626
    G9_27  Q27_6  -0.00283015806492
    G9_27  Q27_7  -0.000699172015461
    G9_30  COST  -162.75162392
    G9_30  PB9  -1
    G9_30  DM30  1
    G9_30  Q30_0  0.103993398855
    G9_30  Q30_1  -0.00427642237559
    G9_30  Q30_2  -0.0591372617571
    G9_30  Q30_3  0.105471669798
    G9_30  Q30_4  -0.130144412166
    G9_30  Q30_5  -0.265264899413
    G9_30  Q30_6  -0.0324104005724
    G9_30  Q30_7  0.0379720228919
    G9_33  COST  -100.650989836
    G9_33  PB9  -1
    G9_33  DM33  1
    G9_33  Q33_0  0.103993398855
    G9_33  Q33_1  0.0244582048782
    G9_33  Q33_2  -0.0544225182323
    G9_33  Q33_3  0.0347570436389
    G9_33  Q33_4  -0.101768007851
    G9_33  Q33_5  -0.148664477112
    G9_33  Q33_6  -0.0324104005724
    G9_33  Q33_7  -0.00305910312791
    G9_35  COST  -153.515246559
    G9_35  PB9  -1
    G9_35  DM35  1
    G9_35  Q35_0  0.0900745238277
    G9_35  Q35_1  -0.0116283094874
    G9_35  Q35_2  -0.0752687888155
    G9_35  Q35_3  0.0747930694481
    G9_35  Q35_4  -0.123618392888
    G9_35  Q35_5  -0.186405886703
    G9_35  Q35_6  0.00660750752474
    G9_35  Q35_7  -0.000699172015461
    G9_36  COST  -109.496117872
    G9_36  PB9  -1
    G9_36  DM36  1
    G9_36  Q36_0  0.0780252662912
    G9_36  Q36_1  -0.0198776336824
    G9_36  Q36_2  -0.142311275485
    G9_36  Q36_3  0.110401158014
    G9_36  Q36_4  -0.125136713187
    G9_36  Q36_5  -0.149646075967
    G9_36  Q36_6  -0.0202289562381
    G9_36  Q36_7  0.00971361569631
    G9_37  COST  -153.298206262
    G9_37  PB9  -1
    G9_37  DM37  1
    G9_37  Q37_0  0.0871852416018
    G9_37  Q37_1  0.0163916080051
    G9_37  Q37_2  -0.0636450897904
    G9_37  Q37_3  0.108524419746
    G9_37  Q37_4  -0.112904424471
    G9_37  Q37_5  -0.140819562177
    G9_37  Q37_6  0.000421129546239
    G9_37  Q37_7  0.0465100207832
    G9_39  COST  -148.23927624
    G9_39  PB9  -1
    G9_39  DM39  1
    G9_39  Q39_0  0.0685310730709
    G9_39  Q39_1  -0.00159629649852
    G9_39  Q39_2  -0.166057318904
    G9_39  Q39_3  0.112881853544
    G9_39  Q39_4  -0.140725752237
    G9_39  Q39_5  -0.145887187315
    G9_39  Q39_6  -0.00764161468243
    G9_39  Q39_7  0.0470163553778
    G10_1  COST  -138.180720418
    G10_1  PB10  -1
    G10_1  DM1  1
    G10_1  Q1_0  0.000880166074743
    G10_1  Q1_1  0.0486005465233
    G10_1  Q1_2  0.219263982048
    G10_1  Q1_3  -0.0648842003116
    G10_1  Q1_4  0.0497783739604
    G10_1  Q1_5  -0.187611251951
    G10_1  Q1_6  -0.0325036972259
    G10_1  Q1_7  -0.0973775171473
    G10_3  COST  -147.831627981
    G10_3  PB10  -1
    G10_3  DM3  1
    G10_3  Q3_0  0.0157512589554
    G10_3  Q3_1  0.0176887890951
    G10_3  Q3_2  0.160150778783
    G10_3  Q3_3  0.00142382881593
    G10_3  Q3_4  -0.00930807105234
    G10_3  Q3_5  -0.183611364275
    G10_3  Q3_6  0.0135140349818
    G10_3  Q3_7  -0.0561099036344
    G10_6  COST  -103.656002187
    G10_6  PB10  -1
    G10_6  DM6  1
    G10_6  Q6_0  0.00268596746589
    G10_6  Q6_1  0.0830588929613
    G10_6  Q6_2  0.245626587664
    G10_6  Q6_3  0.00623366718631
    G10_6  Q6_4  0.0478689447434
    G10_6  Q6_5  -0.212480951169
    G10_6  Q6_6  -0.0157926469802
    G10_6  Q6_7  -0.101079699291
    G10_9  COST  -102.291948084
    G10_9  PB10  -1
    G10_9  DM9  1
    G10_9  Q9_0  -0.00130313209195
    G10_9  Q9_1  0.0565014044004
    G10_9  Q9_2  0.231985687717
    G10_9  Q9_3  -0.00346475311118
    G10_9  Q9_4  0.0490829018588
    G10_9  Q9_5  -0.217333507696
    G10_9  Q9_6  -0.00942020838452
    G10_9  Q9_7  -0.0588509682636
    G10_10  COST  -119.377262621
    G10_10  PB10  -1
    G10_10  DM10  1
    G10_10  Q10_0  -0.0130570267302
    G10_10  Q10_1  0.0446167516951
    G10_10  Q10_2  0.23316095096
    G10_10  Q10_3  -0.0120105249432
    G10_10  Q10_4  0.0504081646802
    G10_10  Q10_5  -0.189080143899
    G10_10  Q10_6  -0.0116493920594
    G10_10  Q10_7  -0.0918549201261
    G10_13  COST  -113.646669801
    G10_13  PB10  -1
    G10_13  DM13  1
    G10_13  Q13_0  0.00590912842497
    G10_13  Q13_1  0.0407020829979
    G10_13  Q13_2  0.174249180961
    G10_13  Q13_3  -0.00663893756907
    G10_13  Q13_4  0.0427202421576
    G10_13  Q13_5  -0.2517720402
    G10_13  Q13_6  -0.00116065625903
    G10_13  Q13_7  -0.120903292269
    G10_14  COST  -130.595506027
    G10_14  PB10  -1
    G10_14  DM14  1
    G10_14  Q14_0  0.00322316095907
    G10_14  Q14_1  0.0595191863386
    G10_14  Q14_2  0.29628871136
    G10_14  Q14_3  0.00213574322389
    G10_14  Q14_4  0.0518068902228
    G10_14  Q14_5  -0.210199135531
    G10_14  Q14_6  -0.0368599931851
    G10_14  Q14_7  -0.0504163340753
    G10_15  COST  -101.192354289
    G10_15  PB10  -1
    G10_15  DM15  1
    G10_15  Q15_0  0.00496530541189
    G10_15  Q15_1  0.00706388270784
    G10_15  Q15_2  0.245693818841
    G10_15  Q15_3  0.00142382881593
    G10_15  Q15_4  0.115841718951
    G10_15  Q15_5  -0.211633007767
    G10_15  Q15_6  -0.0172783862738
    G10_15  Q15_7  -0.103996939747
    G10_19  COST  -186.574135721
    G10_19  PB10  -1
    G10_19  DM19  1
    G10_19  Q19_0  -0.0141908540723
    G10_19  Q19_1  0.0719196358182
    G10_19  Q19_2  0.229383621301
    G10_19  Q19_3  -0.00822739687978
    G10_19  Q19_4  0.0628815111908
    G10_19  Q19_5  -0.193270734015
    G10_19  Q19_6  -0.0410518131207
    G10_19  Q19_7  -0.0240590096121
    G10_23  COST  -170.438674511
    G10_23  PB10  -1
    G10_23  DM23  1
    G10_23  Q23_0  0.00537193493179
    G10_23  Q23_1  0.0846206665541
    G10_23  Q23_2  0.212091576119
    G10_23  Q23_3  -0.00698832540257
    G10_23  Q23_4  0.0524109472843
    G10_23  Q23_5  -0.207331391058
    G10_23  Q23_6  -0.00904395385176
    G10_23  Q23_7  -0.104384673882
    G10_27  COST  -159.175234463
    G10_27  PB10  -1
    G10_27  DM27  1
    G10_27  Q27_0  -0.0143795040017
    G10_27  Q27_1  0.0507691955761
    G10_27  Q27_2  0.231070227843
    G10_27  Q27_3  -0.013245993296
    G10_27  Q27_4  0.052712975815
    G10_27  Q27_5  -0.206732121233
    G10_27  Q27_6  -0.0138426706061
    G10_27  Q27_7  -0.107933983661
    G10_28  COST  -132.687660165
    G10_28  PB10  -1
    G10_28  DM28  1
    G10_28  Q28_0  -0.00104866747467
    G10_28  Q28_1  0.0762495902232
    G10_28  Q28_2  0.241189867096
    G10_28  Q28_3  -0.000214262134091
    G10_28  Q28_4  0.0454446699942
    G10_28  Q28_5  -0.230210260922
    G10_28  Q28_6  -0.0489205835272
    G10_28  Q28_7  -0.0557759793568
    G10_35  COST  -153.515246559
    G10_35  PB10  -1
    G10_35  DM35  1
    G10_35  Q35_0  0.00785458763774
    G10_35  Q35_1  0.04944074078
    G10_35  Q35_2  0.24302475175
    G10_35  Q35_3  -0.0417747450532
    G10_35  Q35_4  0.0469596850278
    G10_35  Q35_5  -0.22940406331
    G10_35  Q35_6  -0.00440500501649
    G10_35  Q35_7  -0.107933983661
    G10_36  COST  -109.496117872
    G10_36  PB10  -1
    G10_36  DM36  1
    G10_36  Q36_0  -0.00419466989868
    G10_36  Q36_1  0.041191416585
    G10_36  Q36_2  0.17598226508
    G10_36  Q36_3  -0.0061666564877
    G10_36  Q36_4  0.0454413647279
    G10_36  Q36_5  -0.192644252573
    G10_36  Q36_6  -0.0312414687793
    G10_36  Q36_7  -0.097521195949
    G10_39  COST  -148.23927624
    G10_39  PB10  -1
    G10_39  DM39  1
    G10_39  Q39_0  -0.013688863119
    G10_39  Q39_1  0.0594727537689
    G10_39  Q39_2  0.152236221662
    G10_39  Q39_3  -0.00368596095737
    G10_39  Q39_4  0.0298523256783
    G10_39  Q39_5  -0.188885363922
    G10_39  Q39_6  -0.0186541272237
    G10_39  Q39_7  -0.0602184562674
    G11_0  COST  -152.34227309
    G11_0  PB11  -1
    G11_0  DM0  1
    G11_0  Q0_0  0.00336267723813
    G11_0  Q0_1  -0.131999465565
    G11_0  Q0_2  -0.031991620329
    G11_0  Q0_3  -0.134371272153
    G11_0  Q0_4  0.00606046148749
    G11_0  Q0_5  0.00638812273567
    G11_0  Q0_6  -0.0325820984934
    G11_0  Q0_7  0.0302155842046
    G11_1  COST  -138.180720418
    G11_1  PB11  -1
    G11_1  DM1  1
    G11_1  Q1_0  0.0165107703806
    G11_1  Q1_1  -0.133293893819
    G11_1  Q1_2  -0.0372692820447
    G11_1  Q1_3  -0.190255129489
    G11_1  Q1_4  -0.00876014753817
    G11_1  Q1_5  0.0289760063158
    G11_1  Q1_6  -0.0299244610947
    G11_1  Q1_7  0.0412964297296
    G11_2  COST  -159.268847256
    G11_2  PB11  -1
    G11_2  DM2  1
    G11_2  Q2_0  0.0115130929422
    G11_2  Q2_1  -0.132663692963
    G11_2  Q2_2  0.0064321647975
    G11_2  Q2_3  -0.122319010795
    G11_2  Q2_4  -0.00673163127581
    G11_2  Q2_5  -0.0168325381085
    G11_2  Q2_6  -0.044306460566
    G11_2  Q2_7  0.0657459933364
    G11_5  COST  -131.682337746
    G11_5  PB11  -1
    G11_5  DM5  1
    G11_5  Q5_0  0.00673727969091
    G11_5  Q5_1  -0.116936033659
    G11_5  Q5_2  -0.019640333395
    G11_5  Q5_3  -0.113523373459
    G11_5  Q5_4  0.00505038457291
    G11_5  Q5_5  -0.00559687071753
    G11_5  Q5_6  -0.0197553179734
    G11_5  Q5_7  0.0301281877026
    G11_6  COST  -103.656002187
    G11_6  PB11  -1
    G11_6  DM6  1
    G11_6  Q6_0  0.0183165717717
    G11_6  Q6_1  -0.0988355473812
    G11_6  Q6_2  -0.0109066764285
    G11_6  Q6_3  -0.119137261991
    G11_6  Q6_4  -0.0106695767552
    G11_6  Q6_5  0.00410630709742
    G11_6  Q6_6  -0.013213410849
    G11_6  Q6_7  0.0375942475856
    G11_8  COST  -106.767755964
    G11_8  PB11  -1
    G11_8  DM8  1
    G11_8  Q8_0  0.00201345418013
    G11_8  Q8_1  -0.106045835693
    G11_8  Q8_2  -0.00844019877348
    G11_8  Q8_3  -0.141449220443
    G11_8  Q8_4  -0.00813035681839
    G11_8  Q8_5  -0.00813178313422
    G11_8  Q8_6  -0.0224220860157
    G11_8  Q8_7  0.074687922909
    G11_9  COST  -102.291948084
    G11_9  PB11  -1
    G11_9  DM9  1
    G11_9  Q9_0  0.0143274722139
    G11_9  Q9_1  -0.125393035942
    G11_9  Q9_2  -0.0245475763759
    G11_9  Q9_3  -0.128835682289
    G11_9  Q9_4  -0.00945561963982
    G11_9  Q9_5  -0.000746249429004
    G11_9  Q9_6  -0.00684097225333
    G11_9  Q9_7  0.0798229786133
    G11_10  COST  -119.377262621
    G11_10  PB11  -1
    G11_10  DM10  1
    G11_10  Q10_0  0.00257357757564
    G11_10  Q10_1  -0.137277688647
    G11_10  Q10_2  -0.0233723131326
    G11_10  Q10_3  -0.137381454121
    G11_10  Q10_4  -0.00813035681839
    G11_10  Q10_5  0.0275071143673
    G11_10  Q10_6  -0.00907015592823
    G11_10  Q10_7  0.0468190267508
    G11_13  COST  -113.646669801
    G11_13  PB11  -1
    G11_13  DM13  1
    G11_13  Q13_0  0.0215397327308
    G11_13  Q13_1  -0.141192357345
    G11_13  Q13_2  -0.0822840831316
    G11_13  Q13_3  -0.132009866747
    G11_13  Q13_4  -0.015818279341
    G11_13  Q13_5  -0.0351847819334
    G11_13  Q13_6  0.00141857987215
    G11_13  Q13_7  0.0177706546084
    G11_17  COST  -128.893635511
    G11_17  PB11  -1
    G11_17  DM17  1
    G11_17  Q17_0  0.0293328375198
    G11_17  Q17_1  -0.124414368768
    G11_17  Q17_2  -0.0301121457446
    G11_17  Q17_3  -0.0851115641075
    G11_17  Q17_4  -0.008041964853
    G11_17  Q17_5  -0.00895334506776
    G11_17  Q17_6  -0.046341347396
    G11_17  Q17_7  0.0312643422277
    G11_20  COST  -165.470681874
    G11_20  PB11  -1
    G11_20  DM20  1
    G11_20  Q20_0  0.00616556200375
    G11_20  Q20_1  -0.132060296463
    G11_20  Q20_2  -0.0421765250257
    G11_20  Q20_3  -0.140205381784
    G11_20  Q20_4  0.00212180789533
    G11_20  Q20_5  0.00423731438125
    G11_20  Q20_6  -0.0203215374935
    G11_20  Q20_7  0.0249518177837
    G11_21  COST  -123.466766883
    G11_21  PB11  -1
    G11_21  DM21  1
    G11_21  Q21_0  0.00323544492949
    G11_21  Q21_1  -0.13520553328
    G11_21  Q21_2  0.00268626053753
    G11_21  Q21_3  -0.132466665256
    G11_21  Q21_4  0.0290488895536
    G11_21  Q21_5  0.00567118661753
    G11_21  Q21_6  -0.0457169774562
    G11_21  Q21_7  0.0231353397467
    G11_25  COST  -174.481452841
    G11_25  PB11  -1
    G11_25  DM25  1
    G11_25  Q25_0  0.0293328375198
    G11_25  Q25_1  -0.131220818779
    G11_25  Q25_2  -0.0011970183912
    G11_25  Q25_3  -0.120147102452
    G11_25  Q25_4  -0.0130451128687
    G11_25  Q25_5  -0.0069067577942
    G11_25  Q25_6  -0.0405288784748
    G11_25  Q25_7  0.0581421578065
    G11_27  COST  -159.175234463
    G11_27  PB11  -1
    G11_27  DM27  1
    G11_27  Q27_0  0.00125110030407
    G11_27  Q27_1  -0.131125244766
    G11_27  Q27_2  -0.0254630362495
    G11_27  Q27_3  -0.138616922473
    G11_27  Q27_4  -0.00582554568357
    G11_27  Q27_5  0.0098551370338
    G11_27  Q27_6  -0.011263434475
    G11_27  Q27_7  0.0307399632161
    G11_32  COST  -170.549284717
    G11_32  PB11  -1
    G11_32  DM32  1
    G11_32  Q32_0  0.00300279588915
    G11_32  Q32_1  -0.132663692963
    G11_32  Q32_2  -0.0603911226679
    G11_32  Q32_3  -0.12647811762
    G11_32  Q32_4  -0.0157474201277
    G11_32  Q32_5  -0.00522374600303
    G11_32  Q32_6  -0.047217922102
    G11_32  Q32_7  0.0778426860501
    G11_38  COST  -168.206235695
    G11_38  PB11  -1
    G11_38  DM38  1
    G11_38  Q38_0  0.0177505347002
    G11_38  Q38_1  -0.0933727246963
    G11_38  Q38_2  -0.00814155697132
    G11_38  Q38_3  -0.11917796164
    G11_38  Q38_4  -0.008041964853
    G11_38  Q38_5  0.0260593715059
    G11_38  Q38_6  -0.0230437082424
    G11_38  Q38_7  0.0829348981911
    G12_0  COST  -152.34227309
    G12_0  PB12  -1
    G12_0  DM0  1
    G12_0  Q0_0  -0.0262988673206
    G12_0  Q0_1  0.0821137967258
    G12_0  Q0_2  -0.236923264446
    G12_0  Q0_3  -0.163731278096
    G12_0  Q0_4  -0.0495304818521
    G12_0  Q0_5  -0.0762848869132
    G12_0  Q0_6  -0.0262544698146
    G12_0  Q0_7  -0.138112625334
    G12_2  COST  -159.268847256
    G12_2  PB12  -1
    G12_2  DM2  1
    G12_2  Q2_0  -0.0181484516166
    G12_2  Q2_1  0.0814495693277
    G12_2  Q2_2  -0.19849947932
    G12_2  Q2_3  -0.151679016738
    G12_2  Q2_4  -0.0623225746154
    G12_2  Q2_5  -0.0995055477574
    G12_2  Q2_6  -0.0379788318872
    G12_2  Q2_7  -0.102582216202
    G12_3  COST  -147.831627981
    G12_3  PB12  -1
    G12_3  DM3  1
    G12_3  Q3_0  0.00172031870241
    G12_3  Q3_1  0.0499076110431
    G12_3  Q3_2  -0.301314129427
    G12_3  Q3_3  -0.153307106304
    G12_3  Q3_4  -0.123437535891
    G12_3  Q3_5  -0.0496971156573
    G12_3  Q3_6  0.0224208997918
    G12_3  Q3_7  -0.0857641662956
    G12_6  COST  -103.656002187
    G12_6  PB12  -1
    G12_6  DM6  1
    G12_6  Q6_0  -0.0113449727871
    G12_6  Q6_1  0.115277714909
    G12_6  Q6_2  -0.215838320546
    G12_6  Q6_3  -0.148497267934
    G12_6  Q6_4  -0.0662605200948
    G12_6  Q6_5  -0.0785667025515
    G12_6  Q6_6  -0.00688578217012
    G12_6  Q6_7  -0.130733961953
    G12_7  COST  -188.467036352
    G12_7  PB12  -1
    G12_7  DM7  1
    G12_7  Q7_0  0.000718613211155
    G12_7  Q7_1  0.121012633292
    G12_7  Q7_2  -0.25793893464
    G12_7  Q7_3  -0.218732658037
    G12_7  Q7_4  -0.0662605200948
    G12_7  Q7_5  -0.0536970033331
    G12_7  Q7_6  -0.0382936303948
    G12_7  Q7_7  -0.0907739539398
    G12_9  COST  -102.291948084
    G12_9  PB12  -1
    G12_9  DM9  1
    G12_9  Q9_0  -0.0153340723449
    G12_9  Q9_1  0.0887202263484
    G12_9  Q9_2  -0.229479220493
    G12_9  Q9_3  -0.158195688231
    G12_9  Q9_4  -0.0650465629795
    G12_9  Q9_5  -0.0834192590779
    G12_9  Q9_6  -0.000513343574482
    G12_9  Q9_7  -0.0885052309249
    G12_10  COST  -119.377262621
    G12_10  PB12  -1
    G12_10  DM10  1
    G12_10  Q10_0  -0.0270879669831
    G12_10  Q10_1  0.0768355736431
    G12_10  Q10_2  -0.22830395725
    G12_10  Q10_3  -0.166741460063
    G12_10  Q10_4  -0.063721300158
    G12_10  Q10_5  -0.0551658952816
    G12_10  Q10_6  -0.00274252724938
    G12_10  Q10_7  -0.121509182787
    G12_12  COST  -171.498955341
    G12_12  PB12  -1
    G12_12  DM12  1
    G12_12  Q12_0  -0.0278532287367
    G12_12  Q12_1  0.0763462400559
    G12_12  Q12_2  -0.220275041114
    G12_12  Q12_3  -0.153791836414
    G12_12  Q12_4  -0.0609146514159
    G12_12  Q12_5  -0.0536420157068
    G12_12  Q12_6  -0.0343473455803
    G12_12  Q12_7  -0.0936969790561
    G12_14  COST  -130.595506027
    G12_14  PB12  -1
    G12_14  DM14  1
    G12_14  Q14_0  -0.0108077792939
    G12_14  Q14_1  0.0917380082866
    G12_14  Q14_2  -0.16517619685
    G12_14  Q14_3  -0.152595191896
    G12_14  Q14_4  -0.0623225746154
    G12_14  Q14_5  -0.0762848869132
    G12_14  Q14_6  -0.027953128375
    G12_14  Q14_7  -0.0800705967366
    G12_15  COST  -101.192354289
    G12_15  PB12  -1
    G12_15  DM15  1
    G12_15  Q15_0  -0.00906563484105
    G12_15  Q15_1  0.0392827046558
    G12_15  Q15_2  -0.215771089369
    G12_15  Q15_3  -0.153307106304
    G12_15  Q15_4  0.00171225411256
    G12_15  Q15_5  -0.0777187591495
    G12_15  Q15_6  -0.00837152146376
    G12_15  Q15_7  -0.133651202408
    G12_17  COST  -128.893635511
    G12_17  PB12  -1
    G12_17  DM17  1
    G12_17  Q17_0  -0.000328707038937
    G12_17  Q17_1  0.0896988935227
    G12_17  Q17_2  -0.235043789862
    G12_17  Q17_3  -0.11447157005
    G12_17  Q17_4  -0.0636329081926
    G12_17  Q17_5  -0.0916263547166
    G12_17  Q17_6  -0.0400137187171
    G12_17  Q17_7  -0.13706386731
    G12_18  COST  -175.859057143
    G12_18  PB12  -1
    G12_18  DM18  1
    G12_18  Q18_0  -0.0255354734688
    G12_18  Q18_1  0.0516454397505
    G12_18  Q18_2  -0.230394680367
    G12_18  Q18_3  -0.167976928416
    G12_18  Q18_4  -0.0453169929889
    G12_18  Q18_5  -0.0844061037488
    G12_18  Q18_6  -0.0442277691967
    G12_18  Q18_7  -0.110784465457
    G12_21  COST  -123.466766883
    G12_21  PB12  -1
    G12_21  DM21  1
    G12_21  Q21_0  -0.0264260996293
    G12_21  Q21_1  0.0789077290105
    G12_21  Q21_2  -0.20224538358
    G12_21  Q21_3  -0.161826671198
    G12_21  Q21_4  -0.026542053786
    G12_21  Q21_5  -0.0770018230313
    G12_21  Q21_6  -0.0393893487774
    G12_21  Q21_7  -0.145192869791
    G12_22  COST  -144.293092726
    G12_22  PB12  -1
    G12_22  DM22  1
    G12_22  Q22_0  0.024852228907
    G12_22  Q22_1  0.0698971080675
    G12_22  Q22_2  -0.185095420869
    G12_22  Q22_3  -0.168969724891
    G12_22  Q22_4  -0.078634570373
    G12_22  Q22_5  -0.0840267202021
    G12_22  Q22_6  -0.00503574791712
    G12_22  Q22_7  -0.087312788519
    G12_25  COST  -174.481452841
    G12_25  PB12  -1
    G12_25  DM25  1
    G12_25  Q25_0  -0.000328707038937
    G12_25  Q25_1  0.0828924435118
    G12_25  Q25_2  -0.206128662509
    G12_25  Q25_3  -0.149507108395
    G12_25  Q25_4  -0.0686360562083
    G12_25  Q25_5  -0.0895797674431
    G12_25  Q25_6  -0.034201249796
    G12_25  Q25_7  -0.110186051732
    G12_30  COST  -162.75162392
    G12_30  PB12  -1
    G12_30  DM30  1
    G12_30  Q30_0  0.00774252241194
    G12_30  Q30_1  0.0890114498398
    G12_30  Q30_2  -0.202308629401
    G12_30  Q30_3  -0.165827079824
    G12_30  Q30_4  -0.0736957990893
    G12_30  Q30_5  -0.174348827402
    G12_30  Q30_6  -0.0345160483036
    G12_30  Q30_7  -0.0989170514147
    G12_31  COST  -100.259410695
    G12_31  PB12  -1
    G12_31  DM31  1
    G12_31  Q31_0  -0.0202966958794
    G12_31  Q31_1  0.125367336698
    G12_31  Q31_2  -0.208032499063
    G12_31  Q31_3  -0.165926683989
    G12_31  Q31_4  -0.0399315192901
    G12_31  Q31_5  -0.0877482538597
    G12_31  Q31_6  -0.027474000309
    G12_31  Q31_7  -0.0899197903546
    G12_32  COST  -170.549284717
    G12_32  PB12  -1
    G12_32  DM32  1
    G12_32  Q32_0  -0.0266587486696
    G12_32  Q32_1  0.0814495693277
    G12_32  Q32_2  -0.265322766785
    G12_32  Q32_3  -0.155838123562
    G12_32  Q32_4  -0.0713383634674
    G12_32  Q32_5  -0.0878967556519
    G12_32  Q32_6  -0.0408902934232
    G12_32  Q32_7  -0.0904855234881
    G12_33  COST  -100.650989836
    G12_33  PB12  -1
    G12_33  DM33  1
    G12_33  Q33_0  0.00774252241194
    G12_33  Q33_1  0.117746077094
    G12_33  Q33_2  -0.197593885877
    G12_33  Q33_3  -0.236541705983
    G12_33  Q33_4  -0.0453193947738
    G12_33  Q33_5  -0.0577484051004
    G12_33  Q33_6  -0.0345160483036
    G12_33  Q33_7  -0.139948177434
    G12_37  COST  -153.298206262
    G12_37  PB12  -1
    G12_37  DM37  1
    G12_37  Q37_0  -0.00906563484105
    G12_37  Q37_1  0.109679480221
    G12_37  Q37_2  -0.206816457435
    G12_37  Q37_3  -0.162774329876
    G12_37  Q37_4  -0.0564558113943
    G12_37  Q37_5  -0.0499034901657
    G12_37  Q37_6  -0.00168451818496
    G12_37  Q37_7  -0.0903790535233
    G12_38  COST  -168.206235695
    G12_38  PB12  -1
    G12_38  DM38  1
    G12_38  Q38_0  -0.0119110098585
    G12_38  Q38_1  0.120740537594
    G12_38  Q38_2  -0.213073201089
    G12_38  Q38_3  -0.148537967583
    G12_38  Q38_4  -0.0636329081926
    G12_38  Q38_5  -0.056613638143
    G12_38  Q38_6  -0.0167160795635
    G12_38  Q38_7  -0.0853933113471
    G13_0  COST  -152.34227309
    G13_0  PB13  -1
    G13_0  DM0  1
    G13_0  Q0_0  0.00076339385185
    G13_0  Q0_1  -0.099630220377
    G13_0  Q0_2  -0.195107765399
    G13_0  Q0_3  0.0206506405116
    G13_0  Q0_4  -0.0875388862601
    G13_0  Q0_5  -0.195813234699
    G13_0  Q0_6  0.161255155975
    G13_0  Q0_7  -0.237178914708
    G13_4  COST  -137.510572437
    G13_4  PB13  -1
    G13_4  DM4  1
    G13_4  Q4_0  0.0271640285618
    G13_4  Q4_1  -0.0706047177872
    G13_4  Q4_2  -0.218261264912
    G13_4  Q4_3  0.0162284947126
    G13_4  Q4_4  -0.10775647017
    G13_4  Q4_5  -0.204411901551
    G13_4  Q4_6  0.161405414518
    G13_4  Q4_7  -0.241636812988
    G13_5  COST  -131.682337746
    G13_5  PB13  -1
    G13_5  DM5  1
    G13_5  Q5_0  0.00413799630463
    G13_5  Q5_1  -0.0845667884711
    G13_5  Q5_2  -0.182756478465
    G13_5  Q5_3  0.0414985392065
    G13_5  Q5_4  -0.0885489631747
    G13_5  Q5_5  -0.207798228152
    G13_5  Q5_6  0.174081936496
    G13_5  Q5_7  -0.23726631121
    G13_8  COST  -106.767755964
    G13_8  PB13  -1
    G13_8  DM8  1
    G13_8  Q8_0  -0.000585829206151
    G13_8  Q8_1  -0.0736765905055
    G13_8  Q8_2  -0.171556343843
    G13_8  Q8_3  0.0135726922218
    G13_8  Q8_4  -0.101729704566
    G13_8  Q8_5  -0.210333140569
    G13_8  Q8_6  0.171415168453
    G13_8  Q8_7  -0.192706576004
    G13_9  COST  -102.291948084
    G13_9  PB13  -1
    G13_9  DM9  1
    G13_9  Q9_0  0.0117281888276
    G13_9  Q9_1  -0.0930237907544
    G13_9  Q9_2  -0.187663721446
    G13_9  Q9_3  0.0261862303764
    G13_9  Q9_4  -0.103054967387
    G13_9  Q9_5  -0.202947606864
    G13_9  Q9_6  0.186996282216
    G13_9  Q9_7  -0.1875715203
    G13_10  COST  -119.377262621
    G13_10  PB13  -1
    G13_10  DM10  1
    G13_10  Q10_0  -2.57058106412e-05
    G13_10  Q10_1  -0.10490844346
    G13_10  Q10_2  -0.186488458202
    G13_10  Q10_3  0.0176404585444
    G13_10  Q10_4  -0.101729704566
    G13_10  Q10_5  -0.174694243068
    G13_10  Q10_6  0.184767098541
    G13_10  Q10_7  -0.220575472162
    G13_14  COST  -130.595506027
    G13_14  PB13  -1
    G13_14  DM14  1
    G13_14  Q14_0  0.0162544818786
    G13_14  Q14_1  -0.0900060088162
    G13_14  Q14_2  -0.123360697802
    G13_14  Q14_3  0.0317867267114
    G13_14  Q14_4  -0.100330979023
    G13_14  Q14_5  -0.195813234699
    G13_14  Q14_6  0.159556497415
    G13_14  Q14_7  -0.179136886111
    G13_18  COST  -175.859057143
    G13_18  PB13  -1
    G13_18  DM18  1
    G13_18  Q18_0  0.0015267877037
    G13_18  Q18_1  -0.130098577352
    G13_18  Q18_2  -0.188579181319
    G13_18  Q18_3  0.0164049901916
    G13_18  Q18_4  -0.0833253973969
    G13_18  Q18_5  -0.203934451535
    G13_18  Q18_6  0.143281856593
    G13_18  Q18_7  -0.209850754832
    G13_19  COST  -186.574135721
    G13_19  PB13  -1
    G13_19  DM19  1
    G13_19  Q19_0  -0.00115953315277
    G13_19  Q19_1  -0.0776055593366
    G13_19  Q19_2  -0.190265787861
    G13_19  Q19_3  0.0214235866078
    G13_19  Q19_4  -0.0892563580554
    G13_19  Q19_5  -0.178884833184
    G13_19  Q19_6  0.155364677479
    G13_19  Q19_7  -0.152779561648
    G13_20  COST  -165.470681874
    G13_20  PB13  -1
    G13_20  DM20  1
    G13_20  Q20_0  0.00356627861747
    G13_20  Q20_1  -0.099691051275
    G13_20  Q20_2  -0.205292670096
    G13_20  Q20_3  0.0148165308809
    G13_20  Q20_4  -0.0914775398523
    G13_20  Q20_5  -0.197964043054
    G13_20  Q20_6  0.173515716975
    G13_20  Q20_7  -0.242442681129
    G13_21  COST  -123.466766883
    G13_21  PB13  -1
    G13_21  DM21  1
    G13_21  Q21_0  0.000636161543208
    G13_21  Q21_1  -0.102836288092
    G13_21  Q21_2  -0.160429884532
    G13_21  Q21_3  0.0225552474093
    G13_21  Q21_4  -0.064550458194
    G13_21  Q21_5  -0.196530170817
    G13_21  Q21_6  0.148120277013
    G13_21  Q21_7  -0.244259159166
    G13_24  COST  -162.878154135
    G13_24  PB13  -1
    G13_24  DM24  1
    G13_24  Q24_0  0.0189798868794
    G13_24  Q24_1  -0.0641398728164
    G13_24  Q24_2  -0.159755581371
    G13_24  Q24_3  0.016505017288
    G13_24  Q24_4  -0.107603672128
    G13_24  Q24_5  -0.279455284471
    G13_24  Q24_6  0.14705761972
    G13_24  Q24_7  -0.18207251175
    G13_25  COST  -174.481452841
    G13_25  PB13  -1
    G13_25  DM25  1
    G13_25  Q25_0  0.0267335541335
    G13_25  Q25_1  -0.098851573591
    G13_25  Q25_2  -0.164313163461
    G13_25  Q25_3  0.0348748102128
    G13_25  Q25_4  -0.106644460616
    G13_25  Q25_5  -0.209108115229
    G13_25  Q25_6  0.153308375994
    G13_25  Q25_7  -0.209252341106
    G13_27  COST  -159.175234463
    G13_27  PB13  -1
    G13_27  DM27  1
    G13_27  Q27_0  -0.00134818308221
    G13_27  Q27_1  -0.0987559995786
    G13_27  Q27_2  -0.188579181319
    G13_27  Q27_3  0.0164049901916
    G13_27  Q27_4  -0.0994248934312
    G13_27  Q27_5  -0.192346220401
    G13_27  Q27_6  0.182573819994
    G13_27  Q27_7  -0.236654535697
    G13_29  COST  -117.226565852
    G13_29  PB13  -1
    G13_29  DM29  1
    G13_29  Q29_0  0.00475503815662
    G13_29  Q29_1  -0.0573175942594
    G13_29  Q29_2  -0.168404182334
    G13_29  Q29_3  0.0197060783488
    G13_29  Q29_4  -0.0944642158023
    G13_29  Q29_5  -0.173229580937
    G13_29  Q29_6  0.132625740178
    G13_29  Q29_7  -0.189445342898
    G13_31  COST  -100.259410695
    G13_31  PB13  -1
    G13_31  DM31  1
    G13_31  Q31_0  0.00676556529312
    G13_31  Q31_1  -0.0563766804044
    G13_31  Q31_2  -0.166217000016
    G13_31  Q31_3  0.0184552346186
    G13_31  Q31_4  -0.0779399236981
    G13_31  Q31_5  -0.207276601646
    G13_31  Q31_6  0.160035625481
    G13_31  Q31_7  -0.188986079729
    G13_34  COST  -155.512082857
    G13_34  PB13  -1
    G13_34  DM34  1
    G13_34  Q34_0  -0.000929393239915
    G13_34  Q34_1  -0.0622282333556
    G13_34  Q34_2  -0.171470403538
    G13_34  Q34_3  0.0121439877774
    G13_34  Q34_4  -0.0743062323044
    G13_34  Q34_5  -0.175125944532
    G13_34  Q34_6  0.142843836889
    G13_34  Q34_7  -0.20061650227
    G14_2  COST  -159.268847256
    G14_2  PB14  -1
    G14_2  DM2  1
    G14_2  Q2_0  -0.055363551056
    G14_2  Q2_1  0.198684126381
    G14_2  Q2_2  -0.176652626211
    G14_2  Q2_3  -0.0929168932842
    G14_2  Q2_4  0.139812257558
    G14_2  Q2_5  -0.0702008426019
    G14_2  Q2_6  -0.0823532470931
    G14_2  Q2_7  0.00444261857285
    G14_3  COST  -147.831627981
    G14_3  PB14  -1
    G14_3  DM3  1
    G14_3  Q3_0  -0.035494780737
    G14_3  Q3_1  0.167142168096
    G14_3  Q3_2  -0.279467276318
    G14_3  Q3_3  -0.0945449828506
    G14_3  Q3_4  0.0786972962826
    G14_3  Q3_5  -0.0203924105018
    G14_3  Q3_6  -0.0219535154141
    G14_3  Q3_7  0.021260668479
    G14_6  COST  -103.656002187
    G14_6  PB14  -1
    G14_6  DM6  1
    G14_6  Q6_0  -0.0485600722265
    G14_6  Q6_1  0.232512271962
    G14_6  Q6_2  -0.193991467437
    G14_6  Q6_3  -0.0897351444802
    G14_6  Q6_4  0.135874312078
    G14_6  Q6_5  -0.0492619973959
    G14_6  Q6_6  -0.0512601973761
    G14_6  Q6_7  -0.0237091271779
    G14_9  COST  -102.291948084
    G14_9  PB14  -1
    G14_9  DM9  1
    G14_9  Q9_0  -0.0525491717843
    G14_9  Q9_1  0.205954783401
    G14_9  Q9_2  -0.207632367385
    G14_9  Q9_3  -0.0994335647777
    G14_9  Q9_4  0.137088269194
    G14_9  Q9_5  -0.0541145539223
    G14_9  Q9_6  -0.0448877587804
    G14_9  Q9_7  0.0185196038497
    G14_10  COST  -119.377262621
    G14_10  PB14  -1
    G14_10  DM10  1
    G14_10  Q10_0  -0.0643030664225
    G14_10  Q10_1  0.194070130696
    G14_10  Q10_2  -0.206457104141
    G14_10  Q10_3  -0.10797933661
    G14_10  Q10_4  0.138413532015
    G14_10  Q10_5  -0.025861190126
    G14_10  Q10_6  -0.0471169424553
    G14_10  Q10_7  -0.0144843480128
    G14_11  COST  -112.2567622
    G14_11  PB14  -1
    G14_11  DM11  1
    G14_11  Q11_0  -0.0498264762502
    G14_11  Q11_1  0.18713166512
    G14_11  Q11_2  -0.217154484681
    G14_11  Q11_3  -0.0952145744353
    G14_11  Q11_4  0.133992144242
    G14_11  Q11_5  -0.0200783389282
    G14_11  Q11_6  -0.0890402041069
    G14_11  Q11_7  0.020429772126
    G14_12  COST  -171.498955341
    G14_12  PB14  -1
    G14_12  DM12  1
    G14_12  Q12_0  -0.0650683281761
    G14_12  Q12_1  0.193580797109
    G14_12  Q12_2  -0.198428188005
    G14_12  Q12_3  -0.0950297129608
    G14_12  Q12_4  0.141220180757
    G14_12  Q12_5  -0.0243373105513
    G14_12  Q12_6  -0.0787217607863
    G14_12  Q12_7  0.0133278557186
    G14_14  COST  -130.595506027
    G14_14  PB14  -1
    G14_14  DM14  1
    G14_14  Q14_0  -0.0480228787333
    G14_14  Q14_1  0.208972565339
    G14_14  Q14_2  -0.143329343741
    G14_14  Q14_3  -0.0938330684426
    G14_14  Q14_4  0.139812257558
    G14_14  Q14_5  -0.0469801817577
    G14_14  Q14_6  -0.072327543581
    G14_14  Q14_7  0.0269542380381
    G14_16  COST  -183.841217894
    G14_16  PB14  -1
    G14_16  DM16  1
    G14_16  Q16_0  -0.049126109298
    G14_16  Q16_1  0.193580797109
    G14_16  Q16_2  -0.230885506895
    G14_16  Q16_3  -0.108155832089
    G14_16  Q16_4  0.128220750087
    G14_16  Q16_5  -0.0621693764717
    G14_16  Q16_6  -0.0496266634421
    G14_16  Q16_7  -0.00298642395319
    G14_22  COST  -144.293092726
    G14_22  PB14  -1
    G14_22  DM22  1
    G14_22  Q22_0  -0.0123628705324
    G14_22  Q22_1  0.18713166512
    G14_22  Q22_2  -0.16324856776
    G14_22  Q22_3  -0.110207601438
    G14_22  Q22_4  0.1235002618
    G14_22  Q22_5  -0.0547220150466
    G14_22  Q22_6  -0.0494101631231
    G14_22  Q22_7  0.0197120462556
    G14_25  COST  -174.481452841
    G14_25  PB14  -1
    G14_25  DM25  1
    G14_25  Q25_0  -0.0375438064784
    G14_25  Q25_1  0.200127000565
    G14_25  Q25_2  -0.1842818094
    G14_25  Q25_3  -0.0907449849412
    G14_25  Q25_4  0.133498775965
    G14_25  Q25_5  -0.0602750622875
    G14_25  Q25_6  -0.0785756650019
    G14_25  Q25_7  -0.00316121695706
    G14_26  COST  -149.011681845
    G14_26  PB14  -1
    G14_26  DM26  1
    G14_26  Q26_0  -0.0389617890203
    G14_26  Q26_1  0.202439561946
    G14_26  Q26_2  -0.238648798025
    G14_26  Q26_3  -0.0972485722585
    G14_26  Q26_4  0.124261281215
    G14_26  Q26_5  -0.0243922981776
    G14_26  Q26_6  -0.0998655182653
    G14_26  Q26_7  0.0162508808348
    G14_28  COST  -132.687660165
    G14_28  PB14  -1
    G14_28  DM28  1
    G14_28  Q28_0  -0.052294707167
    G14_28  Q28_1  0.225702969224
    G14_28  Q28_2  -0.198428188005
    G14_28  Q28_3  -0.0961830738006
    G14_28  Q28_4  0.133450037329
    G14_28  Q28_5  -0.0669913071486
    G14_28  Q28_6  -0.0843881339231
    G14_28  Q28_7  0.0215945927566
    G14_29  COST  -117.226565852
    G14_29  PB14  -1
    G14_29  DM29  1
    G14_29  Q29_0  -0.0595223224553
    G14_29  Q29_1  0.241660979896
    G14_29  Q29_2  -0.188372828273
    G14_29  Q29_3  -0.105913716805
    G14_29  Q29_4  0.145679020779
    G14_29  Q29_5  -0.024396527995
    G14_29  Q29_6  -0.0992583008185
    G14_29  Q29_7  0.0166457812513
    G14_35  COST  -153.515246559
    G14_35  PB14  -1
    G14_35  DM35  1
    G14_35  Q35_0  -0.0433914520546
    G14_35  Q35_1  0.198894119781
    G14_35  Q35_2  -0.196593303351
    G14_35  Q35_3  -0.13774355672
    G14_35  Q35_4  0.134965052363
    G14_35  Q35_5  -0.0661851095368
    G14_35  Q35_6  -0.0398725554124
    G14_35  Q35_7  -0.0305634115474
    G14_38  COST  -168.206235695
    G14_38  PB14  -1
    G14_38  DM38  1
    G14_38  Q38_0  -0.049126109298
    G14_38  Q38_1  0.237975094647
    G14_38  Q38_2  -0.19122634798
    G14_38  Q38_3  -0.0897758441289
    G14_38  Q38_4  0.13850192398
    G14_38  Q38_5  -0.0273089329875
    G14_38  Q38_6  -0.0610904947695
    G14_38  Q38_7  0.0216315234276
    G15_0  COST  -152.34227309
    G15_0  PB15  -1
    G15_0  DM0  1
    G15_0  Q0_0  -0.0291733201653
    G15_0  Q0_1  0.26684050951
    G15_0  Q0_2  -0.122670893977
    G15_0  Q0_3  -0.0712099560342
    G15_0  Q0_4  -0.171423447294
    G15_0  Q0_5  0.212642676248
    G15_0  Q0_6  0.0893424461554
    G15_0  Q0_7  0.000524379011596
    G15_1  COST  -138.180720418
    G15_1  PB15  -1
    G15_1  DM1  1
    G15_1  Q1_0  -0.0160252270228
    G15_1  Q1_1  0.265546081256
    G15_1  Q1_2  -0.127948555693
    G15_1  Q1_3  -0.12709381337
    G15_1  Q1_4  -0.186244056319
    G15_1  Q1_5  0.235230559828
    G15_1  Q1_6  0.0920000835542
    G15_1  Q1_7  0.0116052245367
    G15_2  COST  -159.268847256
    G15_2  PB15  -1
    G15_2  DM2  1
    G15_2  Q2_0  -0.0210229044612
    G15_2  Q2_1  0.266176282112
    G15_2  Q2_2  -0.084247108851
    G15_2  Q2_3  -0.0591576946759
    G15_2  Q2_4  -0.184215540057
    G15_2  Q2_5  0.189422015404
    G15_2  Q2_6  0.0776180840828
    G15_2  Q2_7  0.0360547881434
    G15_4  COST  -137.510572437
    G15_4  PB15  -1
    G15_4  DM4  1
    G15_4  Q4_0  -0.00277268545529
    G15_4  Q4_1  0.2958660121
    G15_4  Q4_2  -0.145824393491
    G15_4  Q4_3  -0.0756321018331
    G15_4  Q4_4  -0.191641031203
    G15_4  Q4_5  0.204044009397
    G15_4  Q4_6  0.0894927046981
    G15_4  Q4_7  -0.00393351926776
    G15_5  COST  -131.682337746
    G15_5  PB15  -1
    G15_5  DM5  1
    G15_5  Q5_0  -0.0257987177125
    G15_5  Q5_1  0.281903941416
    G15_5  Q5_2  -0.110319607043
    G15_5  Q5_3  -0.0503620573393
    G15_5  Q5_4  -0.172433524208
    G15_5  Q5_5  0.200657682795
    G15_5  Q5_6  0.102169226675
    G15_5  Q5_7  0.000436982509663
    G15_6  COST  -103.656002187
    G15_6  PB15  -1
    G15_6  DM6  1
    G15_6  Q6_0  -0.0142194256317
    G15_6  Q6_1  0.300004427694
    G15_6  Q6_2  -0.101585950077
    G15_6  Q6_3  -0.0559759458719
    G15_6  Q6_4  -0.188153485536
    G15_6  Q6_5  0.21036086061
    G15_6  Q6_6  0.1087111338
    G15_6  Q6_7  0.00790304239264
    G15_7  COST  -188.467036352
    G15_7  PB15  -1
    G15_7  DM7  1
    G15_7  Q7_0  -0.00215583963346
    G15_7  Q7_1  0.305739346076
    G15_7  Q7_2  -0.143686564171
    G15_7  Q7_3  -0.126211335975
    G15_7  Q7_4  -0.188153485536
    G15_7  Q7_5  0.235230559828
    G15_7  Q7_6  0.0773032855752
    G15_7  Q7_7  0.0478630504054
    G15_8  COST  -106.767755964
    G15_8  PB15  -1
    G15_8  DM8  1
    G15_8  Q8_0  -0.0305225432233
    G15_8  Q8_1  0.292794139382
    G15_8  Q8_2  -0.099119472422
    G15_8  Q8_3  -0.078287904324
    G15_8  Q8_4  -0.1856142656
    G15_8  Q8_5  0.198122770378
    G15_8  Q8_6  0.0995024586332
    G15_8  Q8_7  0.044996717716
    G15_13  COST  -113.646669801
    G15_13  PB15  -1
    G15_13  DM13  1
    G15_13  Q13_0  -0.0109962646726
    G15_13  Q13_1  0.25764761773
    G15_13  Q13_2  -0.17296335678
    G15_13  Q13_3  -0.0688485506273
    G15_13  Q13_4  -0.193302188122
    G15_13  Q13_5  0.171069771579
    G15_13  Q13_6  0.123343124521
    G15_13  Q13_7  -0.0119205505846
    G15_14  COST  -130.595506027
    G15_14  PB15  -1
    G15_14  DM14  1
    G15_14  Q14_0  -0.0136822321385
    G15_14  Q14_1  0.276464721071
    G15_14  Q14_2  -0.050923826381
    G15_14  Q14_3  -0.0600738698343
    G15_14  Q14_4  -0.184215540057
    G15_14  Q14_5  0.212642676248
    G15_14  Q14_6  0.087643787595
    G15_14  Q14_7  0.0585664076086
    G15_15  COST  -101.192354289
    G15_15  PB15  -1
    G15_15  DM15  1
    G15_15  Q15_0  -0.0119400876857
    G15_15  Q15_1  0.22400941744
    G15_15  Q15_2  -0.1015187189
    G15_15  Q15_3  -0.0607857842423
    G15_15  Q15_4  -0.120180711329
    G15_15  Q15_5  0.211208804012
    G15_15  Q15_6  0.107225394506
    G15_15  Q15_7  0.00498580193742
    G15_17  COST  -128.893635511
    G15_17  PB15  -1
    G15_17  DM17  1
    G15_17  Q17_0  -0.00320315988356
    G15_17  Q17_1  0.274425606307
    G15_17  Q17_2  -0.120791419393
    G15_17  Q17_3  -0.0219502479882
    G15_17  Q17_4  -0.185525873634
    G15_17  Q17_5  0.197301208445
    G15_17  Q17_6  0.0755831972529
    G15_17  Q17_7  0.00157313703479
    G15_18  COST  -175.859057143
    G15_18  PB15  -1
    G15_18  DM18  1
    G15_18  Q18_0  -0.0284099263134
    G15_18  Q18_1  0.236372152535
    G15_18  Q18_2  -0.116142309898
    G15_18  Q18_3  -0.0754556063542
    G15_18  Q18_4  -0.16720995843
    G15_18  Q18_5  0.204521459412
    G15_18  Q18_6  0.0713691467734
    G15_18  Q18_7  0.027852538888
    G15_21  COST  -123.466766883
    G15_21  PB15  -1
    G15_21  DM21  1
    G15_21  Q21_0  -0.0293005524739
    G15_21  Q21_1  0.263634441795
    G15_21  Q21_2  -0.087993013111
    G15_21  Q21_3  -0.0693053491365
    G15_21  Q21_4  -0.148435019228
    G15_21  Q21_5  0.21192574013
    G15_21  Q21_6  0.0762075671927
    G15_21  Q21_7  -0.00655586544627
    G15_24  COST  -162.878154135
    G15_24  PB15  -1
    G15_24  DM24  1
    G15_24  Q24_0  -0.0109568271377
    G15_24  Q24_1  0.302330857071
    G15_24  Q24_2  -0.0873187099496
    G15_24  Q24_3  -0.0753555792578
    G15_24  Q24_4  -0.191488233162
    G15_24  Q24_5  0.129000626476
    G15_24  Q24_6  0.0751449098999
    G15_24  Q24_7  0.0556307819697
    G15_25  COST  -174.481452841
    G15_25  PB15  -1
    G15_25  DM25  1
    G15_25  Q25_0  -0.00320315988356
    G15_25  Q25_1  0.267619156296
    G15_25  Q25_2  -0.0918762920397
    G15_25  Q25_3  -0.056985786333
    G15_25  Q25_4  -0.19052902165
    G15_25  Q25_5  0.199347795718
    G15_25  Q25_6  0.081395666174
    G15_25  Q25_7  0.0284509526135
    G15_26  COST  -149.011681845
    G15_26  PB15  -1
    G15_26  DM26  1
    G15_26  Q26_0  -0.00462114242549
    G15_26  Q26_1  0.269931717677
    G15_26  Q26_2  -0.146243280665
    G15_26  Q26_3  -0.0634893736502
    G15_26  Q26_4  -0.1997665164
    G15_26  Q26_5  0.235230559828
    G15_26  Q26_6  0.0601058129106
    G15_26  Q26_7  0.0478630504054
    G15_27  COST  -159.175234463
    G15_27  PB15  -1
    G15_27  DM27  1
    G15_27  Q27_0  -0.0312848970993
    G15_27  Q27_1  0.267714730308
    G15_27  Q27_2  -0.116142309898
    G15_27  Q27_3  -0.0754556063542
    G15_27  Q27_4  -0.183309454465
    G15_27  Q27_5  0.216109690546
    G15_27  Q27_6  0.110661110174
    G15_27  Q27_7  0.00104875802319
    G15_28  COST  -132.687660165
    G15_28  PB15  -1
    G15_28  DM28  1
    G15_28  Q28_0  -0.0179540605722
    G15_28  Q28_1  0.293195124956
    G15_28  Q28_2  -0.106022670645
    G15_28  Q28_3  -0.0624238751923
    G15_28  Q28_4  -0.190577760286
    G15_28  Q28_5  0.192631550857
    G15_28  Q28_6  0.0755831972529
    G15_28  Q28_7  0.0532067623271
    G15_29  COST  -117.226565852
    G15_29  PB15  -1
    G15_29  DM29  1
    G15_29  Q29_0  -0.0251816758605
    G15_29  Q29_1  0.309153135628
    G15_29  Q29_2  -0.0959673109131
    G15_29  Q29_3  -0.0721545181969
    G15_29  Q29_4  -0.178348776836
    G15_29  Q29_5  0.235226330011
    G15_29  Q29_6  0.0607130303575
    G15_29  Q29_7  0.0482579508219
    G15_30  COST  -162.75162392
    G15_30  PB15  -1
    G15_30  DM30  1
    G15_30  Q30_0  0.00486806956732
    G15_30  Q30_1  0.273738162624
    G15_30  Q30_2  -0.0880562589325
    G15_30  Q30_3  -0.0733057577617
    G15_30  Q30_4  -0.195588764531
    G15_30  Q30_5  0.114578735759
    G15_30  Q30_6  0.0810808676664
    G15_30  Q30_7  0.0397199529305
    G15_31  COST  -100.259410695
    G15_31  PB15  -1
    G15_31  DM31  1
    G15_31  Q31_0  -0.023171148724
    G15_31  Q31_1  0.310094049483
    G15_31  Q31_2  -0.0937801285944
    G15_31  Q31_3  -0.0734053619272
    G15_31  Q31_4  -0.161824484732
    G15_31  Q31_5  0.201179309301
    G15_31  Q31_6  0.0881229156611
    G15_31  Q31_7  0.0487172139906
    G15_32  COST  -170.549284717
    G15_32  PB15  -1
    G15_32  DM32  1
    G15_32  Q32_0  -0.0295332015142
    G15_32  Q32_1  0.266176282112
    G15_32  Q32_2  -0.151070396316
    G15_32  Q32_3  -0.0633168015004
    G15_32  Q32_4  -0.193231328909
    G15_32  Q32_5  0.201030807509
    G15_32  Q32_6  0.0747066225468
    G15_32  Q32_7  0.0481514808571
    G15_33  COST  -100.650989836
    G15_33  PB15  -1
    G15_33  DM33  1
    G15_33  Q33_0  0.00486806956732
    G15_33  Q33_1  0.302472789878
    G15_33  Q33_2  -0.0833415154077
    G15_33  Q33_3  -0.144020383921
    G15_33  Q33_4  -0.167212360215
    G15_33  Q33_5  0.231179158061
    G15_33  Q33_6  0.0810808676664
    G15_33  Q33_7  -0.00131117308925
    G15_35  COST  -153.515246559
    G15_35  PB15  -1
    G15_35  DM35  1
    G15_35  Q35_0  -0.00905080545983
    G15_35  Q35_1  0.266386275512
    G15_35  Q35_2  -0.104187785991
    G15_35  Q35_3  -0.103984358111
    G15_35  Q35_4  -0.189062745252
    G15_35  Q35_5  0.193437748469
    G15_35  Q35_6  0.120098775764
    G15_35  Q35_7  0.00104875802319
    G16_1  COST  -138.180720418
    G16_1  PB16  -1
    G16_1  DM1  1
    G16_1  Q1_0  -0.116771547193
    G16_1  Q1_1  -0.064098905795
    G16_1  Q1_2  -0.072177100982
    G16_1  Q1_3  0.0193055323877
    G16_1  Q1_4  -0.022905533507
    G16_1  Q1_5  -0.0407758128535
    G16_1  Q1_6  -0.171763756625
    G16_1  Q1_7  -0.0440419710645
    G16_2  COST  -159.268847256
    G16_2  PB16  -1
    G16_2  DM2  1
    G16_2  Q2_0  -0.121769224631
    G16_2  Q2_1  -0.0634687049386
    G16_2  Q2_2  -0.0284756541398
    G16_2  Q2_3  0.0872416510816
    G16_2  Q2_4  -0.0208770172446
    G16_2  Q2_5  -0.0865843572778
    G16_2  Q2_6  -0.186145756096
    G16_2  Q2_7  -0.0195924074578
    G16_6  COST  -103.656002187
    G16_6  PB16  -1
    G16_6  DM6  1
    G16_6  Q6_0  -0.114965745802
    G16_6  Q6_1  -0.029640559357
    G16_6  Q6_2  -0.0458144953658
    G16_6  Q6_3  0.0904233998856
    G16_6  Q6_4  -0.024814962724
    G16_6  Q6_5  -0.0656455120719
    G16_6  Q6_6  -0.155052706379
    G16_6  Q6_7  -0.0477441532086
    G16_7  COST  -188.467036352
    G16_7  PB16  -1
    G16_7  DM7  1
    G16_7  Q7_0  -0.102902159803
    G16_7  Q7_1  -0.0239056409746
    G16_7  Q7_2  -0.0879151094595
    G16_7  Q7_3  0.0201880097826
    G16_7  Q7_4  -0.024814962724
    G16_7  Q7_5  -0.0407758128535
    G16_7  Q7_6  -0.186460554604
    G16_7  Q7_7  -0.00778414519581
    G16_8  COST  -106.767755964
    G16_8  PB16  -1
    G16_8  DM8  1
    G16_8  Q8_0  -0.131268863393
    G16_8  Q8_1  -0.036850847669
    G16_8  Q8_2  -0.0433480177108
    G16_8  Q8_3  0.0681114414335
    G16_8  Q8_4  -0.0222757427872
    G16_8  Q8_5  -0.0778836023035
    G16_8  Q8_6  -0.164261381546
    G16_8  Q8_7  -0.0106504778852
    G16_9  COST  -102.291948084
    G16_9  PB16  -1
    G16_9  DM9  1
    G16_9  Q9_0  -0.11895484536
    G16_9  Q9_1  -0.0561980479179
    G16_9  Q9_2  -0.0594553953132
    G16_9  Q9_3  0.0807249795881
    G16_9  Q9_4  -0.0236010056087
    G16_9  Q9_5  -0.0704980685983
    G16_9  Q9_6  -0.148680267783
    G16_9  Q9_7  -0.0055154221809
    G16_11  COST  -112.2567622
    G16_11  PB16  -1
    G16_11  DM11  1
    G16_11  Q11_0  -0.116232149825
    G16_11  Q11_1  -0.0750211661988
    G16_11  Q11_2  -0.0689775126096
    G16_11  Q11_3  0.0849439699304
    G16_11  Q11_4  -0.02669713056
    G16_11  Q11_5  -0.0364618536041
    G16_11  Q11_6  -0.19283271311
    G16_11  Q11_7  -0.0036052539046
    G16_16  COST  -183.841217894
    G16_16  PB16  -1
    G16_16  DM16  1
    G16_16  Q16_0  -0.115531782873
    G16_16  Q16_1  -0.0685720342104
    G16_16  Q16_2  -0.0827085348233
    G16_16  Q16_3  0.0720027122771
    G16_16  Q16_4  -0.0324685247149
    G16_16  Q16_5  -0.0785528911477
    G16_16  Q16_6  -0.153419172445
    G16_16  Q16_7  -0.0270214499838
    G16_19  COST  -186.574135721
    G16_19  PB16  -1
    G16_19  DM19  1
    G16_19  Q19_0  -0.13184256734
    G16_19  Q19_1  -0.0407798165001
    G16_19  Q19_2  -0.0620574617289
    G16_19  Q19_3  0.0759623358195
    G16_19  Q19_4  -0.0098023962766
    G16_19  Q19_5  -0.0464352949181
    G16_19  Q19_6  -0.18031187252
    G16_19  Q19_7  0.0292765364706
    G16_20  COST  -165.470681874
    G16_20  PB16  -1
    G16_20  DM20  1
    G16_20  Q20_0  -0.12711675557
    G16_20  Q20_1  -0.0628653084385
    G16_20  Q20_2  -0.077084343963
    G16_20  Q20_3  0.0693552800926
    G16_20  Q20_4  -0.0120235780735
    G16_20  Q20_5  -0.065514504788
    G16_20  Q20_6  -0.162160833024
    G16_20  Q20_7  -0.0603865830104
    G16_23  COST  -170.438674511
    G16_23  PB16  -1
    G16_23  DM23  1
    G16_23  Q23_0  -0.112279778336
    G16_23  Q23_1  -0.0280787857642
    G16_23  Q23_2  -0.0793495069114
    G16_23  Q23_3  0.0772014072967
    G16_23  Q23_4  -0.0202729601832
    G16_23  Q23_5  -0.060495951961
    G16_23  Q23_6  -0.148304013251
    G16_23  Q23_7  -0.0510491277991
    G16_24  COST  -162.878154135
    G16_24  PB16  -1
    G16_24  DM24  1
    G16_24  Q24_0  -0.111703147308
    G16_24  Q24_1  -0.0273141299799
    G16_24  Q24_2  -0.0315472552384
    G16_24  Q24_3  0.0710437664997
    G16_24  Q24_4  -0.0281497103494
    G16_24  Q24_5  -0.147005746205
    G16_24  Q24_6  -0.188618930279
    G16_24  Q24_7  -1.64136315555e-05
    G16_26  COST  -149.011681845
    G16_26  PB16  -1
    G16_26  DM26  1
    G16_26  Q26_0  -0.105367462596
    G16_26  Q26_1  -0.0597132693735
    G16_26  Q26_2  -0.0904718259538
    G16_26  Q26_3  0.0829099721073
    G16_26  Q26_4  -0.0364279935876
    G16_26  Q26_5  -0.0407758128535
    G16_26  Q26_6  -0.203658027268
    G16_26  Q26_7  -0.00778414519581
    G16_28  COST  -132.687660165
    G16_28  PB16  -1
    G16_28  DM28  1
    G16_28  Q28_0  -0.118700380742
    G16_28  Q28_1  -0.0364498620951
    G16_28  Q28_2  -0.0502512159336
    G16_28  Q28_3  0.0839754705652
    G16_28  Q28_4  -0.0272392374732
    G16_28  Q28_5  -0.0833748218245
    G16_28  Q28_6  -0.188180642926
    G16_28  Q28_7  -0.00244043327406
    G16_29  COST  -117.226565852
    G16_29  PB16  -1
    G16_29  DM29  1
    G16_29  Q29_0  -0.12592799603
    G16_29  Q29_1  -0.0204918514229
    G16_29  Q29_2  -0.0401958562019
    G16_29  Q29_3  0.0742448275606
    G16_29  Q29_4  -0.0150102540235
    G16_29  Q29_5  -0.0407800426709
    G16_29  Q29_6  -0.203050809822
    G16_29  Q29_7  -0.00738924477935
    G16_31  COST  -100.259410695
    G16_31  PB16  -1
    G16_31  DM31  1
    G16_31  Q31_0  -0.123917468894
    G16_31  Q31_1  -0.019550937568
    G16_31  Q31_2  -0.0380086738832
    G16_31  Q31_3  0.0729939838303
    G16_31  Q31_4  0.0015140380807
    G16_31  Q31_5  -0.0748270633801
    G16_31  Q31_6  -0.175640924518
    G16_31  Q31_7  -0.00692998161057
    G16_32  COST  -170.549284717
    G16_32  PB16  -1
    G16_32  DM32  1
    G16_32  Q32_0  -0.130279521684
    G16_32  Q32_1  -0.0634687049386
    G16_32  Q32_2  -0.0952989416052
    G16_32  Q32_3  0.0830825442571
    G16_32  Q32_4  -0.0298928060966
    G16_32  Q32_5  -0.0749755651723
    G16_32  Q32_6  -0.189057217632
    G16_32  Q32_7  -0.00749571474407
    G16_33  COST  -100.650989836
    G16_33  PB16  -1
    G16_33  DM33  1
    G16_33  Q33_0  -0.0958782506027
    G16_33  Q33_1  -0.0271721971727
    G16_33  Q33_2  -0.0275700606965
    G16_33  Q33_3  0.00237896183696
    G16_33  Q33_4  -0.00387383740296
    G16_33  Q33_5  -0.0448272146208
    G16_33  Q33_6  -0.182682972513
    G16_33  Q33_7  -0.0569583686905
    G16_34  COST  -155.512082857
    G16_34  PB16  -1
    G16_34  DM34  1
    G16_34  Q34_0  -0.131612427427
    G16_34  Q34_1  -0.0254024905191
    G16_34  Q34_2  -0.0432620774053
    G16_34  Q34_3  0.0666827369891
    G16_34  Q34_4  0.00514772947439
    G16_34  Q34_5  -0.0426764062664
    G16_34  Q34_6  -0.19283271311
    G16_34  Q34_7  -0.0185604041511
    G16_35  COST  -153.515246559
    G16_35  PB16  -1
    G16_35  DM35  1
    G16_35  Q35_0  -0.10979712563
    G16_35  Q35_1  -0.0632587115383
    G16_35  Q35_2  -0.0484163312798
    G16_35  Q35_3  0.0424149876461
    G16_35  Q35_4  -0.0257242224396
    G16_35  Q35_5  -0.0825686242127
    G16_35  Q35_6  -0.143665064415
    G16_35  Q35_7  -0.054598437578
    G16_37  COST  -153.298206262
    G16_37  PB16  -1
    G16_37  DM37  1
    G16_37  Q37_0  -0.112686407856
    G16_37  Q37_1  -0.0352387940458
    G16_37  Q37_2  -0.0367926322546
    G16_37  Q37_3  0.0761463379438
    G16_37  Q37_4  -0.0150102540235
    G16_37  Q37_5  -0.0369822996861
    G16_37  Q37_6  -0.149851442394
    G16_37  Q37_7  -0.00738924477935
    G16_38  COST  -168.206235695
    G16_38  PB16  -1
    G16_38  DM38  1
    G16_38  Q38_0  -0.115531782873
    G16_38  Q38_1  -0.0241777366722
    G16_38  Q38_2  -0.0430493759086
    G16_38  Q38_3  0.0903827002369
    G16_38  Q38_4  -0.0221873508218
    G16_38  Q38_5  -0.0436924476634
    G16_38  Q38_6  -0.164883003772
    G16_38  Q38_7  -0.00240350260306
    G16_39  COST  -148.23927624
    G16_39  PB16  -1
    G16_39  DM39  1
    G16_39  Q39_0  -0.131340576387
    G16_39  Q39_1  -0.0532266985494
    G16_39  Q39_2  -0.139204861368
    G16_39  Q39_3  0.0805037717419
    G16_39  Q39_4  -0.0428315817892
    G16_39  Q39_5  -0.0420499248244
    G16_39  Q39_6  -0.157914186623
    G16_39  Q39_7  -0.00688291018471
    G17_0  COST  -152.34227309
    G17_0  PB17  -1
    G17_0  DM0  1
    G17_0  Q0_0  -0.185529507742
    G17_0  Q0_1  -0.0697110299455
    G17_0  Q0_2  -0.139910473647
    G17_0  Q0_3  -0.00661193513927
    G17_0  Q0_4  -0.120149779599
    G17_0  Q0_5  -0.147405464793
    G17_0  Q0_6  -0.284826245308
    G17_0  Q0_7  -0.1083528829
    G17_1  COST  -138.180720418
    G17_1  PB17  -1
    G17_1  DM1  1
    G17_1  Q1_0  -0.172381414599
    G17_1  Q1_1  -0.0710054582
    G17_1  Q1_2  -0.145188135363
    G17_1  Q1_3  -0.0624957924749
    G17_1  Q1_4  -0.134970388624
    G17_1  Q1_5  -0.124817581213
    G17_1  Q1_6  -0.282168607909
    G17_1  Q1_7  -0.0972720373747
    G17_4  COST  -137.510572437
    G17_4  PB17  -1
    G17_4  DM4  1
    G17_4  Q4_0  -0.159128873032
    G17_4  Q4_1  -0.0406855273558
    G17_4  Q4_2  -0.163063973161
    G17_4  Q4_3  -0.0110340809382
    G17_4  Q4_4  -0.140367363508
    G17_4  Q4_5  -0.156004131645
    G17_4  Q4_6  -0.284675986765
    G17_4  Q4_7  -0.112810781179
    G17_6  COST  -103.656002187
    G17_6  PB17  -1
    G17_6  DM6  1
    G17_6  Q6_0  -0.170575613208
    G17_6  Q6_1  -0.036547111762
    G17_6  Q6_2  -0.118825529747
    G17_6  Q6_3  0.00862207502299
    G17_6  Q6_4  -0.136879817841
    G17_6  Q6_5  -0.149687280432
    G17_6  Q6_6  -0.265457557664
    G17_6  Q6_7  -0.100974219519
    G17_7  COST  -188.467036352
    G17_7  PB17  -1
    G17_7  DM7  1
    G17_7  Q7_0  -0.15851202721
    G17_7  Q7_1  -0.0308121933796
    G17_7  Q7_2  -0.160926143841
    G17_7  Q7_3  -0.0616133150801
    G17_7  Q7_4  -0.136879817841
    G17_7  Q7_5  -0.124817581213
    G17_7  Q7_6  -0.296865405888
    G17_7  Q7_7  -0.061014211506
    G17_11  COST  -112.2567622
    G17_11  PB17  -1
    G17_11  DM11  1
    G17_11  Q11_0  -0.171842017232
    G17_11  Q11_1  -0.0819277186038
    G17_11  Q11_2  -0.141988546991
    G17_11  Q11_3  0.00314264506782
    G17_11  Q11_4  -0.138761985677
    G17_11  Q11_5  -0.120503621964
    G17_11  Q11_6  -0.303237564395
    G17_11  Q11_7  -0.0568353202148
    G17_12  COST  -171.498955341
    G17_12  PB17  -1
    G17_12  DM12  1
    G17_12  Q12_0  -0.187083869158
    G17_12  Q12_1  -0.0754785866154
    G17_12  Q12_2  -0.123262250315
    G17_12  Q12_3  0.0033275065424
    G17_12  Q12_4  -0.131533949163
    G17_12  Q12_5  -0.124762593587
    G17_12  Q12_6  -0.292919121074
    G17_12  Q12_7  -0.0639372366223
    G17_13  COST  -113.646669801
    G17_13  PB17  -1
    G17_13  DM13  1
    G17_13  Q13_0  -0.167352452249
    G17_13  Q13_1  -0.0789039217254
    G17_13  Q13_2  -0.19020293645
    G17_13  Q13_3  -0.00425052973239
    G17_13  Q13_4  -0.142028520427
    G17_13  Q13_5  -0.188978369462
    G17_13  Q13_6  -0.250825566943
    G17_13  Q13_7  -0.120797812496
    G17_14  COST  -130.595506027
    G17_14  PB17  -1
    G17_14  DM14  1
    G17_14  Q14_0  -0.170038419715
    G17_14  Q14_1  -0.0600868183847
    G17_14  Q14_2  -0.0681634060509
    G17_14  Q14_3  0.00452415106057
    G17_14  Q14_4  -0.132941872362
    G17_14  Q14_5  -0.147405464793
    G17_14  Q14_6  -0.286524903869
    G17_14  Q14_7  -0.0503108543028
    G17_16  COST  -183.841217894
    G17_16  PB17  -1
    G17_16  DM16  1
    G17_16  Q16_0  -0.17114165028
    G17_16  Q16_1  -0.0754785866154
    G17_16  Q16_2  -0.155719569204
    G17_16  Q16_3  -0.00979861258547
    G17_16  Q16_4  -0.144533379832
    G17_16  Q16_5  -0.162594659507
    G17_16  Q16_6  -0.26382402373
    G17_16  Q16_7  -0.080251516294
    G17_19  COST  -186.574135721
    G17_19  PB17  -1
    G17_19  DM19  1
    G17_19  Q19_0  -0.187452434746
    G17_19  Q19_1  -0.0476863689051
    G17_19  Q19_2  -0.13506849611
    G17_19  Q19_3  -0.0058389890431
    G17_19  Q19_4  -0.121867251394
    G17_19  Q19_5  -0.130477063278
    G17_19  Q19_6  -0.290716723804
    G17_19  Q19_7  -0.0239535298396
    G17_22  COST  -144.293092726
    G17_22  PB17  -1
    G17_22  DM22  1
    G17_22  Q22_0  -0.134378411514
    G17_22  Q22_1  -0.0819277186038
    G17_22  Q22_2  -0.0880826300697
    G17_22  Q22_3  -0.0118503819346
    G17_22  Q22_4  -0.14925386812
    G17_22  Q22_5  -0.155147298082
    G17_22  Q22_6  -0.263607523411
    G17_22  Q22_7  -0.0575530460852
    G17_29  COST  -117.226565852
    G17_29  PB17  -1
    G17_29  DM29  1
    G17_29  Q29_0  -0.181537863437
    G17_29  Q29_1  -0.0273984038279
    G17_29  Q29_2  -0.113206890583
    G17_29  Q29_3  -0.00755649730203
    G17_29  Q29_4  -0.127075109141
    G17_29  Q29_5  -0.124821811031
    G17_29  Q29_6  -0.313455661106
    G17_29  Q29_7  -0.0606193110895
    G17_34  COST  -155.512082857
    G17_34  PB17  -1
    G17_34  DM34  1
    G17_34  Q34_0  -0.187222294834
    G17_34  Q34_1  -0.0323090429241
    G17_34  Q34_2  -0.116273111786
    G17_34  Q34_3  -0.0151185878735
    G17_34  Q34_4  -0.106917125643
    G17_34  Q34_5  -0.126718174626
    G17_34  Q34_6  -0.303237564395
    G17_34  Q34_7  -0.0717904704613
    G17_36  COST  -109.496117872
    G17_36  PB17  -1
    G17_36  DM36  1
    G17_36  Q36_0  -0.177456250573
    G17_36  Q36_1  -0.0784145881383
    G17_36  Q36_2  -0.188469852331
    G17_36  Q36_3  -0.00377824865101
    G17_36  Q36_4  -0.139307397857
    G17_36  Q36_5  -0.129850581836
    G17_36  Q36_6  -0.280906379463
    G17_36  Q36_7  -0.0974157161764
    G17_38  COST  -168.206235695
    G17_38  PB17  -1
    G17_38  DM38  1
    G17_38  Q38_0  -0.17114165028
    G17_38  Q38_1  -0.0310842890772
    G17_38  Q38_2  -0.11606041029
    G17_38  Q38_3  0.00858137537426
    G17_38  Q38_4  -0.134252205939
    G17_38  Q38_5  -0.127734216023
    G17_38  Q38_6  -0.275287855057
    G17_38  Q38_7  -0.0556335689132
    G17_39  COST  -148.23927624
    G17_39  PB17  -1
    G17_39  DM39  1
    G17_39  Q39_0  -0.186950443793
    G17_39  Q39_1  -0.0601332509544
    G17_39  Q39_2  -0.212215895749
    G17_39  Q39_3  -0.00129755312069
    G17_39  Q39_4  -0.154896436907
    G17_39  Q39_5  -0.126091693184
    G17_39  Q39_6  -0.268319037907
    G17_39  Q39_7  -0.0601129764949
    G18_1  COST  -138.180720418
    G18_1  PB18  -1
    G18_1  DM1  1
    G18_1  Q1_0  -0.00264049822423
    G18_1  Q1_1  0.0732157979871
    G18_1  Q1_2  0.122838509155
    G18_1  Q1_3  0.0205041199584
    G18_1  Q1_4  0.0606201739318
    G18_1  Q1_5  -0.0512308961239
    G18_1  Q1_6  -0.258357439753
    G18_1  Q1_7  -0.049004324165
    G18_3  COST  -147.831627981
    G18_3  PB18  -1
    G18_3  DM3  1
    G18_3  Q3_0  0.0122305946564
    G18_3  Q3_1  0.0423040405589
    G18_3  Q3_2  0.0637253058908
    G18_3  Q3_3  0.0868121490859
    G18_3  Q3_4  0.00153372891905
    G18_3  Q3_5  -0.0472310084481
    G18_3  Q3_6  -0.212339707546
    G18_3  Q3_7  -0.00773671065215
    G18_5  COST  -131.682337746
    G18_5  PB18  -1
    G18_5  DM5  1
    G18_5  Q5_0  -0.0124139889139
    G18_5  Q5_1  0.0895736581475
    G18_5  Q5_2  0.140467457805
    G18_5  Q5_3  0.0972358759889
    G18_5  Q5_4  0.0744307060429
    G18_5  Q5_5  -0.0858037731572
    G18_5  Q5_6  -0.248188296632
    G18_5  Q5_7  -0.0601725661921
    G18_7  COST  -188.467036352
    G18_7  PB18  -1
    G18_7  DM7  1
    G18_7  Q7_0  0.0112288891651
    G18_7  Q7_1  0.113409062807
    G18_7  Q7_2  0.107100500678
    G18_7  Q7_3  0.0213865973532
    G18_7  Q7_4  0.0587107447148
    G18_7  Q7_5  -0.0512308961239
    G18_7  Q7_6  -0.273054237732
    G18_7  Q7_7  -0.0127464982963
    G18_8  COST  -106.767755964
    G18_8  PB18  -1
    G18_8  DM8  1
    G18_8  Q8_0  -0.0171378144247
    G18_8  Q8_1  0.100463856113
    G18_8  Q8_2  0.151667592427
    G18_8  Q8_3  0.0693100290042
    G18_8  Q8_4  0.0612499646516
    G18_8  Q8_5  -0.0883386855739
    G18_8  Q8_6  -0.250855064674
    G18_8  Q8_7  -0.0156128309857
    G18_10  COST  -119.377262621
    G18_10  PB18  -1
    G18_10  DM10  1
    G18_10  Q10_0  -0.0165776910292
    G18_10  Q10_1  0.0692320031589
    G18_10  Q10_2  0.136735478068
    G18_10  Q10_3  0.0733777953268
    G18_10  Q10_4  0.0612499646516
    G18_10  Q10_5  -0.0526997880724
    G18_10  Q10_6  -0.237503134587
    G18_10  Q10_7  -0.0434817271439
    G18_11  COST  -112.2567622
    G18_11  PB18  -1
    G18_11  DM11  1
    G18_11  Q11_0  -0.00210110085685
    G18_11  Q11_1  0.0622935375833
    G18_11  Q11_2  0.126038097528
    G18_11  Q11_3  0.0861425575011
    G18_11  Q11_4  0.0568285768788
    G18_11  Q11_5  -0.0469169368745
    G18_11  Q11_6  -0.279426396238
    G18_11  Q11_7  -0.00856760700511
    G18_15  COST  -101.192354289
    G18_15  PB18  -1
    G18_15  DM15  1
    G18_15  Q15_0  0.00144464111292
    G18_15  Q15_1  0.0316791341717
    G18_15  Q15_2  0.149268345948
    G18_15  Q15_3  0.0868121490859
    G18_15  Q15_4  0.126683518922
    G18_15  Q15_5  -0.0752526519403
    G18_15  Q15_6  -0.243132128801
    G18_15  Q15_7  -0.0556237467643
    G18_16  COST  -183.841217894
    G18_16  PB18  -1
    G18_16  DM16  1
    G18_16  Q16_0  -0.00140073390457
    G18_16  Q16_1  0.0687426695717
    G18_16  Q16_2  0.112307075314
    G18_16  Q16_3  0.0732012998478
    G18_16  Q16_4  0.0510571827239
    G18_16  Q16_5  -0.0890079744181
    G18_16  Q16_6  -0.240012855574
    G18_16  Q16_7  -0.0319838030843
    G18_18  COST  -175.859057143
    G18_18  PB18  -1
    G18_18  DM18  1
    G18_18  Q18_0  -0.0150251975148
    G18_18  Q18_1  0.0440418692663
    G18_18  Q18_2  0.134644754951
    G18_18  Q18_3  0.072142326974
    G18_18  Q18_4  0.0796542718207
    G18_18  Q18_5  -0.0819399965396
    G18_18  Q18_6  -0.278988376534
    G18_18  Q18_7  -0.0327570098137
    G18_21  COST  -123.466766883
    G18_21  PB18  -1
    G18_21  DM21  1
    G18_21  Q21_0  -0.0159158236753
    G18_21  Q21_1  0.0713041585263
    G18_21  Q21_2  0.162794051738
    G18_21  Q21_3  0.0782925841917
    G18_21  Q21_4  0.0984292110236
    G18_21  Q21_5  -0.0745357158222
    G18_21  Q21_6  -0.274149956115
    G18_21  Q21_7  -0.067165414148
    G18_25  COST  -174.481452841
    G18_25  PB18  -1
    G18_25  DM25  1
    G18_25  Q25_0  0.010181568915
    G18_25  Q25_1  0.0752888730276
    G18_25  Q25_2  0.158910772809
    G18_25  Q25_3  0.0906121469952
    G18_25  Q25_4  0.0563352086013
    G18_25  Q25_5  -0.0871136602339
    G18_25  Q25_6  -0.268961857133
    G18_25  Q25_7  -0.0321585960882
    G18_35  COST  -153.515246559
    G18_35  PB18  -1
    G18_35  DM35  1
    G18_35  Q35_0  0.00433392333876
    G18_35  Q35_1  0.0740559922438
    G18_35  Q35_2  0.146599278858
    G18_35  Q35_3  0.0436135752168
    G18_35  Q35_4  0.0578014849992
    G18_35  Q35_5  -0.0930237074832
    G18_35  Q35_6  -0.230258747544
    G18_35  Q35_7  -0.0595607906785
    G18_36  COST  -109.496117872
    G18_36  PB18  -1
    G18_36  DM36  1
    G18_36  Q36_0  -0.00771533419765
    G18_36  Q36_1  0.0658066680488
    G18_36  Q36_2  0.0795567921878
    G18_36  Q36_3  0.0792216637823
    G18_36  Q36_4  0.0562831646993
    G18_36  Q36_5  -0.0562638967466
    G18_36  Q36_6  -0.257095211307
    G18_36  Q36_7  -0.0491480029668
    G18_37  COST  -153.298206262
    G18_37  PB18  -1
    G18_37  DM37  1
    G18_37  Q37_0  0.00144464111292
    G18_37  Q37_1  0.102075909736
    G18_37  Q37_2  0.158222977883
    G18_37  Q37_3  0.0773449255145
    G18_37  Q37_4  0.0685154534153
    G18_37  Q37_5  -0.0474373829565
    G18_37  Q37_6  -0.236445125522
    G18_37  Q37_7  -0.0123515978799
    G18_38  COST  -168.206235695
    G18_38  PB18  -1
    G18_38  DM38  1
    G18_38  Q38_0  -0.00140073390457
    G18_38  Q38_1  0.11313696711
    G18_38  Q38_2  0.151966234229
    G18_38  Q38_3  0.0915812878075
    G18_38  Q38_4  0.061338356617
    G18_38  Q38_5  -0.0541475309338
    G18_38  Q38_6  -0.251476686901
    G18_38  Q38_7  -0.00736585570358
    G18_39  COST  -148.23927624
    G18_39  PB18  -1
    G18_39  DM39  1
    G18_39  Q39_0  -0.017209527418
    G18_39  Q39_1  0.0840880052327
    G18_39  Q39_2  0.0558107487693
    G18_39  Q39_3  0.0817023593126
    G18_39  Q39_4  0.0406941256497
    G18_39  Q39_5  -0.0525050080949
    G18_39  Q39_6  -0.244507869751
    G18_39  Q39_7  -0.0118452632852
    G19_0  COST  -152.34227309
    G19_0  PB19  -1
    G19_0  DM0  1
    G19_0  Q0_0  -0.0555367836818
    G19_0  Q0_1  -0.112511356601
    G19_0  Q0_2  -0.0427366624791
    G19_0  Q0_3  0.225485016029
    G19_0  Q0_4  -0.0141410768041
    G19_0  Q0_5  0.0754557006777
    G19_0  Q0_6  -0.326848731201
    G19_0  Q0_7  0.177296208097
    G19_1  COST  -138.180720418
    G19_1  PB19  -1
    G19_1  DM1  1
    G19_1  Q1_0  -0.0423886905394
    G19_1  Q1_1  -0.113805784855
    G19_1  Q1_2  -0.0480143241948
    G19_1  Q1_3  0.169601158694
    G19_1  Q1_4  -0.0289616858298
    G19_1  Q1_5  0.0980435842578
    G19_1  Q1_6  -0.324191093803
    G19_1  Q1_7  0.188377053622
    G19_4  COST  -137.510572437
    G19_4  PB19  -1
    G19_4  DM4  1
    G19_4  Q4_0  -0.0291361489718
    G19_4  Q4_1  -0.0834858540109
    G19_4  Q4_2  -0.0658901619922
    G19_4  Q4_3  0.22106287023
    G19_4  Q4_4  -0.0343586607136
    G19_4  Q4_5  0.0668570338262
    G19_4  Q4_6  -0.326698472659
    G19_4  Q4_7  0.172838309817
    G19_5  COST  -131.682337746
    G19_5  PB19  -1
    G19_5  DM5  1
    G19_5  Q5_0  -0.052162181229
    G19_5  Q5_1  -0.0974479246947
    G19_5  Q5_2  -0.0303853755451
    G19_5  Q5_3  0.246332914724
    G19_5  Q5_4  -0.0151511537187
    G19_5  Q5_5  0.0634707072245
    G19_5  Q5_6  -0.314021950681
    G19_5  Q5_7  0.177208811595
    G19_6  COST  -103.656002187
    G19_6  PB19  -1
    G19_6  DM6  1
    G19_6  Q6_0  -0.0405828891482
    G19_6  Q6_1  -0.0793474384171
    G19_6  Q6_2  -0.0216517185786
    G19_6  Q6_3  0.240719026191
    G19_6  Q6_4  -0.0308711150468
    G19_6  Q6_5  0.0731738850394
    G19_6  Q6_6  -0.307480043557
    G19_6  Q6_7  0.184674871478
    G19_7  COST  -188.467036352
    G19_7  PB19  -1
    G19_7  DM7  1
    G19_7  Q7_0  -0.02851930315
    G19_7  Q7_1  -0.0736125200347
    G19_7  Q7_2  -0.0637523326723
    G19_7  Q7_3  0.170483636088
    G19_7  Q7_4  -0.0308711150468
    G19_7  Q7_5  0.0980435842578
    G19_7  Q7_6  -0.338887891782
    G19_7  Q7_7  0.22463487949
    G19_9  COST  -102.291948084
    G19_9  PB19  -1
    G19_9  DM9  1
    G19_9  Q9_0  -0.0445719887061
    G19_9  Q9_1  -0.105904926978
    G19_9  Q9_2  -0.035292618526
    G19_9  Q9_3  0.231020605894
    G19_9  Q9_4  -0.0296571579315
    G19_9  Q9_5  0.068321328513
    G19_9  Q9_6  -0.301107604961
    G19_9  Q9_7  0.226903602505
    G19_10  COST  -119.377262621
    G19_10  PB19  -1
    G19_10  DM10  1
    G19_10  Q10_0  -0.0563258833443
    G19_10  Q10_1  -0.117789579683
    G19_10  Q10_2  -0.0341173552827
    G19_10  Q10_3  0.222474834062
    G19_10  Q10_4  -0.02833189511
    G19_10  Q10_5  0.0965746923093
    G19_10  Q10_6  -0.303336788636
    G19_10  Q10_7  0.193899650643
    G19_13  COST  -113.646669801
    G19_13  PB19  -1
    G19_13  DM13  1
    G19_13  Q13_0  -0.0373597281891
    G19_13  Q13_1  -0.121704248381
    G19_13  Q13_2  -0.0930291252817
    G19_13  Q13_3  0.227846421436
    G19_13  Q13_4  -0.0360198176327
    G19_13  Q13_5  0.0338827960086
    G19_13  Q13_6  -0.292848052836
    G19_13  Q13_7  0.1648512785
    G19_16  COST  -183.841217894
    G19_16  PB19  -1
    G19_16  DM16  1
    G19_16  Q16_0  -0.0411489262197
    G19_16  Q16_1  -0.11827891327
    G19_16  Q16_2  -0.0585457580361
    G19_16  Q16_3  0.222298338583
    G19_16  Q16_4  -0.0385246770377
    G19_16  Q16_5  0.0602665059636
    G19_16  Q16_6  -0.305846509623
    G19_16  Q16_7  0.205397574702
    G19_18  COST  -175.859057143
    G19_18  PB19  -1
    G19_18  DM18  1
    G19_18  Q18_0  -0.0547733898299
    G19_18  Q18_1  -0.142979713576
    G19_18  Q18_2  -0.0362080783996
    G19_18  Q18_3  0.221239365709
    G19_18  Q18_4  -0.00992758794089
    G19_18  Q18_5  0.0673344838421
    G19_18  Q18_6  -0.344822030583
    G19_18  Q18_7  0.204624367973
    G19_21  COST  -123.466766883
    G19_21  PB19  -1
    G19_21  DM21  1
    G19_21  Q21_0  -0.0556640159904
    G19_21  Q21_1  -0.115717424316
    G19_21  Q21_2  -0.00805878161258
    G19_21  Q21_3  0.227389622927
    G19_21  Q21_4  0.008847351262
    G19_21  Q21_5  0.0747387645595
    G19_21  Q21_6  -0.339983610164
    G19_21  Q21_7  0.170215963639
    G19_22  COST  -144.293092726
    G19_22  PB19  -1
    G19_22  DM22  1
    G19_22  Q22_0  -0.00438568745417
    G19_22  Q22_1  -0.124728045259
    G19_22  Q22_2  0.00909118109865
    G19_22  Q22_3  0.220246569234
    G19_22  Q22_4  -0.0432451653251
    G19_22  Q22_5  0.0677138673888
    G19_22  Q22_6  -0.305630009304
    G19_22  Q22_7  0.228096044911
    G19_23  COST  -170.438674511
    G19_23  PB19  -1
    G19_23  DM23  1
    G19_23  Q23_0  -0.0378969216823
    G19_23  Q23_1  -0.0777856648243
    G19_23  Q23_2  -0.0551867301242
    G19_23  Q23_3  0.227497033603
    G19_23  Q23_4  -0.026329112506
    G19_23  Q23_5  0.0783234451502
    G19_23  Q23_6  -0.300731350428
    G19_23  Q23_7  0.181369896887
    G19_24  COST  -162.878154135
    G19_24  PB19  -1
    G19_24  DM24  1
    G19_24  Q24_0  -0.0373202906542
    G19_24  Q24_1  -0.07702100904
    G19_24  Q24_2  -0.00738447845121
    G19_24  Q24_3  0.221339392806
    G19_24  Q24_4  -0.0342058626722
    G19_24  Q24_5  -0.00818634909423
    G19_24  Q24_6  -0.341046267457
    G19_24  Q24_7  0.232402611055
    G19_25  COST  -174.481452841
    G19_25  PB19  -1
    G19_25  DM25  1
    G19_25  Q25_0  -0.0295666234001
    G19_25  Q25_1  -0.111732709815
    G19_25  Q25_2  -0.0119420605413
    G19_25  Q25_3  0.23970918573
    G19_25  Q25_4  -0.0332466511604
    G19_25  Q25_5  0.0621608201478
    G19_25  Q25_6  -0.334795511183
    G19_25  Q25_7  0.205222781698
    G19_27  COST  -159.175234463
    G19_27  PB19  -1
    G19_27  DM27  1
    G19_27  Q27_0  -0.0576483606158
    G19_27  Q27_1  -0.111637135802
    G19_27  Q27_2  -0.0362080783996
    G19_27  Q27_3  0.221239365709
    G19_27  Q27_4  -0.0260270839752
    G19_27  Q27_5  0.0789227149758
    G19_27  Q27_6  -0.305530067183
    G19_27  Q27_7  0.177820587108
    G19_28  COST  -132.687660165
    G19_28  PB19  -1
    G19_28  DM28  1
    G19_28  Q28_0  -0.0443175240888
    G19_28  Q28_1  -0.0861567411552
    G19_28  Q28_2  -0.0260884391465
    G19_28  Q28_3  0.234271096871
    G19_28  Q28_4  -0.033295389796
    G19_28  Q28_5  0.0554445752868
    G19_28  Q28_6  -0.340607980104
    G19_28  Q28_7  0.229978591412
    G19_31  COST  -100.259410695
    G19_31  PB19  -1
    G19_31  DM31  1
    G19_31  Q31_0  -0.0495346122405
    G19_31  Q31_1  -0.0692578166281
    G19_31  Q31_2  -0.013845897096
    G19_31  Q31_3  0.223289610136
    G19_31  Q31_4  -0.00454211424211
    G19_31  Q31_5  0.0639923337312
    G19_31  Q31_6  -0.328068261696
    G19_31  Q31_7  0.225489043076
    G19_33  COST  -100.650989836
    G19_33  PB19  -1
    G19_33  DM33  1
    G19_33  Q33_0  -0.0214953939492
    G19_33  Q33_1  -0.0768790762328
    G19_33  Q33_2  -0.00340728390932
    G19_33  Q33_3  0.152674588143
    G19_33  Q33_4  -0.00992998972577
    G19_33  Q33_5  0.0939921824904
    G19_33  Q33_6  -0.33511030969
    G19_33  Q33_7  0.175460655996
    G19_34  COST  -155.512082857
    G19_34  PB19  -1
    G19_34  DM34  1
    G19_34  Q34_0  -0.0572295707736
    G19_34  Q34_1  -0.0751093695792
    G19_34  Q34_2  -0.0190993006181
    G19_34  Q34_3  0.216978363295
    G19_34  Q34_4  -0.000908422848421
    G19_34  Q34_5  0.0961429908449
    G19_34  Q34_6  -0.345260050288
    G19_34  Q34_7  0.213858620535
    G19_35  COST  -153.515246559
    G19_35  PB19  -1
    G19_35  DM35  1
    G19_35  Q35_0  -0.0354142689764
    G19_35  Q35_1  -0.112965590598
    G19_35  Q35_2  -0.0242535544926
    G19_35  Q35_3  0.192710613952
    G19_35  Q35_4  -0.0317803747625
    G19_35  Q35_5  0.0562507728985
    G19_35  Q35_6  -0.296092401593
    G19_35  Q35_7  0.177820587108
    G19_36  COST  -109.496117872
    G19_36  PB19  -1
    G19_36  DM36  1
    G19_36  Q36_0  -0.0474635265128
    G19_36  Q36_1  -0.121214914793
    G19_36  Q36_2  -0.0912960411625
    G19_36  Q36_3  0.228318702517
    G19_36  Q36_4  -0.0332986950623
    G19_36  Q36_5  0.0930105836351
    G19_36  Q36_6  -0.322928865356
    G19_36  Q36_7  0.18823337482
    G19_38  COST  -168.206235695
    G19_38  PB19  -1
    G19_38  DM38  1
    G19_38  Q38_0  -0.0411489262197
    G19_38  Q38_1  -0.0738846157323
    G19_38  Q38_2  -0.0188865991214
    G19_38  Q38_3  0.240678326543
    G19_38  Q38_4  -0.0282435031446
    G19_38  Q38_5  0.0951269494479
    G19_38  Q38_6  -0.31731034095
    G19_38  Q38_7  0.230015522083
    G20_0  COST  -152.34227309
    G20_0  PB20  -1
    G20_0  DM0  1
    G20_0  Q0_0  -0.173287720965
    G20_0  Q0_1  0.0780313072915
    G20_0  Q0_2  0.11178980492
    G20_0  Q0_3  0.107819275356
    G20_0  Q0_4  0.0972943454795
    G20_0  Q0_5  -0.0423335329146
    G20_0  Q0_6  -0.256892259148
    G20_0  Q0_7  -0.0516651281698
    G20_1  COST  -138.180720418
    G20_1  PB20  -1
    G20_1  DM1  1
    G20_1  Q1_0  -0.160139627822
    G20_1  Q1_1  0.0767368790371
    G20_1  Q1_2  0.106512143204
    G20_1  Q1_3  0.0519354180203
    G20_1  Q1_4  0.0824737364539
    G20_1  Q1_5  -0.0197456493345
    G20_1  Q1_6  -0.25423462175
    G20_1  Q1_7  -0.0405842826447
    G20_3  COST  -147.831627981
    G20_3  PB20  -1
    G20_3  DM3  1
    G20_3  Q3_0  -0.145268534942
    G20_3  Q3_1  0.0458251216089
    G20_3  Q3_2  0.0473989399397
    G20_3  Q3_3  0.118243447148
    G20_3  Q3_4  0.0233872914411
    G20_3  Q3_5  -0.0157457616588
    G20_3  Q3_6  -0.208216889542
    G20_3  Q3_7  0.000683330868187
    G20_4  COST  -137.510572437
    G20_4  PB20  -1
    G20_4  DM4  1
    G20_4  Q4_0  -0.146887086255
    G20_4  Q4_1  0.107056809881
    G20_4  Q4_2  0.0886363054069
    G20_4  Q4_3  0.103397129557
    G20_4  Q4_4  0.0770767615701
    G20_4  Q4_5  -0.0509321997661
    G20_4  Q4_6  -0.256742000606
    G20_4  Q4_7  -0.0561230264491
    G20_7  COST  -188.467036352
    G20_7  PB20  -1
    G20_7  DM7  1
    G20_7  Q7_0  -0.146270240433
    G20_7  Q7_1  0.116930143857
    G20_7  Q7_2  0.0907741347269
    G20_7  Q7_3  0.0528178954151
    G20_7  Q7_4  0.0805643072369
    G20_7  Q7_5  -0.0197456493345
    G20_7  Q7_6  -0.268931419729
    G20_7  Q7_7  -0.00432645677599
    G20_9  COST  -102.291948084
    G20_9  PB20  -1
    G20_9  DM9  1
    G20_9  Q9_0  -0.162322925989
    G20_9  Q9_1  0.0846377369141
    G20_9  Q9_2  0.119233848873
    G20_9  Q9_3  0.113354865221
    G20_9  Q9_4  0.0817782643522
    G20_9  Q9_5  -0.0494679050793
    G20_9  Q9_6  -0.231151132908
    G20_9  Q9_7  -0.00205773376108
    G20_13  COST  -113.646669801
    G20_13  PB20  -1
    G20_13  DM13  1
    G20_13  Q13_0  -0.155110665472
    G20_13  Q13_1  0.0688384155116
    G20_13  Q13_2  0.0614973421174
    G20_13  Q13_3  0.110180680763
    G20_13  Q13_4  0.075415604651
    G20_13  Q13_5  -0.0839064375837
    G20_13  Q13_6  -0.222891580783
    G20_13  Q13_7  -0.064110057766
    G20_18  COST  -175.859057143
    G20_18  PB20  -1
    G20_18  DM18  1
    G20_18  Q18_0  -0.172524327113
    G20_18  Q18_1  0.0475629503163
    G20_18  Q18_2  0.118318389
    G20_18  Q18_3  0.103573625036
    G20_18  Q18_4  0.101507834343
    G20_18  Q18_5  -0.0504547497502
    G20_18  Q18_6  -0.27486555853
    G20_18  Q18_7  -0.0243369682933
    G20_20  COST  -165.470681874
    G20_20  PB20  -1
    G20_20  DM20  1
    G20_20  Q20_0  -0.170484836199
    G20_20  Q20_1  0.0779704763935
    G20_20  Q20_2  0.101604900223
    G20_20  Q20_3  0.101985165725
    G20_20  Q20_4  0.0933556918874
    G20_20  Q20_5  -0.0444843412691
    G20_20  Q20_6  -0.244631698149
    G20_20  Q20_7  -0.0569288945906
    G20_22  COST  -144.293092726
    G20_22  PB20  -1
    G20_22  DM22  1
    G20_22  Q22_0  -0.122136624737
    G20_22  Q22_1  0.0658146186332
    G20_22  Q22_2  0.163617648498
    G20_22  Q22_3  0.102580828561
    G20_22  Q22_4  0.0681902569586
    G20_22  Q22_5  -0.0500753662036
    G20_22  Q22_6  -0.235673537251
    G20_22  Q22_7  -0.000865291355197
    G20_24  COST  -162.878154135
    G20_24  PB20  -1
    G20_24  DM24  1
    G20_24  Q24_0  -0.155071227937
    G20_24  Q24_1  0.113521654852
    G20_24  Q24_2  0.147141988948
    G20_24  Q24_3  0.103673652132
    G20_24  Q24_4  0.0772295596115
    G20_24  Q24_5  -0.125975582687
    G20_24  Q24_6  -0.271089795404
    G20_24  Q24_7  0.00344127478827
    G20_26  COST  -149.011681845
    G20_26  PB20  -1
    G20_26  DM26  1
    G20_26  Q26_0  -0.148735543225
    G20_26  Q26_1  0.0811225154585
    G20_26  Q26_2  0.0882174182325
    G20_26  Q26_3  0.11553985774
    G20_26  Q26_4  0.0689512763733
    G20_26  Q26_5  -0.0197456493345
    G20_26  Q26_6  -0.286128892393
    G20_26  Q26_7  -0.00432645677599
    G20_27  COST  -159.175234463
    G20_27  PB20  -1
    G20_27  DM27  1
    G20_27  Q27_0  -0.175399297899
    G20_27  Q27_1  0.0789055280898
    G20_27  Q27_2  0.118318389
    G20_27  Q27_3  0.103573625036
    G20_27  Q27_4  0.0854083383085
    G20_27  Q27_5  -0.0388665186165
    G20_27  Q27_6  -0.23557359513
    G20_27  Q27_7  -0.0511407491582
    G20_30  COST  -162.75162392
    G20_30  PB20  -1
    G20_30  DM30  1
    G20_30  Q30_0  -0.139246331232
    G20_30  Q30_1  0.0849289604055
    G20_30  Q30_2  0.146404439965
    G20_30  Q30_3  0.105723473628
    G20_30  Q30_4  0.0731290282424
    G20_30  Q30_5  -0.140397473403
    G20_30  Q30_6  -0.265153837637
    G20_30  Q30_7  -0.0124695542509
    G20_32  COST  -170.549284717
    G20_32  PB20  -1
    G20_32  DM32  1
    G20_32  Q32_0  -0.173647602314
    G20_32  Q32_1  0.0773670798934
    G20_32  Q32_2  0.0833903025811
    G20_32  Q32_3  0.11571242989
    G20_32  Q32_4  0.0754864638643
    G20_32  Q32_5  -0.0539454016533
    G20_32  Q32_6  -0.271528082757
    G20_32  Q32_7  -0.00403802632425
    G20_33  COST  -100.650989836
    G20_33  PB20  -1
    G20_33  DM33  1
    G20_33  Q33_0  -0.139246331232
    G20_33  Q33_1  0.113663587659
    G20_33  Q33_2  0.15111918349
    G20_33  Q33_3  0.0350088474695
    G20_33  Q33_4  0.101505432558
    G20_33  Q33_5  -0.0237970511019
    G20_33  Q33_6  -0.265153837637
    G20_33  Q33_7  -0.0535006802706
    G20_36  COST  -109.496117872
    G20_36  PB20  -1
    G20_36  DM36  1
    G20_36  Q36_0  -0.165214463796
    G20_36  Q36_1  0.0693277490988
    G20_36  Q36_2  0.0632304262366
    G20_36  Q36_3  0.110652961844
    G20_36  Q36_4  0.0781367272214
    G20_36  Q36_5  -0.0247786499572
    G20_36  Q36_6  -0.252972393303
    G20_36  Q36_7  -0.0407279614464
    G20_39  COST  -148.23927624
    G20_39  PB20  -1
    G20_39  DM39  1
    G20_39  Q39_0  -0.174708657016
    G20_39  Q39_1  0.0876090862826
    G20_39  Q39_2  0.0394843828182
    G20_39  Q39_3  0.113133657374
    G20_39  Q39_4  0.0625476881717
    G20_39  Q39_5  -0.0210197613055
    G20_39  Q39_6  -0.240385051747
    G20_39  Q39_7  -0.00342522176489
    G21_0  COST  -152.34227309
    G21_0  PB21  -1
    G21_0  DM0  1
    G21_0  Q0_0  -0.194915818518
    G21_0  Q0_1  -0.0697366192827
    G21_0  Q0_2  -0.0837975068583
    G21_0  Q0_3  -0.0524641008872
    G21_0  Q0_4  -0.089120008453
    G21_0  Q0_5  0.00430161670885
    G21_0  Q0_6  -0.103132239014
    G21_0  Q0_7  0.00926553293996
    G21_2  COST  -159.268847256
    G21_2  PB21  -1
    G21_2  DM2  1
    G21_2  Q2_0  -0.186765402814
    G21_2  Q2_1  -0.0704008466808
    G21_2  Q2_2  -0.0453737217319
    G21_2  Q2_3  -0.0404118395289
    G21_2  Q2_4  -0.101912101216
    G21_2  Q2_5  -0.0189190441353
    G21_2  Q2_6  -0.114856601087
    G21_2  Q2_7  0.0447959420718
    G21_3  COST  -147.831627981
    G21_3  PB21  -1
    G21_3  DM3  1
    G21_3  Q3_0  -0.166896632495
    G21_3  Q3_1  -0.101942804965
    G21_3  Q3_2  -0.148188371839
    G21_3  Q3_3  -0.0420399290953
    G21_3  Q3_4  -0.163027062491
    G21_3  Q3_5  0.0308893879647
    G21_3  Q3_6  -0.0544568694079
    G21_3  Q3_7  0.0616139919779
    G21_4  COST  -137.510572437
    G21_4  PB21  -1
    G21_4  DM4  1
    G21_4  Q4_0  -0.168515183808
    G21_4  Q4_1  -0.040711116693
    G21_4  Q4_2  -0.106951006371
    G21_4  Q4_3  -0.0568862466861
    G21_4  Q4_4  -0.109337592362
    G21_4  Q4_5  -0.00429705014259
    G21_4  Q4_6  -0.102981980472
    G21_4  Q4_7  0.0048076346606
    G21_5  COST  -131.682337746
    G21_5  PB21  -1
    G21_5  DM5  1
    G21_5  Q5_0  -0.191541216065
    G21_5  Q5_1  -0.0546731873768
    G21_5  Q5_2  -0.0714462199243
    G21_5  Q5_3  -0.0316162021922
    G21_5  Q5_4  -0.0901300853676
    G21_5  Q5_5  -0.00768337674435
    G21_5  Q5_6  -0.0903054584943
    G21_5  Q5_7  0.00917813643803
    G21_8  COST  -106.767755964
    G21_8  PB21  -1
    G21_8  DM8  1
    G21_8  Q8_0  -0.196265041576
    G21_8  Q8_1  -0.0437829894112
    G21_8  Q8_2  -0.0602460853029
    G21_8  Q8_3  -0.059542049177
    G21_8  Q8_4  -0.103310826759
    G21_8  Q8_5  -0.010218289161
    G21_8  Q8_6  -0.0929722265366
    G21_8  Q8_7  0.0537378716444
    G21_13  COST  -113.646669801
    G21_13  PB21  -1
    G21_13  DM13  1
    G21_13  Q13_0  -0.176738763025
    G21_13  Q13_1  -0.0789295110626
    G21_13  Q13_2  -0.134089969661
    G21_13  Q13_3  -0.0501026954803
    G21_13  Q13_4  -0.110998749282
    G21_13  Q13_5  -0.0372712879602
    G21_13  Q13_6  -0.0691315606487
    G21_13  Q13_7  -0.00317939665623
    G21_14  COST  -130.595506027
    G21_14  PB21  -1
    G21_14  DM14  1
    G21_14  Q14_0  -0.179424730491
    G21_14  Q14_1  -0.0601124077219
    G21_14  Q14_2  -0.0120504392619
    G21_14  Q14_3  -0.0413280146873
    G21_14  Q14_4  -0.101912101216
    G21_14  Q14_5  0.00430161670885
    G21_14  Q14_6  -0.104830897575
    G21_14  Q14_7  0.067307561537
    G21_15  COST  -101.192354289
    G21_15  PB21  -1
    G21_15  DM15  1
    G21_15  Q15_0  -0.177682586038
    G21_15  Q15_1  -0.112567711353
    G21_15  Q15_2  -0.0626453317812
    G21_15  Q15_3  -0.0420399290953
    G21_15  Q15_4  -0.0378772724883
    G21_15  Q15_5  0.00286774447257
    G21_15  Q15_6  -0.0852492906635
    G21_15  Q15_7  0.0137269558658
    G21_18  COST  -175.859057143
    G21_18  PB21  -1
    G21_18  DM18  1
    G21_18  Q18_0  -0.194152424666
    G21_18  Q18_1  -0.100204976258
    G21_18  Q18_2  -0.0772689227788
    G21_18  Q18_3  -0.0567097512072
    G21_18  Q18_4  -0.0849065195898
    G21_18  Q18_5  -0.00381960012675
    G21_18  Q18_6  -0.121105538396
    G21_18  Q18_7  0.0365936928164
    G21_20  COST  -165.470681874
    G21_20  PB21  -1
    G21_20  DM20  1
    G21_20  Q20_0  -0.192112933752
    G21_20  Q20_1  -0.0697974501807
    G21_20  Q20_2  -0.0939824115551
    G21_20  Q20_3  -0.0582982105179
    G21_20  Q20_4  -0.0930586620452
    G21_20  Q20_5  0.00215080835443
    G21_20  Q20_6  -0.0908716780145
    G21_20  Q20_7  0.00400176651913
    G21_21  COST  -123.466766883
    G21_21  PB21  -1
    G21_21  DM21  1
    G21_21  Q21_0  -0.195043050826
    G21_21  Q21_1  -0.0729426869979
    G21_21  Q21_2  -0.0491196259918
    G21_21  Q21_3  -0.0505594939895
    G21_21  Q21_4  -0.0661315803869
    G21_21  Q21_5  0.00358468059071
    G21_21  Q21_6  -0.116267117977
    G21_21  Q21_7  0.00218528848209
    G21_22  COST  -144.293092726
    G21_22  PB21  -1
    G21_22  DM22  1
    G21_22  Q22_0  -0.14376472229
    G21_22  Q22_1  -0.081953307941
    G21_22  Q22_2  -0.0319696632806
    G21_22  Q22_3  -0.0577025476825
    G21_22  Q22_4  -0.118224096974
    G21_22  Q22_5  -0.00344021658006
    G21_22  Q22_6  -0.0819135171169
    G21_22  Q22_7  0.0600653697546
    G21_23  COST  -170.438674511
    G21_23  PB21  -1
    G21_23  DM23  1
    G21_23  Q23_0  -0.177275956518
    G21_23  Q23_1  -0.0350109275064
    G21_23  Q23_2  -0.0962475745035
    G21_23  Q23_3  -0.0504520833138
    G21_23  Q23_4  -0.101308044155
    G21_23  Q23_5  0.00716936118142
    G21_23  Q23_6  -0.0770148582415
    G21_23  Q23_7  0.0133392217304
    G21_31  COST  -100.259410695
    G21_31  PB21  -1
    G21_31  DM31  1
    G21_31  Q31_0  -0.188913647077
    G21_31  Q31_1  -0.0264830793102
    G21_31  Q31_2  -0.0549067414753
    G21_31  Q31_3  -0.0546595067802
    G21_31  Q31_4  -0.079521045891
    G21_31  Q31_5  -0.00716175023765
    G21_31  Q31_6  -0.104351769509
    G21_31  Q31_7  0.057458367919
    G21_33  COST  -100.650989836
    G21_33  PB21  -1
    G21_33  DM33  1
    G21_33  Q33_0  -0.160874428785
    G21_33  Q33_1  -0.0341043389149
    G21_33  Q33_2  -0.0444681282886
    G21_33  Q33_3  -0.125274528774
    G21_33  Q33_4  -0.0849089213746
    G21_33  Q33_5  0.0228380985216
    G21_33  Q33_6  -0.111393817503
    G21_33  Q33_7  0.00742998083911
    G21_35  COST  -153.515246559
    G21_35  PB21  -1
    G21_35  DM35  1
    G21_35  Q35_0  -0.174793303812
    G21_35  Q35_1  -0.0701908532805
    G21_35  Q35_2  -0.0653143988718
    G21_35  Q35_3  -0.0852385029644
    G21_35  Q35_4  -0.106759306411
    G21_35  Q35_5  -0.0149033110703
    G21_35  Q35_6  -0.0723759094062
    G21_35  Q35_7  0.00978991195156
    G21_36  COST  -109.496117872
    G21_36  PB21  -1
    G21_36  DM36  1
    G21_36  Q36_0  -0.186842561349
    G21_36  Q36_1  -0.0784401774755
    G21_36  Q36_2  -0.132356885542
    G21_36  Q36_3  -0.0496304143989
    G21_36  Q36_4  -0.108277626711
    G21_36  Q36_5  0.0218564996663
    G21_36  Q36_6  -0.099212373169
    G21_36  Q36_7  0.0202026996633
    G21_37  COST  -153.298206262
    G21_37  PB21  -1
    G21_37  DM37  1
    G21_37  Q37_0  -0.177682586038
    G21_37  Q37_1  -0.042170935788
    G21_37  Q37_2  -0.0536906998467
    G21_37  Q37_3  -0.0515071526667
    G21_37  Q37_4  -0.0960453379952
    G21_37  Q37_5  0.0306830134563
    G21_37  Q37_6  -0.0785622873847
    G21_37  Q37_7  0.0569991047502
    G22_0  COST  -152.34227309
    G22_0  PB22  -1
    G22_0  DM0  1
    G22_0  Q0_0  0.00404602357862
    G22_0  Q0_1  -0.0385489706979
    G22_0  Q0_2  -0.0534321696539
    G22_0  Q0_3  0.135741486455
    G22_0  Q0_4  -0.102712137312
    G22_0  Q0_5  -0.0226513308412
    G22_0  Q0_6  -0.046972482144
    G22_0  Q0_7  -0.0458965191351
    G22_1  COST  -138.180720418
    G22_1  PB22  -1
    G22_1  DM1  1
    G22_1  Q1_0  0.017194116721
    G22_1  Q1_1  -0.0398433989523
    G22_1  Q1_2  -0.0587098313697
    G22_1  Q1_3  0.0798576291197
    G22_1  Q1_4  -0.117532746338
    G22_1  Q1_5  -6.34472610845e-05
    G22_1  Q1_6  -0.0443148447452
    G22_1  Q1_7  -0.0348156736101
    G22_2  COST  -159.268847256
    G22_2  PB22  -1
    G22_2  DM2  1
    G22_2  Q2_0  0.0121964392827
    G22_2  Q2_1  -0.039213198096
    G22_2  Q2_2  -0.0150083845275
    G22_2  Q2_3  0.147793747814
    G22_2  Q2_4  -0.115504230076
    G22_2  Q2_5  -0.0458719916854
    G22_2  Q2_6  -0.0586968442165
    G22_2  Q2_7  -0.0103661100033
    G22_3  COST  -147.831627981
    G22_3  PB22  -1
    G22_3  DM3  1
    G22_3  Q3_0  0.0320652096017
    G22_3  Q3_1  -0.0707551563805
    G22_3  Q3_2  -0.117823034634
    G22_3  Q3_3  0.146165658247
    G22_3  Q3_4  -0.176619191351
    G22_3  Q3_5  0.00393644041469
    G22_3  Q3_6  0.00170288746249
    G22_3  Q3_7  0.00645193990283
    G22_7  COST  -188.467036352
    G22_7  PB22  -1
    G22_7  DM7  1
    G22_7  Q7_0  0.0310635041104
    G22_7  Q7_1  0.000349865867994
    G22_7  Q7_2  -0.0744478398472
    G22_7  Q7_3  0.0807401065145
    G22_7  Q7_4  -0.119442175555
    G22_7  Q7_5  -6.34472610845e-05
    G22_7  Q7_6  -0.0590116427241
    G22_7  Q7_7  0.00144215225866
    G22_8  COST  -106.767755964
    G22_8  PB22  -1
    G22_8  DM8  1
    G22_8  Q8_0  0.00269680052062
    G22_8  Q8_1  -0.0125953408264
    G22_8  Q8_2  -0.0298807480985
    G22_8  Q8_3  0.128663538166
    G22_8  Q8_4  -0.116902955618
    G22_8  Q8_5  -0.0371712367111
    G22_8  Q8_6  -0.0368124696662
    G22_8  Q8_7  -0.00142418043071
    G22_10  COST  -119.377262621
    G22_10  PB22  -1
    G22_10  DM10  1
    G22_10  Q10_0  0.00325692391613
    G22_10  Q10_1  -0.0438271937806
    G22_10  Q10_2  -0.0448128624576
    G22_10  Q10_3  0.132731304488
    G22_10  Q10_4  -0.116902955618
    G22_10  Q10_5  -0.00153233920955
    G22_10  Q10_6  -0.0234605395787
    G22_10  Q10_7  -0.0292930765889
    G22_12  COST  -171.498955341
    G22_12  PB22  -1
    G22_12  DM12  1
    G22_12  Q12_0  0.00249166216255
    G22_12  Q12_1  -0.0443165273678
    G22_12  Q12_2  -0.0367839463213
    G22_12  Q12_3  0.145680928137
    G22_12  Q12_4  -0.114096306876
    G22_12  Q12_5  -8.45963481133e-06
    G22_12  Q12_6  -0.0550653579097
    G22_12  Q12_7  -0.00148087285762
    G22_13  COST  -113.646669801
    G22_13  PB22  -1
    G22_13  DM13  1
    G22_13  Q13_0  0.0222230790713
    G22_13  Q13_1  -0.0477418624778
    G22_13  Q13_2  -0.103724632457
    G22_13  Q13_3  0.138102891862
    G22_13  Q13_4  -0.124590878141
    G22_13  Q13_5  -0.0642242355103
    G22_13  Q13_6  -0.0129718037784
    G22_13  Q13_7  -0.0583414487313
    G22_17  COST  -128.893635511
    G22_17  PB22  -1
    G22_17  DM17  1
    G22_17  Q17_0  0.0300161838603
    G22_17  Q17_1  -0.030963873901
    G22_17  Q17_2  -0.0515526950696
    G22_17  Q17_3  0.185001194501
    G22_17  Q17_4  -0.116814563653
    G22_17  Q17_5  -0.0379927986446
    G22_17  Q17_6  -0.0607317310465
    G22_17  Q17_7  -0.044847761112
    G22_18  COST  -175.859057143
    G22_18  PB22  -1
    G22_18  DM18  1
    G22_18  Q18_0  0.00480941743047
    G22_18  Q18_1  -0.0690173276731
    G22_18  Q18_2  -0.0469035855744
    G22_18  Q18_3  0.131495836135
    G22_18  Q18_4  -0.0984986484491
    G22_18  Q18_5  -0.0307725476768
    G22_18  Q18_6  -0.064945781526
    G22_18  Q18_7  -0.0185683592587
    G22_19  COST  -186.574135721
    G22_19  PB22  -1
    G22_19  DM19  1
    G22_19  Q19_0  0.002123096574
    G22_19  Q19_1  -0.0165243096575
    G22_19  Q19_2  -0.0485901921166
    G22_19  Q19_3  0.136514432551
    G22_19  Q19_4  -0.104429609108
    G22_19  Q19_5  -0.0057229293257
    G22_19  Q19_6  -0.05286296064
    G22_19  Q19_7  0.0385028339251
    G22_21  COST  -123.466766883
    G22_21  PB22  -1
    G22_21  DM21  1
    G22_21  Q21_0  0.00391879126998
    G22_21  Q21_1  -0.0417550384131
    G22_21  Q21_2  -0.0187542887875
    G22_21  Q21_3  0.137646093353
    G22_21  Q21_4  -0.0797237092462
    G22_21  Q21_5  -0.0233682669593
    G22_21  Q21_6  -0.0601073611067
    G22_21  Q21_7  -0.052976763593
    G22_22  COST  -144.293092726
    G22_22  PB22  -1
    G22_22  DM22  1
    G22_22  Q22_0  0.0551971198062
    G22_22  Q22_1  -0.0507656593562
    G22_22  Q22_2  -0.00160432607623
    G22_22  Q22_3  0.13050303966
    G22_22  Q22_4  -0.131816225833
    G22_22  Q22_5  -0.0303931641301
    G22_22  Q22_6  -0.0257537602465
    G22_22  Q22_7  0.00490331767945
    G22_23  COST  -170.438674511
    G22_23  PB22  -1
    G22_23  DM23  1
    G22_23  Q23_0  0.0216858855781
    G22_23  Q23_1  -0.00382327892158
    G22_23  Q23_2  -0.0658822372991
    G22_23  Q23_3  0.137753504029
    G22_23  Q23_4  -0.114900173014
    G22_23  Q23_5  -0.0197835863686
    G22_23  Q23_6  -0.0208551013711
    G22_23  Q23_7  -0.0418228303447
    G22_24  COST  -162.878154135
    G22_24  PB22  -1
    G22_24  DM24  1
    G22_24  Q24_0  0.0222625166062
    G22_24  Q24_1  -0.00305862313727
    G22_24  Q24_2  -0.0180799856261
    G22_24  Q24_3  0.131595863232
    G22_24  Q24_4  -0.12277692318
    G22_24  Q24_5  -0.106293380613
    G22_24  Q24_6  -0.0611700183995
    G22_24  Q24_7  0.00920988382291
    G22_26  COST  -149.011681845
    G22_26  PB22  -1
    G22_26  DM26  1
    G22_26  Q26_0  0.0285982013184
    G22_26  Q26_1  -0.0354577625309
    G22_26  Q26_2  -0.0770045563415
    G22_26  Q26_3  0.143462068839
    G22_26  Q26_4  -0.131055206419
    G22_26  Q26_5  -6.34472610845e-05
    G22_26  Q26_6  -0.0762091153887
    G22_26  Q26_7  0.00144215225866
    G22_27  COST  -159.175234463
    G22_27  PB22  -1
    G22_27  DM27  1
    G22_27  Q27_0  0.00193444664456
    G22_27  Q27_1  -0.0376747498996
    G22_27  Q27_2  -0.0469035855744
    G22_27  Q27_3  0.131495836135
    G22_27  Q27_4  -0.114598144483
    G22_27  Q27_5  -0.0191843165431
    G22_27  Q27_6  -0.0256538181255
    G22_27  Q27_7  -0.0453721401235
    G22_29  COST  -117.226565852
    G22_29  PB22  -1
    G22_29  DM29  1
    G22_29  Q29_0  0.00803766788339
    G22_29  Q29_1  0.00376365541972
    G22_29  Q29_2  -0.0267285865896
    G22_29  Q29_3  0.134796924293
    G22_29  Q29_4  -0.109637466855
    G22_29  Q29_5  -6.76770784902e-05
    G22_29  Q29_6  -0.0756018979419
    G22_29  Q29_7  0.00183705267512
    G22_30  COST  -162.75162392
    G22_30  PB22  -1
    G22_30  DM30  1
    G22_30  Q30_0  0.0380874133112
    G22_30  Q30_1  -0.0316513175839
    G22_30  Q30_2  -0.018817534609
    G22_30  Q30_3  0.133645684728
    G22_30  Q30_4  -0.126877454549
    G22_30  Q30_5  -0.12071527133
    G22_30  Q30_6  -0.0552340606329
    G22_30  Q30_7  -0.00670094521621
    G22_31  COST  -100.259410695
    G22_31  PB22  -1
    G22_31  DM31  1
    G22_31  Q31_0  0.0100481950199
    G22_31  Q31_1  0.00470456927466
    G22_31  Q31_2  -0.0245414042709
    G22_31  Q31_3  0.133546080562
    G22_31  Q31_4  -0.0931131747503
    G22_31  Q31_5  -0.0341146977877
    G22_31  Q31_6  -0.0481920126383
    G22_31  Q31_7  0.00229631584389
    G22_32  COST  -170.549284717
    G22_32  PB22  -1
    G22_32  DM32  1
    G22_32  Q32_0  0.00368614222964
    G22_32  Q32_1  -0.039213198096
    G22_32  Q32_2  -0.0818316719929
    G22_32  Q32_3  0.143634640989
    G22_32  Q32_4  -0.124520018928
    G22_32  Q32_5  -0.0342631995799
    G22_32  Q32_6  -0.0616083057526
    G22_32  Q32_7  0.00173058271039
    G22_34  COST  -155.512082857
    G22_34  PB22  -1
    G22_34  DM34  1
    G22_34  Q34_0  0.00235323648685
    G22_34  Q34_1  -0.00114698367648
    G22_34  Q34_2  -0.029794807793
    G22_34  Q34_3  0.127234833721
    G22_34  Q34_4  -0.0894794833566
    G22_34  Q34_5  -0.00196404067397
    G22_34  Q34_6  -0.0653838012303
    G22_34  Q34_7  -0.00933410669668
    G22_35  COST  -153.515246559
    G22_35  PB22  -1
    G22_35  DM35  1
    G22_35  Q35_0  0.024168538284
    G22_35  Q35_1  -0.0390032046957
    G22_35  Q35_2  -0.0349490616675
    G22_35  Q35_3  0.102967084378
    G22_35  Q35_4  -0.120351435271
    G22_35  Q35_5  -0.0418562586203
    G22_35  Q35_6  -0.0162161525358
    G22_35  Q35_7  -0.0453721401235
    G22_37  COST  -153.298206262
    G22_37  PB22  -1
    G22_37  DM37  1
    G22_37  Q37_0  0.0212792560582
    G22_37  Q37_1  -0.0109832872031
    G22_37  Q37_2  -0.0233253626423
    G22_37  Q37_3  0.136698434676
    G22_37  Q37_4  -0.109637466855
    G22_37  Q37_5  0.00373006590629
    G22_37  Q37_6  -0.0224025305143
    G22_37  Q37_7  0.00183705267512
    G23_0  COST  -152.34227309
    G23_0  PB23  -1
    G23_0  DM0  1
    G23_0  Q0_0  -0.0999687253412
    G23_0  Q0_1  -0.0917857919376
    G23_0  Q0_2  -0.135365035208
    G23_0  Q0_3  -0.0161194870556
    G23_0  Q0_4  -0.0943048409446
    G23_0  Q0_5  -0.176348521059
    G23_0  Q0_6  0.00731718296619
    G23_0  Q0_7  -0.0743487294356
    G23_1  COST  -138.180720418
    G23_1  PB23  -1
    G23_1  DM1  1
    G23_1  Q1_0  -0.0868206321988
    G23_1  Q1_1  -0.093080220192
    G23_1  Q1_2  -0.140642696924
    G23_1  Q1_3  -0.0720033443912
    G23_1  Q1_4  -0.10912544997
    G23_1  Q1_5  -0.153760637478
    G23_1  Q1_6  0.00997482036491
    G23_1  Q1_7  -0.0632678839105
    G23_2  COST  -159.268847256
    G23_2  PB23  -1
    G23_2  DM2  1
    G23_2  Q2_0  -0.0918183096371
    G23_2  Q2_1  -0.0924500193357
    G23_2  Q2_2  -0.0969412500819
    G23_2  Q2_3  -0.00406722569733
    G23_2  Q2_4  -0.107096933708
    G23_2  Q2_5  -0.199569181903
    G23_2  Q2_6  -0.0044071791064
    G23_2  Q2_7  -0.0388183203038
    G23_3  COST  -147.831627981
    G23_3  PB23  -1
    G23_3  DM3  1
    G23_3  Q3_0  -0.0719495393182
    G23_3  Q3_1  -0.12399197762
    G23_3  Q3_2  -0.199755900189
    G23_3  Q3_3  -0.0056953152637
    G23_3  Q3_4  -0.168211894983
    G23_3  Q3_5  -0.149760749803
    G23_3  Q3_6  0.0559925525726
    G23_3  Q3_7  -0.0220002703976
    G23_7  COST  -188.467036352
    G23_7  PB23  -1
    G23_7  DM7  1
    G23_7  Q7_0  -0.0729512448094
    G23_7  Q7_1  -0.0528869553717
    G23_7  Q7_2  -0.156380705402
    G23_7  Q7_3  -0.0711208669964
    G23_7  Q7_4  -0.111034879187
    G23_7  Q7_5  -0.153760637478
    G23_7  Q7_6  -0.004721977614
    G23_7  Q7_7  -0.0270100580418
    G23_10  COST  -119.377262621
    G23_10  PB23  -1
    G23_10  DM10  1
    G23_10  Q10_0  -0.100757825004
    G23_10  Q10_1  -0.0970640150203
    G23_10  Q10_2  -0.126745728012
    G23_10  Q10_3  -0.0191296690228
    G23_10  Q10_4  -0.10849565925
    G23_10  Q10_5  -0.155229529427
    G23_10  Q10_6  0.0308291255314
    G23_10  Q10_7  -0.0577452868894
    G23_12  COST  -171.498955341
    G23_12  PB23  -1
    G23_12  DM12  1
    G23_12  Q12_0  -0.101523086757
    G23_12  Q12_1  -0.0975533486075
    G23_12  Q12_2  -0.118716811876
    G23_12  Q12_3  -0.00618004537391
    G23_12  Q12_4  -0.105689010508
    G23_12  Q12_5  -0.153705649852
    G23_12  Q12_6  -0.000775692799544
    G23_12  Q12_7  -0.0299330831581
    G23_14  COST  -130.595506027
    G23_14  PB23  -1
    G23_14  DM14  1
    G23_14  Q14_0  -0.0844776373144
    G23_14  Q14_1  -0.0821615803768
    G23_14  Q14_2  -0.0636179676119
    G23_14  Q14_3  -0.00498340085574
    G23_14  Q14_4  -0.107096933708
    G23_14  Q14_5  -0.176348521059
    G23_14  Q14_6  0.00561852440576
    G23_14  Q14_7  -0.0163067008386
    G23_15  COST  -101.192354289
    G23_15  PB23  -1
    G23_15  DM15  1
    G23_15  Q15_0  -0.0827354928616
    G23_15  Q15_1  -0.134616884008
    G23_15  Q15_2  -0.114212860131
    G23_15  Q15_3  -0.0056953152637
    G23_15  Q15_4  -0.0430621049799
    G23_15  Q15_5  -0.177782393295
    G23_15  Q15_6  0.025200131317
    G23_15  Q15_7  -0.0698873065098
    G23_16  COST  -183.841217894
    G23_16  PB23  -1
    G23_16  DM16  1
    G23_16  Q16_0  -0.0855808678791
    G23_16  Q16_1  -0.0975533486075
    G23_16  Q16_2  -0.151174130765
    G23_16  Q16_3  -0.0193061645018
    G23_16  Q16_4  -0.118688441178
    G23_16  Q16_5  -0.191537715773
    G23_16  Q16_6  0.0283194045446
    G23_16  Q16_7  -0.0462473628298
    G23_18  COST  -175.859057143
    G23_18  PB23  -1
    G23_18  DM18  1
    G23_18  Q18_0  -0.0992053314894
    G23_18  Q18_1  -0.122254148913
    G23_18  Q18_2  -0.128836451129
    G23_18  Q18_3  -0.0203651373756
    G23_18  Q18_4  -0.0900913520814
    G23_18  Q18_5  -0.184469737894
    G23_18  Q18_6  -0.0106561164159
    G23_18  Q18_7  -0.0470205695591
    G23_21  COST  -123.466766883
    G23_21  PB23  -1
    G23_21  DM21  1
    G23_21  Q21_0  -0.10009595765
    G23_21  Q21_1  -0.0949918596528
    G23_21  Q21_2  -0.100687154342
    G23_21  Q21_3  -0.0142148801579
    G23_21  Q21_4  -0.0713164128785
    G23_21  Q21_5  -0.177065457177
    G23_21  Q21_6  -0.00581769599658
    G23_21  Q21_7  -0.0814289738935
    G23_22  COST  -144.293092726
    G23_22  PB23  -1
    G23_22  DM22  1
    G23_22  Q22_0  -0.0488176291136
    G23_22  Q22_1  -0.104002480596
    G23_22  Q22_2  -0.0835371916306
    G23_22  Q22_3  -0.0213579338509
    G23_22  Q22_4  -0.123408929466
    G23_22  Q22_5  -0.184090354347
    G23_22  Q22_6  0.0285359048637
    G23_22  Q22_7  -0.023548892621
    G23_24  COST  -162.878154135
    G23_24  PB23  -1
    G23_24  DM24  1
    G23_24  Q24_0  -0.0817522323137
    G23_24  Q24_1  -0.056295444377
    G23_24  Q24_2  -0.10001285118
    G23_24  Q24_3  -0.0202651102792
    G23_24  Q24_4  -0.114369626813
    G23_24  Q24_5  -0.25999057083
    G23_24  Q24_6  -0.00688035328937
    G23_24  Q24_7  -0.0192423264775
    G23_25  COST  -174.481452841
    G23_25  PB23  -1
    G23_25  DM25  1
    G23_25  Q25_0  -0.0739985650595
    G23_25  Q25_1  -0.0910071451516
    G23_25  Q25_2  -0.104570433271
    G23_25  Q25_3  -0.00189531735438
    G23_25  Q25_4  -0.113410415301
    G23_25  Q25_5  -0.189643401588
    G23_25  Q25_6  -0.000629597015199
    G23_25  Q25_7  -0.0464221558337
    G23_26  COST  -149.011681845
    G23_26  PB23  -1
    G23_26  DM26  1
    G23_26  Q26_0  -0.0754165476014
    G23_26  Q26_1  -0.0886945837706
    G23_26  Q26_2  -0.158937421896
    G23_26  Q26_3  -0.00839890467159
    G23_26  Q26_4  -0.122647910051
    G23_26  Q26_5  -0.153760637478
    G23_26  Q26_6  -0.0219194502786
    G23_26  Q26_7  -0.0270100580418
    G23_28  COST  -132.687660165
    G23_28  PB23  -1
    G23_28  DM28  1
    G23_28  Q28_0  -0.0887494657482
    G23_28  Q28_1  -0.0654311764922
    G23_28  Q28_2  -0.118716811876
    G23_28  Q28_3  -0.00733340621372
    G23_28  Q28_4  -0.113459153936
    G23_28  Q28_5  -0.196359646449
    G23_28  Q28_6  -0.00644206593634
    G23_28  Q28_7  -0.02166634612
    G23_29  COST  -117.226565852
    G23_29  PB23  -1
    G23_29  DM29  1
    G23_29  Q29_0  -0.0959770810364
    G23_29  Q29_1  -0.04947316582
    G23_29  Q29_2  -0.108661452144
    G23_29  Q29_3  -0.0170640492183
    G23_29  Q29_4  -0.101230170487
    G23_29  Q29_5  -0.153764867296
    G23_29  Q29_6  -0.0213122328317
    G23_29  Q29_7  -0.0266151576253
    G23_30  COST  -162.75162392
    G23_30  PB23  -1
    G23_30  DM30  1
    G23_30  Q30_0  -0.0659273356086
    G23_30  Q30_1  -0.0848881388236
    G23_30  Q30_2  -0.100750400163
    G23_30  Q30_3  -0.0182152887831
    G23_30  Q30_4  -0.118470158182
    G23_30  Q30_5  -0.274412461547
    G23_30  Q30_6  -0.000944395522799
    G23_30  Q30_7  -0.0351531555167
    G23_31  COST  -100.259410695
    G23_31  PB23  -1
    G23_31  DM31  1
    G23_31  Q31_0  -0.0939665538999
    G23_31  Q31_1  -0.0485322519651
    G23_31  Q31_2  -0.106474269825
    G23_31  Q31_3  -0.0183148929486
    G23_31  Q31_4  -0.0847058783826
    G23_31  Q31_5  -0.187811888005
    G23_31  Q31_6  0.00609765247183
    G23_31  Q31_7  -0.0261558944566
    G23_33  COST  -100.650989836
    G23_33  PB23  -1
    G23_33  DM33  1
    G23_33  Q33_0  -0.0659273356086
    G23_33  Q33_1  -0.0561535115698
    G23_33  Q33_2  -0.0960356566386
    G23_33  Q33_3  -0.088929914942
    G23_33  Q33_4  -0.0900937538662
    G23_33  Q33_5  -0.157812039246
    G23_33  Q33_6  -0.000944395522799
    G23_33  Q33_7  -0.0761842815364
    G23_36  COST  -109.496117872
    G23_36  PB23  -1
    G23_36  DM36  1
    G23_36  Q36_0  -0.0918954681722
    G23_36  Q36_1  -0.10048935013
    G23_36  Q36_2  -0.183924413892
    G23_36  Q36_3  -0.0132858005673
    G23_36  Q36_4  -0.113462459203
    G23_36  Q36_5  -0.158793638101
    G23_36  Q36_6  0.0112370488115
    G23_36  Q36_7  -0.0634115627122
    G23_37  COST  -153.298206262
    G23_37  PB23  -1
    G23_37  DM37  1
    G23_37  Q37_0  -0.0827354928616
    G23_37  Q37_1  -0.0642201084429
    G23_37  Q37_2  -0.105258228197
    G23_37  Q37_3  -0.0151625388351
    G23_37  Q37_4  -0.101230170487
    G23_37  Q37_5  -0.149967124311
    G23_37  Q37_6  0.0318871345958
    G23_37  Q37_7  -0.0266151576253
    G23_38  COST  -168.206235695
    G23_38  PB23  -1
    G23_38  DM38  1
    G23_38  Q38_0  -0.0855808678791
    G23_38  Q38_1  -0.0531590510692
    G23_38  Q38_2  -0.111514971851
    G23_38  Q38_3  -0.000926176542054
    G23_38  Q38_4  -0.108407267285
    G23_38  Q38_5  -0.156677272288
    G23_38  Q38_6  0.0168555732173
    G23_38  Q38_7  -0.021629415449
    G24_0  COST  -152.34227309
    G24_0  PB24  -1
    G24_0  DM0  1
    G24_0  Q0_0  -0.0349004608327
    G24_0  Q0_1  -0.273998428281
    G24_0  Q0_2  0.0865574478133
    G24_0  Q0_3  -0.14024511624
    G24_0  Q0_4  0.148692715312
    G24_0  Q0_5  -0.0634030985659
    G24_0  Q0_6  -0.21746234871
    G24_0  Q0_7  0.0810584306786
    G24_1  COST  -138.180720418
    G24_1  PB24  -1
    G24_1  DM1  1
    G24_1  Q1_0  -0.0217523676903
    G24_1  Q1_1  -0.275292856536
    G24_1  Q1_2  0.0812797860975
    G24_1  Q1_3  -0.196128973576
    G24_1  Q1_4  0.133872106286
    G24_1  Q1_5  -0.0408152149858
    G24_1  Q1_6  -0.214804711312
    G24_1  Q1_7  0.0921392762036
    G24_3  COST  -147.831627981
    G24_3  PB24  -1
    G24_3  DM3  1
    G24_3  Q3_0  -0.00688127480965
    G24_3  Q3_1  -0.306204613964
    G24_3  Q3_2  0.0221665828329
    G24_3  Q3_3  -0.129820944448
    G24_3  Q3_4  0.0747856612732
    G24_3  Q3_5  -0.03681532731
    G24_3  Q3_6  -0.168786979104
    G24_3  Q3_7  0.133406889717
    G24_4  COST  -137.510572437
    G24_4  PB24  -1
    G24_4  DM4  1
    G24_4  Q4_0  -0.00849982612273
    G24_4  Q4_1  -0.244972925691
    G24_4  Q4_2  0.0634039483001
    G24_4  Q4_3  -0.144667262039
    G24_4  Q4_4  0.128475131402
    G24_4  Q4_5  -0.0720017654173
    G24_4  Q4_6  -0.217312090168
    G24_4  Q4_7  0.0766005323992
    G24_6  COST  -103.656002187
    G24_6  PB24  -1
    G24_6  DM6  1
    G24_6  Q6_0  -0.0199465662991
    G24_6  Q6_1  -0.240834510098
    G24_6  Q6_2  0.107642391714
    G24_6  Q6_3  -0.125011106078
    G24_6  Q6_4  0.131962677069
    G24_6  Q6_5  -0.0656849142041
    G24_6  Q6_6  -0.198093661066
    G24_6  Q6_7  0.0884370940596
    G24_7  COST  -188.467036352
    G24_7  PB24  -1
    G24_7  DM7  1
    G24_7  Q7_0  -0.0078829803009
    G24_7  Q7_1  -0.235099591715
    G24_7  Q7_2  0.06554177762
    G24_7  Q7_3  -0.195246496181
    G24_7  Q7_4  0.131962677069
    G24_7  Q7_5  -0.0408152149858
    G24_7  Q7_6  -0.22950150929
    G24_7  Q7_7  0.128397102072
    G24_10  COST  -119.377262621
    G24_10  PB24  -1
    G24_10  DM10  1
    G24_10  Q10_0  -0.0356895604952
    G24_10  Q10_1  -0.279276651364
    G24_10  Q10_2  0.0951767550096
    G24_10  Q10_3  -0.143255298208
    G24_10  Q10_4  0.134501897006
    G24_10  Q10_5  -0.0422841069342
    G24_10  Q10_6  -0.193950406145
    G24_10  Q10_7  0.0976618732248
    G24_13  COST  -113.646669801
    G24_13  PB24  -1
    G24_13  DM13  1
    G24_13  Q13_0  -0.01672340534
    G24_13  Q13_1  -0.283191320061
    G24_13  Q13_2  0.0362649850106
    G24_13  Q13_3  -0.137883710833
    G24_13  Q13_4  0.126813974483
    G24_13  Q13_5  -0.104976003235
    G24_13  Q13_6  -0.183461670345
    G24_13  Q13_7  0.0686135010824
    G24_16  COST  -183.841217894
    G24_16  PB24  -1
    G24_16  DM16  1
    G24_16  Q16_0  -0.0205126033706
    G24_16  Q16_1  -0.279765984951
    G24_16  Q16_2  0.0707483522562
    G24_16  Q16_3  -0.143431793687
    G24_16  Q16_4  0.124309115078
    G24_16  Q16_5  -0.0785922932799
    G24_16  Q16_6  -0.196460127132
    G24_16  Q16_7  0.109159797284
    G24_17  COST  -128.893635511
    G24_17  PB24  -1
    G24_17  DM17  1
    G24_17  Q17_0  -0.00893030055099
    G24_17  Q17_1  -0.266413331484
    G24_17  Q17_2  0.0884369223976
    G24_17  Q17_3  -0.0909854081943
    G24_17  Q17_4  0.134590288971
    G24_17  Q17_5  -0.0787445663693
    G24_17  Q17_6  -0.231221597613
    G24_17  Q17_7  0.0821071887018
    G24_18  COST  -175.859057143
    G24_18  PB24  -1
    G24_18  DM18  1
    G24_18  Q18_0  -0.0341370669808
    G24_18  Q18_1  -0.304466785256
    G24_18  Q18_2  0.0930860318928
    G24_18  Q18_3  -0.14449076656
    G24_18  Q18_4  0.152906204175
    G24_18  Q18_5  -0.0715243154015
    G24_18  Q18_6  -0.235435648092
    G24_18  Q18_7  0.108386590555
    G24_19  COST  -186.574135721
    G24_19  PB24  -1
    G24_19  DM19  1
    G24_19  Q19_0  -0.0368233878373
    G24_19  Q19_1  -0.251973767241
    G24_19  Q19_2  0.0913994253506
    G24_19  Q19_3  -0.139472170144
    G24_19  Q19_4  0.146975243516
    G24_19  Q19_5  -0.0464746970504
    G24_19  Q19_6  -0.223352827206
    G24_19  Q19_7  0.165457783739
    G24_23  COST  -170.438674511
    G24_23  PB24  -1
    G24_23  DM23  1
    G24_23  Q23_0  -0.0172605988332
    G24_23  Q23_1  -0.239272736505
    G24_23  Q23_2  0.0741073801681
    G24_23  Q23_3  -0.138233098667
    G24_23  Q23_4  0.13650467961
    G24_23  Q23_5  -0.0605353540933
    G24_23  Q23_6  -0.191344967937
    G24_23  Q23_7  0.085132119469
    G24_25  COST  -174.481452841
    G24_25  PB24  -1
    G24_25  DM25  1
    G24_25  Q25_0  -0.00893030055099
    G24_25  Q25_1  -0.273219781495
    G24_25  Q25_2  0.117352049751
    G24_25  Q25_3  -0.126020946539
    G24_25  Q25_4  0.129587140955
    G24_25  Q25_5  -0.0766979790957
    G24_25  Q25_6  -0.225409128692
    G24_25  Q25_7  0.10898500428
    G24_27  COST  -159.175234463
    G24_27  PB24  -1
    G24_27  DM27  1
    G24_27  Q27_0  -0.0370120377667
    G24_27  Q27_1  -0.273124207483
    G24_27  Q27_2  0.0930860318928
    G24_27  Q27_3  -0.14449076656
    G24_27  Q27_4  0.136806708141
    G24_27  Q27_5  -0.0599360842677
    G24_27  Q27_6  -0.196143684692
    G24_27  Q27_7  0.0815828096902
    G24_30  COST  -162.75162392
    G24_30  PB24  -1
    G24_30  DM30  1
    G24_30  Q30_0  -0.000859071100116
    G24_30  Q30_1  -0.267100775167
    G24_30  Q30_2  0.121172082858
    G24_30  Q30_3  -0.142340917968
    G24_30  Q30_4  0.124527398074
    G24_30  Q30_5  -0.161467039055
    G24_30  Q30_6  -0.225723927199
    G24_30  Q30_7  0.120254004597
    G24_31  COST  -100.259410695
    G24_31  PB24  -1
    G24_31  DM31  1
    G24_31  Q31_0  -0.0288982893914
    G24_31  Q31_1  -0.230744888309
    G24_31  Q31_2  0.115448213196
    G24_31  Q31_3  -0.142440522133
    G24_31  Q31_4  0.158291677874
    G24_31  Q31_5  -0.0748664655124
    G24_31  Q31_6  -0.218681879205
    G24_31  Q31_7  0.129251265658
    G24_32  COST  -170.549284717
    G24_32  PB24  -1
    G24_32  DM32  1
    G24_32  Q32_0  -0.0352603421817
    G24_32  Q32_1  -0.274662655679
    G24_32  Q32_2  0.0581579454743
    G24_32  Q32_3  -0.132351961707
    G24_32  Q32_4  0.126884833696
    G24_32  Q32_5  -0.0750149673046
    G24_32  Q32_6  -0.232098172319
    G24_32  Q32_7  0.128685532524
    G24_33  COST  -100.650989836
    G24_33  PB24  -1
    G24_33  DM33  1
    G24_33  Q33_0  -0.000859071100116
    G24_33  Q33_1  -0.238366147913
    G24_33  Q33_2  0.125886826383
    G24_33  Q33_3  -0.213055544127
    G24_33  Q33_4  0.15290380239
    G24_33  Q33_5  -0.0448666167531
    G24_33  Q33_6  -0.225723927199
    G24_33  Q33_7  0.0792228785777
    G24_35  COST  -153.515246559
    G24_35  PB24  -1
    G24_35  DM35  1
    G24_35  Q35_0  -0.0147779461273
    G24_35  Q35_1  -0.274452662279
    G24_35  Q35_2  0.1050405558
    G24_35  Q35_3  -0.173019518318
    G24_35  Q35_4  0.131053417353
    G24_35  Q35_5  -0.082608026345
    G24_35  Q35_6  -0.186706019102
    G24_35  Q35_7  0.0815828096902
    G24_36  COST  -109.496117872
    G24_36  PB24  -1
    G24_36  DM36  1
    G24_36  Q36_0  -0.0268272036637
    G24_36  Q36_1  -0.282701986474
    G24_36  Q36_2  0.0379980691298
    G24_36  Q36_3  -0.137411429752
    G24_36  Q36_4  0.129535097053
    G24_36  Q36_5  -0.0458482156084
    G24_36  Q36_6  -0.213542482865
    G24_36  Q36_7  0.0919955974019
    G24_39  COST  -148.23927624
    G24_39  PB24  -1
    G24_39  DM39  1
    G24_39  Q39_0  -0.036321396884
    G24_39  Q39_1  -0.26442064929
    G24_39  Q39_2  0.0142520257113
    G24_39  Q39_3  -0.134930734222
    G24_39  Q39_4  0.113946058004
    G24_39  Q39_5  -0.0420893269567
    G24_39  Q39_6  -0.200955141309
    G24_39  Q39_7  0.129298337083
    G25_1  COST  -138.180720418
    G25_1  PB25  -1
    G25_1  DM1  1
    G25_1  Q1_0  -0.0925236925295
    G25_1  Q1_1  -0.0412428624243
    G25_1  Q1_2  0.0696140096505
    G25_1  Q1_3  -0.14948646285
    G25_1  Q1_4  0.00292004917939
    G25_1  Q1_5  -0.00507897836758
    G25_1  Q1_6  0.0177317483603
    G25_1  Q1_7  0.298529031372
    G25_2  COST  -159.268847256
    G25_2  PB25  -1
    G25_2  DM2  1
    G25_2  Q2_0  -0.0975213699678
    G25_2  Q2_1  -0.0406126615679
    G25_2  Q2_2  0.113315456493
    G25_2  Q2_3  -0.0815503441564
    G25_2  Q2_4  0.00494856544175
    G25_2  Q2_5  -0.0508875227919
    G25_2  Q2_6  0.00334974888904
    G25_2  Q2_7  0.322978594979
    G25_5  COST  -131.682337746
    G25_5  PB25  -1
    G25_5  DM5  1
    G25_5  Q5_0  -0.102297183219
    G25_5  Q5_1  -0.024885002264
    G25_5  Q5_2  0.0872429583002
    G25_5  Q5_3  -0.0727547068198
    G25_5  Q5_4  0.0167305812905
    G25_5  Q5_5  -0.0396518554009
    G25_5  Q5_6  0.0279008914817
    G25_5  Q5_7  0.287360789345
    G25_6  COST  -103.656002187
    G25_6  PB25  -1
    G25_6  DM6  1
    G25_6  Q6_0  -0.0907178911383
    G25_6  Q6_1  -0.00678451598636
    G25_6  Q6_2  0.0959766152667
    G25_6  Q6_3  -0.0783685953524
    G25_6  Q6_4  0.00101061996238
    G25_6  Q6_5  -0.0299486775859
    G25_6  Q6_6  0.0344427986061
    G25_6  Q6_7  0.294826849228
    G25_7  COST  -188.467036352
    G25_7  PB25  -1
    G25_7  DM7  1
    G25_7  Q7_0  -0.0786543051401
    G25_7  Q7_1  -0.00104959760398
    G25_7  Q7_2  0.053876001173
    G25_7  Q7_3  -0.148603985455
    G25_7  Q7_4  0.00101061996238
    G25_7  Q7_5  -0.00507897836758
    G25_7  Q7_6  0.00303495038144
    G25_7  Q7_7  0.334786857241
    G25_11  COST  -112.2567622
    G25_11  PB25  -1
    G25_11  DM11  1
    G25_11  Q11_0  -0.0919842951621
    G25_11  Q11_1  -0.0521651228281
    G25_11  Q11_2  0.0728135980229
    G25_11  Q11_3  -0.0838480253076
    G25_11  Q11_4  -0.00087154787361
    G25_11  Q11_5  -0.000765019118192
    G25_11  Q11_6  -0.00333720812476
    G25_11  Q11_7  0.338965748532
    G25_12  COST  -171.498955341
    G25_12  PB25  -1
    G25_12  DM12  1
    G25_12  Q12_0  -0.107226147088
    G25_12  Q12_1  -0.0457159908397
    G25_12  Q12_2  0.0915398946988
    G25_12  Q12_3  -0.083663163833
    G25_12  Q12_4  0.00635648864128
    G25_12  Q12_5  -0.00502399074131
    G25_12  Q12_6  0.00698123519589
    G25_12  Q12_7  0.331863832124
    G25_17  COST  -128.893635511
    G25_17  PB25  -1
    G25_17  DM17  1
    G25_17  Q17_0  -0.0797016253902
    G25_17  Q17_1  -0.0323633373729
    G25_17  Q17_2  0.0767711459506
    G25_17  Q17_3  -0.0443428974687
    G25_17  Q17_4  0.00363823186456
    G25_17  Q17_5  -0.0430083297511
    G25_17  Q17_6  0.0013148620591
    G25_17  Q17_7  0.28849694387
    G25_21  COST  -123.466766883
    G25_21  PB25  -1
    G25_21  DM21  1
    G25_21  Q21_0  -0.105799017981
    G25_21  Q21_1  -0.0431545018851
    G25_21  Q21_2  0.109569552233
    G25_21  Q21_3  -0.091697998617
    G25_21  Q21_4  0.0407290862712
    G25_21  Q21_5  -0.0283837980658
    G25_21  Q21_6  0.00193923199886
    G25_21  Q21_7  0.280367941389
    G25_24  COST  -162.878154135
    G25_24  PB25  -1
    G25_24  DM24  1
    G25_24  Q24_0  -0.0874552926443
    G25_24  Q24_1  -0.00445808660924
    G25_24  Q24_2  0.110243855394
    G25_24  Q24_3  -0.0977482287383
    G25_24  Q24_4  -0.00232412766296
    G25_24  Q24_5  -0.11130891172
    G25_24  Q24_6  0.000876574706067
    G25_24  Q24_7  0.342554588805
    G25_26  COST  -149.011681845
    G25_26  PB25  -1
    G25_26  DM26  1
    G25_26  Q26_0  -0.0811196079321
    G25_26  Q26_1  -0.0368572260028
    G25_26  Q26_2  0.0513192846787
    G25_26  Q26_3  -0.0858820231307
    G25_26  Q26_4  -0.0106024109012
    G25_26  Q26_5  -0.00507897836758
    G25_26  Q26_6  -0.0141625222832
    G25_26  Q26_7  0.334786857241
    G25_28  COST  -132.687660165
    G25_28  PB25  -1
    G25_28  DM28  1
    G25_28  Q28_0  -0.0944525260789
    G25_28  Q28_1  -0.0135938187245
    G25_28  Q28_2  0.0915398946988
    G25_28  Q28_3  -0.0848165246728
    G25_28  Q28_4  -0.00141365478682
    G25_28  Q28_5  -0.0476779873386
    G25_28  Q28_6  0.0013148620591
    G25_28  Q28_7  0.340130569162
    G25_30  COST  -162.75162392
    G25_30  PB25  -1
    G25_30  DM30  1
    G25_30  Q30_0  -0.0716303959393
    G25_30  Q30_1  -0.0330507810559
    G25_30  Q30_2  0.109506306411
    G25_30  Q30_3  -0.0956984072422
    G25_30  Q30_4  -0.00642465903206
    G25_30  Q30_5  -0.125730802436
    G25_30  Q30_6  0.00681253247264
    G25_30  Q30_7  0.326643759766
    G25_32  COST  -170.549284717
    G25_32  PB25  -1
    G25_32  DM32  1
    G25_32  Q32_0  -0.106031667021
    G25_32  Q32_1  -0.0406126615679
    G25_32  Q32_2  0.0464921690273
    G25_32  Q32_3  -0.0857094509809
    G25_32  Q32_4  -0.00406722341018
    G25_32  Q32_5  -0.0392787306864
    G25_32  Q32_6  0.000438287353033
    G25_32  Q32_7  0.335075287692
    G25_33  COST  -100.650989836
    G25_33  PB25  -1
    G25_33  DM33  1
    G25_33  Q33_0  -0.0716303959393
    G25_33  Q33_1  -0.00431615380204
    G25_33  Q33_2  0.114221049936
    G25_33  Q33_3  -0.166413033401
    G25_33  Q33_4  0.0219517452834
    G25_33  Q33_5  -0.0091303801349
    G25_33  Q33_6  0.00681253247264
    G25_33  Q33_7  0.285612633746
    G25_34  COST  -155.512082857
    G25_34  PB25  -1
    G25_34  DM34  1
    G25_34  Q34_0  -0.107364572764
    G25_34  Q34_1  -0.00254644714845
    G25_34  Q34_2  0.0985290332272
    G25_34  Q34_3  -0.102109258249
    G25_34  Q34_4  0.0309733121608
    G25_34  Q34_5  -0.00697957178048
    G25_34  Q34_6  -0.00333720812476
    G25_34  Q34_7  0.324010598285
    G25_38  COST  -168.206235695
    G25_38  PB25  -1
    G25_38  DM38  1
    G25_38  Q38_0  -0.0912839282098
    G25_38  Q38_1  -0.00132169330151
    G25_38  Q38_2  0.0987417347239
    G25_38  Q38_3  -0.0784092950011
    G25_38  Q38_4  0.00363823186456
    G25_38  Q38_5  -0.00799561317749
    G25_38  Q38_6  0.0246125012127
    G25_38  Q38_7  0.340167499833
    G25_39  COST  -148.23927624
    G25_39  PB25  -1
    G25_39  DM39  1
    G25_39  Q39_0  -0.107092721723
    G25_39  Q39_1  -0.0303706551788
    G25_39  Q39_2  0.0025862492643
    G25_39  Q39_3  -0.0882882234961
    G25_39  Q39_4  -0.0170059991028
    G25_39  Q39_5  -0.00635309033852
    G25_39  Q39_6  0.0315813183626
    G25_39  Q39_7  0.335688092252
    G26_1  COST  -138.180720418
    G26_1  PB26  -1
    G26_1  DM1  1
    G26_1  Q1_0  -0.146849760465
    G26_1  Q1_1  -0.17283265373
    G26_1  Q1_2  -0.123329740156
    G26_1  Q1_3  0.016506753756
    G26_1  Q1_4  0.107008927057
    G26_1  Q1_5  0.188396500011
    G26_1  Q1_6  0.0162707905169
    G26_1  Q1_7  -0.152527915434
    G26_2  COST  -159.268847256
    G26_2  PB26  -1
    G26_2  DM2  1
    G26_2  Q2_0  -0.151847437903
    G26_2  Q2_1  -0.172202452873
    G26_2  Q2_2  -0.0796282933137
    G26_2  Q2_3  0.0844428724499
    G26_2  Q2_4  0.109037443319
    G26_2  Q2_5  0.142587955587
    G26_2  Q2_6  0.0018887910456
    G26_2  Q2_7  -0.128078351827
    G26_3  COST  -147.831627981
    G26_3  PB26  -1
    G26_3  DM3  1
    G26_3  Q3_0  -0.131978667584
    G26_3  Q3_1  -0.203744411158
    G26_3  Q3_2  -0.182442943421
    G26_3  Q3_3  0.0828147828835
    G26_3  Q3_4  0.0479224820438
    G26_3  Q3_5  0.192396387687
    G26_3  Q3_6  0.0622885227246
    G26_3  Q3_7  -0.111260301921
    G26_4  COST  -137.510572437
    G26_4  PB26  -1
    G26_4  DM4  1
    G26_4  Q4_0  -0.133597218897
    G26_4  Q4_1  -0.142512722885
    G26_4  Q4_2  -0.141205577953
    G26_4  Q4_3  0.0679684652926
    G26_4  Q4_4  0.101611952173
    G26_4  Q4_5  0.157209949579
    G26_4  Q4_6  0.0137634116608
    G26_4  Q4_7  -0.168066659238
    G26_7  COST  -188.467036352
    G26_7  PB26  -1
    G26_7  DM7  1
    G26_7  Q7_0  -0.132980373075
    G26_7  Q7_1  -0.132639388909
    G26_7  Q7_2  -0.139067748633
    G26_7  Q7_3  0.0173892311508
    G26_7  Q7_4  0.10509949784
    G26_7  Q7_5  0.188396500011
    G26_7  Q7_6  0.001573992538
    G26_7  Q7_7  -0.116270089565
    G26_8  COST  -106.767755964
    G26_8  PB26  -1
    G26_8  DM8  1
    G26_8  Q8_0  -0.161347076665
    G26_8  Q8_1  -0.145584595604
    G26_8  Q8_2  -0.0945006568847
    G26_8  Q8_3  0.0653126628018
    G26_8  Q8_4  0.107638717776
    G26_8  Q8_5  0.151288710561
    G26_8  Q8_6  0.023773165596
    G26_8  Q8_7  -0.119136422254
    G26_14  COST  -130.595506027
    G26_14  PB26  -1
    G26_14  DM14  1
    G26_14  Q14_0  -0.14450676558
    G26_14  Q14_1  -0.161914013914
    G26_14  Q14_2  -0.0463050108437
    G26_14  Q14_3  0.0835266972915
    G26_14  Q14_4  0.109037443319
    G26_14  Q14_5  0.165808616431
    G26_14  Q14_6  0.0119144945578
    G26_14  Q14_7  -0.105566732362
    G26_17  COST  -128.893635511
    G26_17  PB26  -1
    G26_17  DM17  1
    G26_17  Q17_0  -0.134027693326
    G26_17  Q17_1  -0.163953128678
    G26_17  Q17_2  -0.116172603856
    G26_17  Q17_3  0.121650319138
    G26_17  Q17_4  0.107727109742
    G26_17  Q17_5  0.150467148627
    G26_17  Q17_6  -0.000146095784344
    G26_17  Q17_7  -0.162560002936
    G26_22  COST  -144.293092726
    G26_22  PB26  -1
    G26_22  DM22  1
    G26_22  Q22_0  -0.10884675738
    G26_22  Q22_1  -0.183754914133
    G26_22  Q22_2  -0.0662242348624
    G26_22  Q22_3  0.0671521642963
    G26_22  Q22_4  0.0927254475613
    G26_22  Q22_5  0.158066783142
    G26_22  Q22_6  0.0348318750157
    G26_22  Q22_7  -0.112808924144
    G26_24  COST  -162.878154135
    G26_24  PB26  -1
    G26_24  DM24  1
    G26_24  Q24_0  -0.14178136058
    G26_24  Q24_1  -0.136047877915
    G26_24  Q24_2  -0.0826998944123
    G26_24  Q24_3  0.068244987868
    G26_24  Q24_4  0.101764750214
    G26_24  Q24_5  0.082166566659
    G26_24  Q24_6  -0.000584383137378
    G26_24  Q24_7  -0.108502358001
    G26_25  COST  -174.481452841
    G26_25  PB26  -1
    G26_25  DM25  1
    G26_25  Q25_0  -0.134027693326
    G26_25  Q25_1  -0.170759578689
    G26_25  Q25_2  -0.0872574765024
    G26_25  Q25_3  0.0866147807928
    G26_25  Q25_4  0.102723961726
    G26_25  Q25_5  0.152513735901
    G26_25  Q25_6  0.00566637313679
    G26_25  Q25_7  -0.135682187357
    G26_26  COST  -149.011681845
    G26_26  PB26  -1
    G26_26  DM26  1
    G26_26  Q26_0  -0.135445675867
    G26_26  Q26_1  -0.168447017308
    G26_26  Q26_2  -0.141624465128
    G26_26  Q26_3  0.0801111934756
    G26_26  Q26_4  0.093486466976
    G26_26  Q26_5  0.188396500011
    G26_26  Q26_6  -0.0156234801266
    G26_26  Q26_7  -0.116270089565
    G26_28  COST  -132.687660165
    G26_28  PB26  -1
    G26_28  DM28  1
    G26_28  Q28_0  -0.148778594014
    G26_28  Q28_1  -0.14518361003
    G26_28  Q28_2  -0.101403855108
    G26_28  Q28_3  0.0811766919335
    G26_28  Q28_4  0.10267522309
    G26_28  Q28_5  0.14579749104
    G26_28  Q28_6  -0.000146095784344
    G26_28  Q28_7  -0.110926377643
    G26_30  COST  -162.75162392
    G26_30  PB26  -1
    G26_30  DM30  1
    G26_30  Q30_0  -0.125956463875
    G26_30  Q30_1  -0.164640572361
    G26_30  Q30_2  -0.0834374433952
    G26_30  Q30_3  0.0702948093641
    G26_30  Q30_4  0.0976642188451
    G26_30  Q30_5  0.067744675942
    G26_30  Q30_6  0.00535157462919
    G26_30  Q30_7  -0.12441318704
    G26_31  COST  -100.259410695
    G26_31  PB26  -1
    G26_31  DM31  1
    G26_31  Q31_0  -0.153995682166
    G26_31  Q31_1  -0.128284685503
    G26_31  Q31_2  -0.0891613130571
    G26_31  Q31_3  0.0701952051986
    G26_31  Q31_4  0.131428498644
    G26_31  Q31_5  0.154345249484
    G26_31  Q31_6  0.0123936226238
    G26_31  Q31_7  -0.11541592598
    G26_32  COST  -170.549284717
    G26_32  PB26  -1
    G26_32  DM32  1
    G26_32  Q32_0  -0.160357734956
    G26_32  Q32_1  -0.172202452873
    G26_32  Q32_2  -0.146451580779
    G26_32  Q32_3  0.0802837656254
    G26_32  Q32_4  0.100021654467
    G26_32  Q32_5  0.154196747692
    G26_32  Q32_6  -0.00102267049041
    G26_32  Q32_7  -0.115981659113
    G26_33  COST  -100.650989836
    G26_33  PB26  -1
    G26_33  DM33  1
    G26_33  Q33_0  -0.125956463875
    G26_33  Q33_1  -0.135905945107
    G26_33  Q33_2  -0.0787226998704
    G26_33  Q33_3  -0.000419816794757
    G26_33  Q33_4  0.126040623161
    G26_33  Q33_5  0.184345098244
    G26_33  Q33_6  0.00535157462919
    G26_33  Q33_7  -0.16544431306
    G26_35  COST  -153.515246559
    G26_35  PB26  -1
    G26_35  DM35  1
    G26_35  Q35_0  -0.139875338902
    G26_35  Q35_1  -0.171992459473
    G26_35  Q35_2  -0.0995689704537
    G26_35  Q35_3  0.0396162090144
    G26_35  Q35_4  0.104190238124
    G26_35  Q35_5  0.146603688652
    G26_35  Q35_6  0.0443694827263
    G26_35  Q35_7  -0.163084381947
    G27_2  COST  -159.268847256
    G27_2  PB27  -1
    G27_2  DM2  1
    G27_2  Q2_0  -0.102932270842
    G27_2  Q2_1  -0.132652618331
    G27_2  Q2_2  -0.0490402822405
    G27_2  Q2_3  -0.044617476861
    G27_2  Q2_4  0.000906085592237
    G27_2  Q2_5  0.072700912569
    G27_2  Q2_6  -0.067211281529
    G27_2  Q2_7  -0.209860564802
    G27_3  COST  -147.831627981
    G27_3  PB27  -1
    G27_3  DM3  1
    G27_3  Q3_0  -0.083063500523
    G27_3  Q3_1  -0.164194576616
    G27_3  Q3_2  -0.151854932347
    G27_3  Q3_3  -0.0462455664274
    G27_3  Q3_4  -0.0602088756829
    G27_3  Q3_5  0.122509344669
    G27_3  Q3_6  -0.00681154984995
    G27_3  Q3_7  -0.193042514895
    G27_5  COST  -131.682337746
    G27_5  PB27  -1
    G27_5  DM5  1
    G27_5  Q5_0  -0.107708084093
    G27_5  Q5_1  -0.116924959027
    G27_5  Q5_2  -0.075112780433
    G27_5  Q5_3  -0.0358218395244
    G27_5  Q5_4  0.012688101441
    G27_5  Q5_5  0.08393657996
    G27_5  Q5_6  -0.0426601389364
    G27_5  Q5_7  -0.245478370435
    G27_6  COST  -103.656002187
    G27_6  PB27  -1
    G27_6  DM6  1
    G27_6  Q6_0  -0.0961287920125
    G27_6  Q6_1  -0.0988244727495
    G27_6  Q6_2  -0.0663791234665
    G27_6  Q6_3  -0.041435728057
    G27_6  Q6_4  -0.00303185988714
    G27_6  Q6_5  0.093639757775
    G27_6  Q6_6  -0.0361182318119
    G27_6  Q6_7  -0.238012310552
    G27_7  COST  -188.467036352
    G27_7  PB27  -1
    G27_7  DM7  1
    G27_7  Q7_0  -0.0840652060143
    G27_7  Q7_1  -0.0930895543671
    G27_7  Q7_2  -0.10847973756
    G27_7  Q7_3  -0.11167111816
    G27_7  Q7_4  -0.00303185988714
    G27_7  Q7_5  0.118509456993
    G27_7  Q7_6  -0.0675260800366
    G27_7  Q7_7  -0.19805230254
    G27_8  COST  -106.767755964
    G27_8  PB27  -1
    G27_8  DM8  1
    G27_8  Q8_0  -0.112431909604
    G27_8  Q8_1  -0.106034761062
    G27_8  Q8_2  -0.0639126458115
    G27_8  Q8_3  -0.0637476865091
    G27_8  Q8_4  -0.000492639950346
    G27_8  Q8_5  0.0814016675433
    G27_8  Q8_6  -0.0453269069786
    G27_8  Q8_7  -0.200918635229
    G27_9  COST  -102.291948084
    G27_9  PB27  -1
    G27_9  DM9  1
    G27_9  Q9_0  -0.10011789157
    G27_9  Q9_1  -0.12538196131
    G27_9  Q9_2  -0.0800200234139
    G27_9  Q9_3  -0.0511341483545
    G27_9  Q9_4  -0.00181790277177
    G27_9  Q9_5  0.0887872012486
    G27_9  Q9_6  -0.0297457932163
    G27_9  Q9_7  -0.195783579525
    G27_10  COST  -119.377262621
    G27_10  PB27  -1
    G27_10  DM10  1
    G27_10  Q10_0  -0.111871786209
    G27_10  Q10_1  -0.137266614016
    G27_10  Q10_2  -0.0788447601706
    G27_10  Q10_3  -0.0596799201865
    G27_10  Q10_4  -0.000492639950346
    G27_10  Q10_5  0.117040565045
    G27_10  Q10_6  -0.0319749768912
    G27_10  Q10_7  -0.228787531387
    G27_13  COST  -113.646669801
    G27_13  PB27  -1
    G27_13  DM13  1
    G27_13  Q13_0  -0.0929056310534
    G27_13  Q13_1  -0.141181282713
    G27_13  Q13_2  -0.13775653017
    G27_13  Q13_3  -0.0543083328124
    G27_13  Q13_4  -0.00818056247297
    G27_13  Q13_5  0.0543486687441
    G27_13  Q13_6  -0.0214862410908
    G27_13  Q13_7  -0.25783590353
    G27_14  COST  -130.595506027
    G27_14  PB27  -1
    G27_14  DM14  1
    G27_14  Q14_0  -0.0955915985193
    G27_14  Q14_1  -0.122364179372
    G27_14  Q14_2  -0.0157169997705
    G27_14  Q14_3  -0.0455336520195
    G27_14  Q14_4  0.000906085592237
    G27_14  Q14_5  0.0959215734132
    G27_14  Q14_6  -0.0571855780168
    G27_14  Q14_7  -0.187348945336
    G27_15  COST  -101.192354289
    G27_15  PB27  -1
    G27_15  DM15  1
    G27_15  Q15_0  -0.0938494540665
    G27_15  Q15_1  -0.174819483003
    G27_15  Q15_2  -0.0663118922898
    G27_15  Q15_3  -0.0462455664274
    G27_15  Q15_4  0.0649409143202
    G27_15  Q15_5  0.094487701177
    G27_15  Q15_6  -0.0376039711055
    G27_15  Q15_7  -0.240929551008
    G27_16  COST  -183.841217894
    G27_16  PB27  -1
    G27_16  DM16  1
    G27_16  Q16_0  -0.096694829084
    G27_16  Q16_1  -0.137755947603
    G27_16  Q16_2  -0.103273162924
    G27_16  Q16_3  -0.0598564156655
    G27_16  Q16_4  -0.010685421878
    G27_16  Q16_5  0.0807323786992
    G27_16  Q16_6  -0.0344846978779
    G27_16  Q16_7  -0.217289607328
    G27_17  COST  -128.893635511
    G27_17  PB27  -1
    G27_17  DM17  1
    G27_17  Q17_0  -0.0851125262644
    G27_17  Q17_1  -0.124403294136
    G27_17  Q17_2  -0.0855845927826
    G27_17  Q17_3  -0.00741003017333
    G27_17  Q17_4  -0.000404247984952
    G27_17  Q17_5  0.0805801056098
    G27_17  Q17_6  -0.0692461683589
    G27_17  Q17_7  -0.24434221591
    G27_19  COST  -186.574135721
    G27_19  PB27  -1
    G27_19  DM19  1
    G27_19  Q19_0  -0.113005613551
    G27_19  Q19_1  -0.109963729893
    G27_19  Q19_2  -0.0826220898297
    G27_19  Q19_3  -0.0558967921231
    G27_19  Q19_4  0.0119807065603
    G27_19  Q19_5  0.112849974929
    G27_19  Q19_6  -0.0613773979524
    G27_19  Q19_7  -0.160991620873
    G27_21  COST  -123.466766883
    G27_21  PB27  -1
    G27_21  DM21  1
    G27_21  Q21_0  -0.111209918855
    G27_21  Q21_1  -0.135194458648
    G27_21  Q21_2  -0.0527861865005
    G27_21  Q21_3  -0.0547651313216
    G27_21  Q21_4  0.0366866064217
    G27_21  Q21_5  0.0952046372951
    G27_21  Q21_6  -0.0686217984192
    G27_21  Q21_7  -0.252471218391
    G27_23  COST  -170.438674511
    G27_23  PB27  -1
    G27_23  DM23  1
    G27_23  Q23_0  -0.0934428245466
    G27_23  Q23_1  -0.0972626991567
    G27_23  Q23_2  -0.0999141350121
    G27_23  Q23_3  -0.0546577206459
    G27_23  Q23_4  0.00151014265373
    G27_23  Q23_5  0.0987893178858
    G27_23  Q23_6  -0.0293695386835
    G27_23  Q23_7  -0.241317285143
    G27_24  COST  -162.878154135
    G27_24  PB27  -1
    G27_24  DM24  1
    G27_24  Q24_0  -0.0928661935185
    G27_24  Q24_1  -0.0964980433724
    G27_24  Q24_2  -0.0521118833391
    G27_24  Q24_3  -0.0608153614429
    G27_24  Q24_4  -0.00636660751248
    G27_24  Q24_5  0.0122795236413
    G27_24  Q24_6  -0.069684455712
    G27_24  Q24_7  -0.190284570975
    G27_25  COST  -174.481452841
    G27_25  PB27  -1
    G27_25  DM25  1
    G27_25  Q25_0  -0.0851125262644
    G27_25  Q25_1  -0.131209744147
    G27_25  Q25_2  -0.0566694654292
    G27_25  Q25_3  -0.0424455685181
    G27_25  Q25_4  -0.00540739600067
    G27_25  Q25_5  0.0826266928834
    G27_25  Q25_6  -0.0634336994378
    G27_25  Q25_7  -0.217464400332
    G27_27  COST  -159.175234463
    G27_27  PB27  -1
    G27_27  DM27  1
    G27_27  Q27_0  -0.11319426348
    G27_27  Q27_1  -0.131114170135
    G27_27  Q27_2  -0.0809354832875
    G27_27  Q27_3  -0.0609153885393
    G27_27  Q27_4  0.00181217118447
    G27_27  Q27_5  0.0993885877114
    G27_27  Q27_6  -0.0341682554379
    G27_27  Q27_7  -0.244866594922
    G27_28  COST  -132.687660165
    G27_28  PB27  -1
    G27_28  DM28  1
    G27_28  Q28_0  -0.099863426953
    G27_28  Q28_1  -0.105633775488
    G27_28  Q28_2  -0.0708158440344
    G27_28  Q28_3  -0.0478836573774
    G27_28  Q28_4  -0.00545613463634
    G27_28  Q28_5  0.0759104480223
    G27_28  Q28_6  -0.0692461683589
    G27_28  Q28_7  -0.192708590618
    G27_29  COST  -117.226565852
    G27_29  PB27  -1
    G27_29  DM29  1
    G27_29  Q29_0  -0.107091042241
    G27_29  Q29_1  -0.0896757648154
    G27_29  Q29_2  -0.0607604843026
    G27_29  Q29_3  -0.0576143003821
    G27_29  Q29_4  0.00677284881334
    G27_29  Q29_5  0.118505227176
    G27_29  Q29_6  -0.0841163352543
    G27_29  Q29_7  -0.197657402123
    G27_30  COST  -162.75162392
    G27_30  PB27  -1
    G27_30  DM30  1
    G27_30  Q30_0  -0.0770412968135
    G27_30  Q30_1  -0.125090737819
    G27_30  Q30_2  -0.052849432322
    G27_30  Q30_3  -0.0587655399468
    G27_30  Q30_4  -0.0104671388816
    G27_30  Q30_5  -0.00214236707557
    G27_30  Q30_6  -0.0637484979454
    G27_30  Q30_7  -0.206195400015
    G27_35  COST  -153.515246559
    G27_35  PB27  -1
    G27_35  DM35  1
    G27_35  Q35_0  -0.0909601718406
    G27_35  Q35_1  -0.132442624931
    G27_35  Q35_2  -0.0689809593805
    G27_35  Q35_3  -0.0894441402965
    G27_35  Q35_4  -0.00394111960277
    G27_35  Q35_5  0.0767166456341
    G27_35  Q35_6  -0.0247305898483
    G27_35  Q35_7  -0.244866594922
    G27_37  COST  -153.298206262
    G27_37  PB27  -1
    G27_37  DM37  1
    G27_37  Q37_0  -0.0938494540665
    G27_37  Q37_1  -0.104422707438
    G27_37  Q37_2  -0.0573572603553
    G27_37  Q37_3  -0.0557127899988
    G27_37  Q37_4  0.00677284881334
    G27_37  Q37_5  0.122302970161
    G27_37  Q37_6  -0.0309169678268
    G27_37  Q37_7  -0.197657402123
    G27_38  COST  -168.206235695
    G27_38  PB27  -1
    G27_38  DM38  1
    G27_38  Q38_0  -0.096694829084
    G27_38  Q38_1  -0.0933616500647
    G27_38  Q38_2  -0.0636140040093
    G27_38  Q38_3  -0.0414764277058
    G27_38  Q38_4  -0.000404247984952
    G27_38  Q38_5  0.115592822183
    G27_38  Q38_6  -0.0459485292053
    G27_38  Q38_7  -0.192671659947
    G28_2  COST  -159.268847256
    G28_2  PB28  -1
    G28_2  DM2  1
    G28_2  Q2_0  0.0268414424071
    G28_2  Q2_1  -0.191648030942
    G28_2  Q2_2  0.0141483187754
    G28_2  Q2_3  -0.0218827503629
    G28_2  Q2_4  0.0107588845992
    G28_2  Q2_5  0.00401573306506
    G28_2  Q2_6  -0.226636016979
    G28_2  Q2_7  -0.0537278246799
    G28_3  COST  -147.831627981
    G28_3  PB28  -1
    G28_3  DM3  1
    G28_3  Q3_0  0.046710212726
    G28_3  Q3_1  -0.223189989226
    G28_3  Q3_2  -0.0886663313314
    G28_3  Q3_3  -0.0235108399293
    G28_3  Q3_4  -0.050356076676
    G28_3  Q3_5  0.0538241651651
    G28_3  Q3_6  -0.1662362853
    G28_3  Q3_7  -0.0369097747738
    G28_6  COST  -103.656002187
    G28_6  PB28  -1
    G28_6  DM6  1
    G28_6  Q6_0  0.0336449212366
    G28_6  Q6_1  -0.15781988536
    G28_6  Q6_2  -0.00319052245056
    G28_6  Q6_3  -0.0187010015589
    G28_6  Q6_4  0.00682093911978
    G28_6  Q6_5  0.024954578271
    G28_6  Q6_6  -0.195542967262
    G28_6  Q6_7  -0.0818795704307
    G28_8  COST  -106.767755964
    G28_8  PB28  -1
    G28_8  DM8  1
    G28_8  Q8_0  0.017341803645
    G28_8  Q8_1  -0.165030173672
    G28_8  Q8_2  -0.000724044795569
    G28_8  Q8_3  -0.041012960011
    G28_8  Q8_4  0.00936015905657
    G28_8  Q8_5  0.0127164880394
    G28_8  Q8_6  -0.204751642429
    G28_8  Q8_7  -0.0447858951073
    G28_10  COST  -119.377262621
    G28_10  PB28  -1
    G28_10  DM10  1
    G28_10  Q10_0  0.0179019270405
    G28_10  Q10_1  -0.196262026626
    G28_10  Q10_2  -0.0156561591547
    G28_10  Q10_3  -0.0369451936884
    G28_10  Q10_4  0.00936015905657
    G28_10  Q10_5  0.0483553855409
    G28_10  Q10_6  -0.191399712341
    G28_10  Q10_7  -0.0726547912655
    G28_11  COST  -112.2567622
    G28_11  PB28  -1
    G28_11  DM11  1
    G28_11  Q11_0  0.0323785172128
    G28_11  Q11_1  -0.203200492202
    G28_11  Q11_2  -0.0263535396944
    G28_11  Q11_3  -0.0241804315141
    G28_11  Q11_4  0.00493877128379
    G28_11  Q11_5  0.0541382367387
    G28_11  Q11_6  -0.233322973993
    G28_11  Q11_7  -0.0377406711267
    G28_12  COST  -171.498955341
    G28_12  PB28  -1
    G28_12  DM12  1
    G28_12  Q12_0  0.0171366652869
    G28_12  Q12_1  -0.196751360214
    G28_12  Q12_2  -0.00762724301845
    G28_12  Q12_3  -0.0239955700395
    G28_12  Q12_4  0.0121668077987
    G28_12  Q12_5  0.0498792651156
    G28_12  Q12_6  -0.223004530672
    G28_12  Q12_7  -0.0448425875342
    G28_14  COST  -130.595506027
    G28_14  PB28  -1
    G28_14  DM14  1
    G28_14  Q14_0  0.0341821147297
    G28_14  Q14_1  -0.181359591983
    G28_14  Q14_2  0.0474716012454
    G28_14  Q14_3  -0.0227989255214
    G28_14  Q14_4  0.0107588845992
    G28_14  Q14_5  0.0272363939093
    G28_14  Q14_6  -0.216610313467
    G28_14  Q14_7  -0.0312162052147
    G28_16  COST  -183.841217894
    G28_16  PB28  -1
    G28_16  DM16  1
    G28_16  Q16_0  0.0330788841651
    G28_16  Q16_1  -0.196751360214
    G28_16  Q16_2  -0.0400845619081
    G28_16  Q16_3  -0.0371216891674
    G28_16  Q16_4  -0.00083262287108
    G28_16  Q16_5  0.0120471991952
    G28_16  Q16_6  -0.193909433328
    G28_16  Q16_7  -0.061156867206
    G28_18  COST  -175.859057143
    G28_18  PB28  -1
    G28_18  DM18  1
    G28_18  Q18_0  0.0194544205548
    G28_18  Q18_1  -0.221452160519
    G28_18  Q18_2  -0.0177468822715
    G28_18  Q18_3  -0.0381806620412
    G28_18  Q18_4  0.0277644662257
    G28_18  Q18_5  0.0191151770737
    G28_18  Q18_6  -0.232884954289
    G28_18  Q18_7  -0.0619300739353
    G28_22  COST  -144.293092726
    G28_22  PB28  -1
    G28_22  DM22  1
    G28_22  Q22_0  0.0698421229306
    G28_22  Q22_1  -0.203200492202
    G28_22  Q22_2  0.0275523772267
    G28_22  Q22_3  -0.0391734585166
    G28_22  Q22_4  -0.00555311115845
    G28_22  Q22_5  0.0194945606203
    G28_22  Q22_6  -0.193692933009
    G28_22  Q22_7  -0.0384583969971
    G28_24  COST  -162.878154135
    G28_24  PB28  -1
    G28_24  DM24  1
    G28_24  Q24_0  0.0369075197305
    G28_24  Q24_1  -0.155493455983
    G28_24  Q24_2  0.0110767176768
    G28_24  Q24_3  -0.0380806349448
    G28_24  Q24_4  0.00348619149444
    G28_24  Q24_5  -0.0564056558626
    G28_24  Q24_6  -0.229109191162
    G28_24  Q24_7  -0.0341518308537
    G28_27  COST  -159.175234463
    G28_27  PB28  -1
    G28_27  DM27  1
    G28_27  Q27_0  0.0165794497689
    G28_27  Q27_1  -0.190109582745
    G28_27  Q27_2  -0.0177468822715
    G28_27  Q27_3  -0.0381806620412
    G28_27  Q27_4  0.0116649701914
    G28_27  Q27_5  0.0307034082074
    G28_27  Q27_6  -0.193592990888
    G28_27  Q27_7  -0.0887338548001
    G28_31  COST  -100.259410695
    G28_31  PB28  -1
    G28_31  DM31  1
    G28_31  Q31_0  0.0246931981443
    G28_31  Q31_1  -0.147730263571
    G28_31  Q31_2  0.004615299032
    G28_31  Q31_3  -0.0361304176142
    G28_31  Q31_4  0.0331499399245
    G28_31  Q31_5  0.0157730269628
    G28_31  Q31_6  -0.216131185401
    G28_31  Q31_7  -0.0410653988327
    G28_32  COST  -170.549284717
    G28_32  PB28  -1
    G28_32  DM32  1
    G28_32  Q32_0  0.018331145354
    G28_32  Q32_1  -0.191648030942
    G28_32  Q32_2  -0.05267496869
    G28_32  Q32_3  -0.0260418571874
    G28_32  Q32_4  0.00174309574722
    G28_32  Q32_5  0.0156245251706
    G28_32  Q32_6  -0.229547478515
    G28_32  Q32_7  -0.0416311319662
    G28_34  COST  -155.512082857
    G28_34  PB28  -1
    G28_34  DM34  1
    G28_34  Q34_0  0.0169982396112
    G28_34  Q34_1  -0.153581816522
    G28_34  Q34_2  -0.000638104490112
    G28_34  Q34_3  -0.0424416644554
    G28_34  Q34_4  0.0367836313182
    G28_34  Q34_5  0.0479236840765
    G28_34  Q34_6  -0.233322973993
    G28_34  Q34_7  -0.0526958213733
    G28_35  COST  -153.515246559
    G28_35  PB28  -1
    G28_35  DM35  1
    G28_35  Q35_0  0.0388135414084
    G28_35  Q35_1  -0.191438037541
    G28_35  Q35_2  -0.00579235836456
    G28_35  Q35_3  -0.0667094137984
    G28_35  Q35_4  0.00591167940415
    G28_35  Q35_5  0.00803146613012
    G28_35  Q35_6  -0.184155325299
    G28_35  Q35_7  -0.0887338548001
    G28_37  COST  -153.298206262
    G28_37  PB28  -1
    G28_37  DM37  1
    G28_37  Q37_0  0.0359242591826
    G28_37  Q37_1  -0.163418120049
    G28_37  Q37_2  0.00583134066058
    G28_37  Q37_3  -0.0329780635007
    G28_37  Q37_4  0.0166256478203
    G28_37  Q37_5  0.0536177906567
    G28_37  Q37_6  -0.190341703277
    G28_37  Q37_7  -0.0415246620015
    G28_38  COST  -168.206235695
    G28_38  PB28  -1
    G28_38  DM38  1
    G28_38  Q38_0  0.0330788841651
    G28_38  Q38_1  -0.152357062675
    G28_38  Q38_2  -0.000425402993408
    G28_38  Q38_3  -0.0187417012077
    G28_38  Q38_4  0.00944855102197
    G28_38  Q38_5  0.0469076426795
    G28_38  Q38_6  -0.205373264656
    G28_38  Q38_7  -0.0365389198252
    G28_39  COST  -148.23927624
    G28_39  PB28  -1
    G28_39  DM39  1
    G28_39  Q39_0  0.0172700906517
    G28_39  Q39_1  -0.181406024553
    G28_39  Q39_2  -0.096580888453
    G28_39  Q39_3  -0.0286206297026
    G28_39  Q39_4  -0.0111956799454
    G28_39  Q39_5  0.0485501655184
    G28_39  Q39_6  -0.198404447506
    G28_39  Q39_7  -0.0410183274068
    G29_1  COST  -138.180720418
    G29_1  PB29  -1
    G29_1  DM1  1
    G29_1  Q1_0  0.0411070436261
    G29_1  Q1_1  -0.058661676051
    G29_1  Q1_2  -0.0252990981327
    G29_1  Q1_3  -0.189366683948
    G29_1  Q1_4  -0.126085236676
    G29_1  Q1_5  2.11490870283e-05
    G29_1  Q1_6  0.0621331341705
    G29_1  Q1_7  -0.115978957503
    G29_5  COST  -131.682337746
    G29_5  PB29  -1
    G29_5  DM5  1
    G29_5  Q5_0  0.0313335529364
    G29_5  Q5_1  -0.0423038158906
    G29_5  Q5_2  -0.00767014948298
    G29_5  Q5_3  -0.112634927918
    G29_5  Q5_4  -0.112274704565
    G29_5  Q5_5  -0.0345517279463
    G29_5  Q5_6  0.0723022772919
    G29_5  Q5_7  -0.12714719953
    G29_6  COST  -103.656002187
    G29_6  PB29  -1
    G29_6  DM6  1
    G29_6  Q6_0  0.0429128450172
    G29_6  Q6_1  -0.024203329613
    G29_6  Q6_2  0.00106350748352
    G29_6  Q6_3  -0.11824881645
    G29_6  Q6_4  -0.127994665893
    G29_6  Q6_5  -0.0248485501313
    G29_6  Q6_6  0.0788441844163
    G29_6  Q6_7  -0.119681139647
    G29_7  COST  -188.467036352
    G29_7  PB29  -1
    G29_7  DM7  1
    G29_7  Q7_0  0.0549764310154
    G29_7  Q7_1  -0.0184684112306
    G29_7  Q7_2  -0.0410371066102
    G29_7  Q7_3  -0.188484206553
    G29_7  Q7_4  -0.127994665893
    G29_7  Q7_5  2.11490870283e-05
    G29_7  Q7_6  0.0474363361916
    G29_7  Q7_7  -0.0797211316346
    G29_10  COST  -119.377262621
    G29_10  PB29  -1
    G29_10  DM10  1
    G29_10  Q10_0  0.0271698508212
    G29_10  Q10_1  -0.0626454708792
    G29_10  Q10_2  -0.0114021292206
    G29_10  Q10_3  -0.13649300858
    G29_10  Q10_4  -0.125455445956
    G29_10  Q10_5  -0.00144774286144
    G29_10  Q10_6  0.082987439337
    G29_10  Q10_7  -0.110456360482
    G29_11  COST  -112.2567622
    G29_11  PB29  -1
    G29_11  DM11  1
    G29_11  Q11_0  0.0416464409935
    G29_11  Q11_1  -0.0695839364548
    G29_11  Q11_2  -0.0220995097603
    G29_11  Q11_3  -0.123728246405
    G29_11  Q11_4  -0.129876833729
    G29_11  Q11_5  0.00433510833642
    G29_11  Q11_6  0.0410641776854
    G29_11  Q11_7  -0.0755422403434
    G29_12  COST  -171.498955341
    G29_12  PB29  -1
    G29_12  DM12  1
    G29_12  Q12_0  0.0264045890676
    G29_12  Q12_1  -0.0631348044664
    G29_12  Q12_2  -0.00337321308437
    G29_12  Q12_3  -0.123543384931
    G29_12  Q12_4  -0.122648797214
    G29_12  Q12_5  7.61367133015e-05
    G29_12  Q12_6  0.0513826210061
    G29_12  Q12_7  -0.0826441567508
    G29_18  COST  -175.859057143
    G29_18  PB29  -1
    G29_18  DM18  1
    G29_18  Q18_0  0.0287223443355
    G29_18  Q18_1  -0.0878356047718
    G29_18  Q18_2  -0.0134928523375
    G29_18  Q18_3  -0.137728476932
    G29_18  Q18_4  -0.107051138787
    G29_18  Q18_5  -0.0306879513287
    G29_18  Q18_6  0.0415021973898
    G29_18  Q18_7  -0.0997316431519
    G29_19  COST  -186.574135721
    G29_19  PB29  -1
    G29_19  DM19  1
    G29_19  Q19_0  0.026036023479
    G29_19  Q19_1  -0.0353425867561
    G29_19  Q19_2  -0.0151794588796
    G29_19  Q19_3  -0.132709880516
    G29_19  Q19_4  -0.112982099445
    G29_19  Q19_5  -0.00563833297759
    G29_19  Q19_6  0.0535850182758
    G29_19  Q19_7  -0.0426604499682
    G29_21  COST  -123.466766883
    G29_21  PB29  -1
    G29_21  DM21  1
    G29_21  Q21_0  0.027831718175
    G29_21  Q21_1  -0.0605733155118
    G29_21  Q21_2  0.0146564444495
    G29_21  Q21_3  -0.131578219715
    G29_21  Q21_4  -0.088276199584
    G29_21  Q21_5  -0.0232836706112
    G29_21  Q21_6  0.0463406178091
    G29_21  Q21_7  -0.134140047486
    G29_25  COST  -174.481452841
    G29_25  PB29  -1
    G29_25  DM25  1
    G29_25  Q25_0  0.0539291107653
    G29_25  Q25_1  -0.0565886010105
    G29_25  Q25_2  0.0107731655208
    G29_25  Q25_3  -0.119258656911
    G29_25  Q25_4  -0.130370202006
    G29_25  Q25_5  -0.0358616150229
    G29_25  Q25_6  0.0515287167904
    G29_25  Q25_7  -0.0991332294265
    G29_26  COST  -149.011681845
    G29_26  PB29  -1
    G29_26  DM26  1
    G29_26  Q26_0  0.0525111282234
    G29_26  Q26_1  -0.0542760396295
    G29_26  Q26_2  -0.0435938231045
    G29_26  Q26_3  -0.125762244228
    G29_26  Q26_4  -0.139607696756
    G29_26  Q26_5  2.11490870283e-05
    G29_26  Q26_6  0.030238863527
    G29_26  Q26_7  -0.0797211316346
    G29_27  COST  -159.175234463
    G29_27  PB29  -1
    G29_27  DM27  1
    G29_27  Q27_0  0.0258473735496
    G29_27  Q27_1  -0.0564930269982
    G29_27  Q27_2  -0.0134928523375
    G29_27  Q27_3  -0.137728476932
    G29_27  Q27_4  -0.123150634821
    G29_27  Q27_5  -0.0190997201949
    G29_27  Q27_6  0.0807941607903
    G29_27  Q27_7  -0.126535424017
    G29_28  COST  -132.687660165
    G29_28  PB29  -1
    G29_28  DM28  1
    G29_28  Q28_0  0.0391782100767
    G29_28  Q28_1  -0.0310126323511
    G29_28  Q28_2  -0.00337321308437
    G29_28  Q28_3  -0.124696745771
    G29_28  Q28_4  -0.130418940642
    G29_28  Q28_5  -0.042577859884
    G29_28  Q28_6  0.0457162478693
    G29_28  Q28_7  -0.0743774197128
    G29_29  COST  -117.226565852
    G29_29  PB29  -1
    G29_29  DM29  1
    G29_29  Q29_0  0.0319505947884
    G29_29  Q29_1  -0.0150546216789
    G29_29  Q29_2  0.0066821466474
    G29_29  Q29_3  -0.134427388775
    G29_29  Q29_4  -0.118189957192
    G29_29  Q29_5  1.69192696227e-05
    G29_29  Q29_6  0.0308460809739
    G29_29  Q29_7  -0.0793262312181
    G29_31  COST  -100.259410695
    G29_31  PB29  -1
    G29_31  DM31  1
    G29_31  Q31_0  0.0339611219249
    G29_31  Q31_1  -0.014113707824
    G29_31  Q31_2  0.00886932896609
    G29_31  Q31_3  -0.135678232505
    G29_31  Q31_4  -0.101665665088
    G29_31  Q31_5  -0.0340301014396
    G29_31  Q31_6  0.0582559662775
    G29_31  Q31_7  -0.0788669680493
    G29_32  COST  -170.549284717
    G29_32  PB29  -1
    G29_32  DM32  1
    G29_32  Q32_0  0.0275990691347
    G29_32  Q32_1  -0.0580314751946
    G29_32  Q32_2  -0.0484209387559
    G29_32  Q32_3  -0.125589672079
    G29_32  Q32_4  -0.133072509265
    G29_32  Q32_5  -0.0341786032318
    G29_32  Q32_6  0.0448396731632
    G29_32  Q32_7  -0.0794327011828
    G29_33  COST  -100.650989836
    G29_33  PB29  -1
    G29_33  DM33  1
    G29_33  Q33_0  0.0620003402162
    G29_33  Q33_1  -0.0217349674287
    G29_33  Q33_2  0.0193079421528
    G29_33  Q33_3  -0.206293254499
    G29_33  Q33_4  -0.107053540572
    G29_33  Q33_5  -0.00403025268029
    G29_33  Q33_6  0.0512139182828
    G29_33  Q33_7  -0.128895355129
    G29_34  COST  -155.512082857
    G29_34  PB29  -1
    G29_34  DM34  1
    G29_34  Q34_0  0.0262661633919
    G29_34  Q34_1  -0.0199652607751
    G29_34  Q34_2  0.00361592544397
    G29_34  Q34_3  -0.141989479347
    G29_34  Q34_4  -0.0980319736944
    G29_34  Q34_5  -0.00187944432586
    G29_34  Q34_6  0.0410641776854
    G29_34  Q34_7  -0.0904973905899
    G29_36  COST  -109.496117872
    G29_36  PB29  -1
    G29_36  DM36  1
    G29_36  Q36_0  0.0360322076527
    G29_36  Q36_1  -0.0660708059893
    G29_36  Q36_2  -0.0685808151004
    G29_36  Q36_3  -0.130649140124
    G29_36  Q36_4  -0.130422245908
    G29_36  Q36_5  -0.00501185153563
    G29_36  Q36_6  0.0633953626172
    G29_36  Q36_7  -0.116122636305
    G29_38  COST  -168.206235695
    G29_38  PB29  -1
    G29_38  DM38  1
    G29_38  Q38_0  0.0423468079457
    G29_38  Q38_1  -0.0187405069282
    G29_38  Q38_2  0.00382862694067
    G29_38  Q38_3  -0.118289516099
    G29_38  Q38_4  -0.125367053991
    G29_38  Q38_5  -0.00289548572287
    G29_38  Q38_6  0.0690138870229
    G29_38  Q38_7  -0.0743404890418
    G29_39  COST  -148.23927624
    G29_39  PB29  -1
    G29_39  DM39  1
    G29_39  Q39_0  0.0265380144323
    G29_39  Q39_1  -0.0477894688054
    G29_39  Q39_2  -0.0923268585189
    G29_39  Q39_3  -0.128168444594
    G29_39  Q39_4  -0.146011284958
    G29_39  Q39_5  -0.00125296288391
    G29_39  Q39_6  0.0759827041728
    G29_39  Q39_7  -0.0788198966235
RHS
    RHS  AV0  980.277937476
    RHS  AV1  392.017105291
    RHS  AV2  675.631112127
    RHS  AV3  1316.74656369
    RHS  AV4  808.768656228
    RHS  AV5  637.908764296
    RHS  AV6  643.240024349
    RHS  AV7  1272.0374629
    RHS  AV8  790.588735802
    RHS  AV9  1432.85955356
    RHS  AV10  605.860196172
    RHS  AV11  1183.42442792
    RHS  AV12  571.417140498
    RHS  AV13  1198.19044257
    RHS  AV14  222.87736942
    RHS  AV15  368.76727603
    RHS  AV16  537.033978488
    RHS  AV17  1331.11955402
    RHS  AV18  619.247889251
    RHS  AV19  828.583203561
    RHS  AV20  339.157876058
    RHS  AV21  936.681771826
    RHS  AV22  324.792894126
    RHS  AV23  384.08303917
    RHS  AV24  1241.26411375
    RHS  AV25  517.083372115
    RHS  AV26  279.629824419
    RHS  AV27  982.372344306
    RHS  AV28  390.450202827
    RHS  AV29  268.661740867
    RHS  AV30  1279.71801149
    RHS  AV31  716.33766724
    RHS  AV32  1325.11759889
    RHS  AV33  1167.24090847
    RHS  AV34  461.253238987
    RHS  AV35  310.254684652
    RHS  AV36  422.764428129
    RHS  AV37  842.954213807
    RHS  AV38  665.072581444
    RHS  AV39  1281.57665612
    RHS  AV40  810.01309597
    RHS  AV41  921.174610577
    RHS  AV42  703.687917795
    RHS  AV43  1181.37043987
    RHS  AV44  1095.62172867
    RHS  AV45  1091.5040343
    RHS  AV46  1203.07270492
    RHS  AV47  718.187967332
    RHS  AV48  354.811593612
    RHS  AV49  1263.31347739
    RHS  AV50  649.179231229
    RHS  AV51  1099.29140087
    RHS  AV52  1485.00568219
    RHS  AV53  1112.29025608
    RHS  AV54  1378.69145047
    RHS  AV55  217.361433225
    RHS  AV56  984.832710809
    RHS  AV57  326.519499845
    RHS  AV58  1334.25602007
    RHS  AV59  1448.32207894
    RHS  AV60  244.399650796
    RHS  AV61  373.23975548
    RHS  AV62  1282.58934569
    RHS  AV63  1092.95235509
    RHS  AV64  1476.15510956
    RHS  AV65  1183.46195331
    RHS  AV66  972.447096882
    RHS  AV67  901.016229819
    RHS  AV68  212.82756762
    RHS  AV69  1218.95911548
    RHS  AV70  699.20232233
    RHS  AV71  338.64915937
    RHS  AV72  910.885236247
    RHS  AV73  680.951562145
    RHS  AV74  987.615341438
    RHS  AV75  221.673764739
    RHS  AV76  414.468945048
    RHS  AV77  901.780208764
    RHS  AV78  992.879641091
    RHS  AV79  306.878407055
    RHS  AV80  1027.29123808
    RHS  AV81  1293.58749288
    RHS  AV82  572.818713686
    RHS  AV83  877.730012232
    RHS  AV84  1377.9550574
    RHS  AV85  1113.84759082
    RHS  AV86  468.739026346
    RHS  AV87  1456.4404775
    RHS  AV88  644.697557151
    RHS  AV89  1271.46317308
    RHS  AV90  788.272718441
    RHS  AV91  1226.69783086
    RHS  AV92  1397.19947637
    RHS  AV93  1373.54033409
    RHS  AV94  1245.98319885
    RHS  AV95  619.86403017
    RHS  AV96  1386.4185638
    RHS  AV97  399.34170632
    RHS  AV98  538.253469609
    RHS  AV99  1040.25919129
    RHS  AV100  1172.63545631
    RHS  AV101  265.437168154
    RHS  AV102  549.523423629
    RHS  AV103  679.743177758
    RHS  AV104  1301.42048167
    RHS  AV105  202.492564786
    RHS  AV106  1356.99425418
    RHS  AV107  635.149726009
    RHS  AV108  1001.54561987
    RHS  AV109  1416.4890234
    RHS  AV110  280.078108367
    RHS  AV111  908.82949081
    RHS  AV112  488.882739665
    RHS  AV113  1112.92173182
    RHS  AV114  1263.1638286
    RHS  AV115  520.124277097
    RHS  AV116  1317.86294265
    RHS  AV117  430.637511691
    RHS  AV118  824.093949911
    RHS  AV119  370.667394558
    RHS  PB0  0
    RHS  PB1  0
    RHS  PB2  0
    RHS  PB3  0
    RHS  PB4  0
    RHS  PB5  0
    RHS  PB6  0
    RHS  PB7  0
    RHS  PB8  0
    RHS  PB9  0
    RHS  PB10  0
    RHS  PB11  0
    RHS  PB12  0
    RHS  PB13  0
    RHS  PB14  0
    RHS  PB15  0
    RHS  PB16  0
    RHS  PB17  0
    RHS  PB18  0
    RHS  PB19  0
    RHS  PB20  0
    RHS  PB21  0
    RHS  PB22  0
    RHS  PB23  0
    RHS  PB24  0
    RHS  PB25  0
    RHS  PB26  0
    RHS  PB27  0
    RHS  PB28  0
    RHS  PB29  0
    RHS  DM0  428.172831143
    RHS  DM1  479.329449936
    RHS  DM2  725.964990751
    RHS  DM3  435.340891546
    RHS  DM4  598.775289714
    RHS  DM5  692.213923682
    RHS  DM6  795.44472754
    RHS  DM7  417.437513638
    RHS  DM8  235.276369198
    RHS  DM9  374.055995039
    RHS  DM10  611.287278442
    RHS  DM11  866.056133963
    RHS  DM12  696.994459329
    RHS  DM13  658.39012644
    RHS  DM14  216.401222453
    RHS  DM15  574.492277143
    RHS  DM16  446.132580913
    RHS  DM17  458.815815667
    RHS  DM18  928.810018945
    RHS  DM19  317.542967017
    RHS  DM20  259.866407239
    RHS  DM21  426.308475399
    RHS  DM22  685.592326877
    RHS  DM23  399.059393113
    RHS  DM24  734.070420803
    RHS  DM25  725.830555818
    RHS  DM26  528.533050416
    RHS  DM27  833.049056876
    RHS  DM28  440.665760348
    RHS  DM29  670.612833462
    RHS  DM30  606.737642812
    RHS  DM31  247.061086211
    RHS  DM32  458.669390647
    RHS  DM33  624.490408308
    RHS  DM34  941.612117559
    RHS  DM35  793.844464798
    RHS  DM36  561.336573013
    RHS  DM37  342.889322934
    RHS  DM38  399.331177044
    RHS  DM39  224.581648834
    RHS  Q0_0  0
    RHS  Q0_1  0
    RHS  Q0_2  0
    RHS  Q0_3  0
    RHS  Q0_4  0
    RHS  Q0_5  0
    RHS  Q0_6  0
    RHS  Q0_7  0
    RHS  Q1_0  0
    RHS  Q1_1  0
    RHS  Q1_2  0
    RHS  Q1_3  0
    RHS  Q1_4  0
    RHS  Q1_5  0
    RHS  Q1_6  0
    RHS  Q1_7  0
    RHS  Q2_0  0
    RHS  Q2_1  0
    RHS  Q2_2  0
    RHS  Q2_3  0
    RHS  Q2_4  0
    RHS  Q2_5  0
    RHS  Q2_6  0
    RHS  Q2_7  0
    RHS  Q3_0  0
    RHS  Q3_1  0
    RHS  Q3_2  0
    RHS  Q3_3  0
    RHS  Q3_4  0
    RHS  Q3_5  0
    RHS  Q3_6  0
    RHS  Q3_7  0
    RHS  Q4_0  0
    RHS  Q4_1  0
    RHS  Q4_2  0
    RHS  Q4_3  0
    RHS  Q4_4  0
    RHS  Q4_5  0
    RHS  Q4_6  0
    RHS  Q4_7  0
    RHS  Q5_0  0
    RHS  Q5_1  0
    RHS  Q5_2  0
    RHS  Q5_3  0
    RHS  Q5_4  0
    RHS  Q5_5  0
    RHS  Q5_6  0
    RHS  Q5_7  0
    RHS  Q6_0  0
    RHS  Q6_1  0
    RHS  Q6_2  0
    RHS  Q6_3  0
    RHS  Q6_4  0
    RHS  Q6_5  0
    RHS  Q6_6  0
    RHS  Q6_7  0
    RHS  Q7_0  0
    RHS  Q7_1  0
    RHS  Q7_2  0
    RHS  Q7_3  0
    RHS  Q7_4  0
    RHS  Q7_5  0
    RHS  Q7_6  0
    RHS  Q7_7  0
    RHS  Q8_0  0
    RHS  Q8_1  0
    RHS  Q8_2  0
    RHS  Q8_3  0
    RHS  Q8_4  0
    RHS  Q8_5  0
    RHS  Q8_6  0
    RHS  Q8_7  0
    RHS  Q9_0  0
    RHS  Q9_1  0
    RHS  Q9_2  0
    RHS  Q9_3  0
    RHS  Q9_4  0
    RHS  Q9_5  0
    RHS  Q9_6  0
    RHS  Q9_7  0
    RHS  Q10_0  0
    RHS  Q10_1  0
    RHS  Q10_2  0
    RHS  Q10_3  0
    RHS  Q10_4  0
    RHS  Q10_5  0
    RHS  Q10_6  0
    RHS  Q10_7  0
    RHS  Q11_0  0
    RHS  Q11_1  0
    RHS  Q11_2  0
    RHS  Q11_3  0
    RHS  Q11_4  0
    RHS  Q11_5  0
    RHS  Q11_6  0
    RHS  Q11_7  0
    RHS  Q12_0  0
    RHS  Q12_1  0
    RHS  Q12_2  0
    RHS  Q12_3  0
    RHS  Q12_4  0
    RHS  Q12_5  0
    RHS  Q12_6  0
    RHS  Q12_7  0
    RHS  Q13_0  0
    RHS  Q13_1  0
    RHS  Q13_2  0
    RHS  Q13_3  0
    RHS  Q13_4  0
    RHS  Q13_5  0
    RHS  Q13_6  0
    RHS  Q13_7  0
    RHS  Q14_0  0
    RHS  Q14_1  0
    RHS  Q14_2  0
    RHS  Q14_3  0
    RHS  Q14_4  0
    RHS  Q14_5  0
    RHS  Q14_6  0
    RHS  Q14_7  0
    RHS  Q15_0  0
    RHS  Q15_1  0
    RHS  Q15_2  0
    RHS  Q15_3  0
    RHS  Q15_4  0
    RHS  Q15_5  0
    RHS  Q15_6  0
    RHS  Q15_7  0
    RHS  Q16_0  0
    RHS  Q16_1  0
    RHS  Q16_2  0
    RHS  Q16_3  0
    RHS  Q16_4  0
    RHS  Q16_5  0
    RHS  Q16_6  0
    RHS  Q16_7  0
    RHS  Q17_0  0
    RHS  Q17_1  0
    RHS  Q17_2  0
    RHS  Q17_3  0
    RHS  Q17_4  0
    RHS  Q17_5  0
    RHS  Q17_6  0
    RHS  Q17_7  0
    RHS  Q18_0  0
    RHS  Q18_1  0
    RHS  Q18_2  0
    RHS  Q18_3  0
    RHS  Q18_4  0
    RHS  Q18_5  0
    RHS  Q18_6  0
    RHS  Q18_7  0
    RHS  Q19_0  0
    RHS  Q19_1  0
    RHS  Q19_2  0
    RHS  Q19_3  0
    RHS  Q19_4  0
    RHS  Q19_5  0
    RHS  Q19_6  0
    RHS  Q19_7  0
    RHS  Q20_0  0
    RHS  Q20_1  0
    RHS  Q20_2  0
    RHS  Q20_3  0
    RHS  Q20_4  0
    RHS  Q20_5  0
    RHS  Q20_6  0
    RHS  Q20_7  0
    RHS  Q21_0  0
    RHS  Q21_1  0
    RHS  Q21_2  0
    RHS  Q21_3  0
    RHS  Q21_4  0
    RHS  Q21_5  0
    RHS  Q21_6  0
    RHS  Q21_7  0
    RHS  Q22_0  0
    RHS  Q22_1  0
    RHS  Q22_2  0
    RHS  Q22_3  0
    RHS  Q22_4  0
    RHS  Q22_5  0
    RHS  Q22_6  0
    RHS  Q22_7  0
    RHS  Q23_0  0
    RHS  Q23_1  0
    RHS  Q23_2  0
    RHS  Q23_3  0
    RHS  Q23_4  0
    RHS  Q23_5  0
    RHS  Q23_6  0
    RHS  Q23_7  0
    RHS  Q24_0  0
    RHS  Q24_1  0
    RHS  Q24_2  0
    RHS  Q24_3  0
    RHS  Q24_4  0
    RHS  Q24_5  0
    RHS  Q24_6  0
    RHS  Q24_7  0
    RHS  Q25_0  0
    RHS  Q25_1  0
    RHS  Q25_2  0
    RHS  Q25_3  0
    RHS  Q25_4  0
    RHS  Q25_5  0
    RHS  Q25_6  0
    RHS  Q25_7  0
    RHS  Q26_0  0
    RHS  Q26_1  0
    RHS  Q26_2  0
    RHS  Q26_3  0
    RHS  Q26_4  0
    RHS  Q26_5  0
    RHS  Q26_6  0
    RHS  Q26_7  0
    RHS  Q27_0  0
    RHS  Q27_1  0
    RHS  Q27_2  0
    RHS  Q27_3  0
    RHS  Q27_4  0
    RHS  Q27_5  0
    RHS  Q27_6  0
    RHS  Q27_7  0
    RHS  Q28_0  0
    RHS  Q28_1  0
    RHS  Q28_2  0
    RHS  Q28_3  0
    RHS  Q28_4  0
    RHS  Q28_5  0
    RHS  Q28_6  0
    RHS  Q28_7  0
    RHS  Q29_0  0
    RHS  Q29_1  0
    RHS  Q29_2  0
    RHS  Q29_3  0
    RHS  Q29_4  0
    RHS  Q29_5  0
    RHS  Q29_6  0
    RHS  Q29_7  0
    RHS  Q30_0  0
    RHS  Q30_1  0
    RHS  Q30_2  0
    RHS  Q30_3  0
    RHS  Q30_4  0
    RHS  Q30_5  0
    RHS  Q30_6  0
    RHS  Q30_7  0
    RHS  Q31_0  0
    RHS  Q31_1  0
    RHS  Q31_2  0
    RHS  Q31_3  0
    RHS  Q31_4  0
    RHS  Q31_5  0
    RHS  Q31_6  0
    RHS  Q31_7  0
    RHS  Q32_0  0
    RHS  Q32_1  0
    RHS  Q32_2  0
    RHS  Q32_3  0
    RHS  Q32_4  0
    RHS  Q32_5  0
    RHS  Q32_6  0
    RHS  Q32_7  0
    RHS  Q33_0  0
    RHS  Q33_1  0
    RHS  Q33_2  0
    RHS  Q33_3  0
    RHS  Q33_4  0
    RHS  Q33_5  0
    RHS  Q33_6  0
    RHS  Q33_7  0
    RHS  Q34_0  0
    RHS  Q34_1  0
    RHS  Q34_2  0
    RHS  Q34_3  0
    RHS  Q34_4  0
    RHS  Q34_5  0
    RHS  Q34_6  0
    RHS  Q34_7  0
    RHS  Q35_0  0
    RHS  Q35_1  0
    RHS  Q35_2  0
    RHS  Q35_3  0
    RHS  Q35_4  0
    RHS  Q35_5  0
    RHS  Q35_6  0
    RHS  Q35_7  0
    RHS  Q36_0  0
    RHS  Q36_1  0
    RHS  Q36_2  0
    RHS  Q36_3  0
    RHS  Q36_4  0
    RHS  Q36_5  0
    RHS  Q36_6  0
    RHS  Q36_7  0
    RHS  Q37_0  0
    RHS  Q37_1  0
    RHS  Q37_2  0
    RHS  Q37_3  0
    RHS  Q37_4  0
    RHS  Q37_5  0
    RHS  Q37_6  0
    RHS  Q37_7  0
    RHS  Q38_0  0
    RHS  Q38_1  0
    RHS  Q38_2  0
    RHS  Q38_3  0
    RHS  Q38_4  0
    RHS  Q38_5  0
    RHS  Q38_6  0
    RHS  Q38_7  0
    RHS  Q39_0  0
    RHS  Q39_1  0
    RHS  Q39_2  0
    RHS  Q39_3  0
    RHS  Q39_4  0
    RHS  Q39_5  0
    RHS  Q39_6  0
    RHS  Q39_7  0
RANGES
    RNG  DM0  330.049890673
    RNG  DM1  369.483117659
    RNG  DM2  559.598013704
    RNG  DM3  335.575270567
    RNG  DM4  461.555952488
    RNG  DM5  533.581566171
    RNG  DM6  613.155310812
    RNG  DM7  321.774750096
    RNG  DM8  181.358867924
    RNG  DM9  288.33482951
    RNG  DM10  471.200610466
    RNG  DM11  667.584936596
    RNG  DM12  537.266562399
    RNG  DM13  507.509055797
    RNG  DM14  166.80927564
    RNG  DM15  442.837796964
    RNG  DM16  343.893864454
    RNG  DM17  353.670524577
    RNG  DM18  715.957722937
    RNG  DM19  244.772703742
    RNG  DM20  200.313688913
    RNG  DM21  328.61278312
    RNG  DM22  528.477418634
    RNG  DM23  307.608282192
    RNG  DM24  565.845949369
    RNG  DM25  559.494386777
    RNG  DM26  407.410893029
    RNG  DM27  642.141981342
    RNG  DM28  339.679856935
    RNG  DM29  516.930725794
    RNG  DM30  467.693599668
    RNG  DM31  190.442920621
    RNG  DM32  353.55765529
    RNG  DM33  481.378023071
    RNG  DM34  725.826007285
    RNG  DM35  611.921774948
    RNG  DM36  432.696941698
    RNG  DM37  264.310519761
    RNG  DM38  307.817782304
    RNG  DM39  173.115020976
BOUNDS
 UP BND  F0_2  980.277937476
 UP BND  F0_4  980.277937476
 UP BND  F0_6  980.277937476
 UP BND  F0_11  980.277937476
 UP BND  F0_12  980.277937476
 UP BND  F0_14  980.277937476
 UP BND  F0_15  980.277937476
 UP BND  F0_21  980.277937476
 UP BND  F0_24  980.277937476
 UP BND  F0_25  980.277937476
 UP BND  F0_27  980.277937476
 UP BND  F0_28  980.277937476
 UP BND  F1_2  392.017105291
 UP BND  F1_5  392.017105291
 UP BND  F1_8  392.017105291
 UP BND  F1_9  392.017105291
 UP BND  F1_10  392.017105291
 UP BND  F1_11  392.017105291
 UP BND  F1_12  392.017105291
 UP BND  F1_13  392.017105291
 UP BND  F1_14  392.017105291
 UP BND  F1_16  392.017105291
 UP BND  F1_17  392.017105291
 UP BND  F1_18  392.017105291
 UP BND  F1_20  392.017105291
 UP BND  F1_21  392.017105291
 UP BND  F2_0  675.631112127
 UP BND  F2_1  675.631112127
 UP BND  F2_4  675.631112127
 UP BND  F2_5  675.631112127
 UP BND  F2_7  675.631112127
 UP BND  F2_9  675.631112127
 UP BND  F2_11  675.631112127
 UP BND  F2_12  675.631112127
 UP BND  F2_15  675.631112127
 UP BND  F2_22  675.631112127
 UP BND  F2_23  675.631112127
 UP BND  F2_28  675.631112127
 UP BND  F3_2  1316.74656369
 UP BND  F3_4  1316.74656369
 UP BND  F3_7  1316.74656369
 UP BND  F3_9  1316.74656369
 UP BND  F3_10  1316.74656369
 UP BND  F3_26  1316.74656369
 UP BND  F4_1  808.768656228
 UP BND  F4_5  808.768656228
 UP BND  F4_8  808.768656228
 UP BND  F4_14  808.768656228
 UP BND  F4_21  808.768656228
 UP BND  F4_24  808.768656228
 UP BND  F4_27  808.768656228
 UP BND  F4_29  808.768656228
 UP BND  F5_0  637.908764296
 UP BND  F5_1  637.908764296
 UP BND  F5_3  637.908764296
 UP BND  F5_4  637.908764296
 UP BND  F5_7  637.908764296
 UP BND  F5_9  637.908764296
 UP BND  F5_11  637.908764296
 UP BND  F5_12  637.908764296
 UP BND  F5_15  637.908764296
 UP BND  F5_16  637.908764296
 UP BND  F5_21  637.908764296
 UP BND  F5_22  637.908764296
 UP BND  F5_23  637.908764296
 UP BND  F5_27  637.908764296
 UP BND  F5_28  637.908764296
 UP BND  F5_29  637.908764296
 UP BND  F6_0  643.240024349
 UP BND  F6_3  643.240024349
 UP BND  F6_4  643.240024349
 UP BND  F6_10  643.240024349
 UP BND  F6_12  643.240024349
 UP BND  F6_17  643.240024349
 UP BND  F6_23  643.240024349
 UP BND  F6_24  643.240024349
 UP BND  F6_27  643.240024349
 UP BND  F7_2  1272.0374629
 UP BND  F7_4  1272.0374629
 UP BND  F7_10  1272.0374629
 UP BND  F7_12  1272.0374629
 UP BND  F7_13  1272.0374629
 UP BND  F7_14  1272.0374629
 UP BND  F7_17  1272.0374629
 UP BND  F7_18  1272.0374629
 UP BND  F8_2  790.588735802
 UP BND  F8_3  790.588735802
 UP BND  F8_6  790.588735802
 UP BND  F8_7  790.588735802
 UP BND  F8_9  790.588735802
 UP BND  F8_11  790.588735802
 UP BND  F8_13  790.588735802
 UP BND  F8_14  790.588735802
 UP BND  F8_16  790.588735802
 UP BND  F8_18  790.588735802
 UP BND  F8_20  790.588735802
 UP BND  F8_21  790.588735802
 UP BND  F8_23  790.588735802
 UP BND  F8_25  790.588735802
 UP BND  F8_28  790.588735802
 UP BND  F9_2  1432.85955356
 UP BND  F9_3  1432.85955356
 UP BND  F9_5  1432.85955356
 UP BND  F9_7  1432.85955356
 UP BND  F9_8  1432.85955356
 UP BND  F9_12  1432.85955356
 UP BND  F9_13  1432.85955356
 UP BND  F9_14  1432.85955356
 UP BND  F9_25  1432.85955356
 UP BND  F9_26  1432.85955356
 UP BND  F9_29  1432.85955356
 UP BND  F10_0  605.860196172
 UP BND  F10_3  605.860196172
 UP BND  F10_7  605.860196172
 UP BND  F10_8  605.860196172
 UP BND  F10_9  605.860196172
 UP BND  F10_12  605.860196172
 UP BND  F10_19  605.860196172
 UP BND  F10_27  605.860196172
 UP BND  F11_5  1183.42442792
 UP BND  F11_6  1183.42442792
 UP BND  F11_7  1183.42442792
 UP BND  F11_10  1183.42442792
 UP BND  F11_11  1183.42442792
 UP BND  F11_13  1183.42442792
 UP BND  F11_15  1183.42442792
 UP BND  F11_17  1183.42442792
 UP BND  F11_21  1183.42442792
 UP BND  F11_24  1183.42442792
 UP BND  F11_25  1183.42442792
 UP BND  F11_26  1183.42442792
 UP BND  F11_28  1183.42442792
 UP BND  F11_29  1183.42442792
 UP BND  F12_1  571.417140498
 UP BND  F12_2  571.417140498
 UP BND  F12_4  571.417140498
 UP BND  F12_5  571.417140498
 UP BND  F12_10  571.417140498
 UP BND  F12_12  571.417140498
 UP BND  F12_14  571.417140498
 UP BND  F12_16  571.417140498
 UP BND  F12_21  571.417140498
 UP BND  F12_22  571.417140498
 UP BND  F12_25  571.417140498
 UP BND  F12_27  571.417140498
 UP BND  F13_3  1198.19044257
 UP BND  F13_6  1198.19044257
 UP BND  F13_7  1198.19044257
 UP BND  F13_8  1198.19044257
 UP BND  F13_9  1198.19044257
 UP BND  F13_13  1198.19044257
 UP BND  F13_15  1198.19044257
 UP BND  F13_16  1198.19044257
 UP BND  F13_19  1198.19044257
 UP BND  F13_21  1198.19044257
 UP BND  F13_22  1198.19044257
 UP BND  F13_29  1198.19044257
 UP BND  F14_1  222.87736942
 UP BND  F14_2  222.87736942
 UP BND  F14_6  222.87736942
 UP BND  F14_8  222.87736942
 UP BND  F14_13  222.87736942
 UP BND  F14_17  222.87736942
 UP BND  F14_24  222.87736942
 UP BND  F14_26  222.87736942
 UP BND  F14_28  222.87736942
 UP BND  F14_29  222.87736942
 UP BND  F15_1  368.76727603
 UP BND  F15_4  368.76727603
 UP BND  F15_6  368.76727603
 UP BND  F15_9  368.76727603
 UP BND  F15_10  368.76727603
 UP BND  F15_12  368.76727603
 UP BND  F15_13  368.76727603
 UP BND  F15_17  368.76727603
 UP BND  F15_18  368.76727603
 UP BND  F15_25  368.76727603
 UP BND  F15_28  368.76727603
 UP BND  F15_29  368.76727603
 UP BND  F16_8  537.033978488
 UP BND  F16_10  537.033978488
 UP BND  F16_12  537.033978488
 UP BND  F16_13  537.033978488
 UP BND  F16_16  537.033978488
 UP BND  F16_22  537.033978488
 UP BND  F16_26  537.033978488
 UP BND  F16_27  537.033978488
 UP BND  F16_28  537.033978488
 UP BND  F17_0  1331.11955402
 UP BND  F17_2  1331.11955402
 UP BND  F17_4  1331.11955402
 UP BND  F17_5  1331.11955402
 UP BND  F17_7  1331.11955402
 UP BND  F17_8  1331.11955402
 UP BND  F17_10  1331.11955402
 UP BND  F17_12  1331.11955402
 UP BND  F17_15  1331.11955402
 UP BND  F17_16  1331.11955402
 UP BND  F17_18  1331.11955402
 UP BND  F17_21  1331.11955402
 UP BND  F17_23  1331.11955402
 UP BND  F17_25  1331.11955402
 UP BND  F17_27  1331.11955402
 UP BND  F17_28  1331.11955402
 UP BND  F18_1  619.247889251
 UP BND  F18_3  619.247889251
 UP BND  F18_5  619.247889251
 UP BND  F18_11  619.247889251
 UP BND  F18_12  619.247889251
 UP BND  F18_13  619.247889251
 UP BND  F18_14  619.247889251
 UP BND  F18_15  619.247889251
 UP BND  F18_17  619.247889251
 UP BND  F18_19  619.247889251
 UP BND  F18_22  619.247889251
 UP BND  F18_26  619.247889251
 UP BND  F18_27  619.247889251
 UP BND  F18_29  619.247889251
 UP BND  F19_1  828.583203561
 UP BND  F19_2  828.583203561
 UP BND  F19_3  828.583203561
 UP BND  F19_9  828.583203561
 UP BND  F19_10  828.583203561
 UP BND  F19_12  828.583203561
 UP BND  F19_13  828.583203561
 UP BND  F19_14  828.583203561
 UP BND  F19_16  828.583203561
 UP BND  F19_20  828.583203561
 UP BND  F19_21  828.583203561
 UP BND  F19_25  828.583203561
 UP BND  F19_27  828.583203561
 UP BND  F20_0  339.157876058
 UP BND  F20_4  339.157876058
 UP BND  F20_10  339.157876058
 UP BND  F20_11  339.157876058
 UP BND  F20_12  339.157876058
 UP BND  F20_14  339.157876058
 UP BND  F20_15  339.157876058
 UP BND  F20_16  339.157876058
 UP BND  F20_18  339.157876058
 UP BND  F20_19  339.157876058
 UP BND  F20_20  339.157876058
 UP BND  F20_21  339.157876058
 UP BND  F20_22  339.157876058
 UP BND  F20_23  339.157876058
 UP BND  F20_25  339.157876058
 UP BND  F21_0  936.681771826
 UP BND  F21_5  936.681771826
 UP BND  F21_6  936.681771826
 UP BND  F21_8  936.681771826
 UP BND  F21_10  936.681771826
 UP BND  F21_12  936.681771826
 UP BND  F21_15  936.681771826
 UP BND  F21_16  936.681771826
 UP BND  F21_17  936.681771826
 UP BND  F21_20  936.681771826
 UP BND  F21_25  936.681771826
 UP BND  F21_29  936.681771826
 UP BND  F22_1  324.792894126
 UP BND  F22_5  324.792894126
 UP BND  F22_6  324.792894126
 UP BND  F22_10  324.792894126
 UP BND  F22_12  324.792894126
 UP BND  F22_16  324.792894126
 UP BND  F22_18  324.792894126
 UP BND  F22_19  324.792894126
 UP BND  F22_22  324.792894126
 UP BND  F22_23  324.792894126
 UP BND  F22_24  324.792894126
 UP BND  F22_26  324.792894126
 UP BND  F22_28  324.792894126
 UP BND  F23_3  384.08303917
 UP BND  F23_7  384.08303917
 UP BND  F23_8  384.08303917
 UP BND  F23_9  384.08303917
 UP BND  F23_16  384.08303917
 UP BND  F23_18  384.08303917
 UP BND  F23_21  384.08303917
 UP BND  F23_23  384.08303917
 UP BND  F23_24  384.08303917
 UP BND  F23_25  384.08303917
 UP BND  F23_28  384.08303917
 UP BND  F23_29  384.08303917
 UP BND  F24_1  1241.26411375
 UP BND  F24_3  1241.26411375
 UP BND  F24_4  1241.26411375
 UP BND  F24_8  1241.26411375
 UP BND  F24_9  1241.26411375
 UP BND  F24_10  1241.26411375
 UP BND  F24_11  1241.26411375
 UP BND  F24_13  1241.26411375
 UP BND  F24_14  1241.26411375
 UP BND  F24_18  1241.26411375
 UP BND  F24_22  1241.26411375
 UP BND  F24_24  1241.26411375
 UP BND  F24_28  1241.26411375
 UP BND  F25_1  517.083372115
 UP BND  F25_2  517.083372115
 UP BND  F25_3  517.083372115
 UP BND  F25_6  517.083372115
 UP BND  F25_8  517.083372115
 UP BND  F25_9  517.083372115
 UP BND  F25_10  517.083372115
 UP BND  F25_12  517.083372115
 UP BND  F25_15  517.083372115
 UP BND  F25_16  517.083372115
 UP BND  F25_18  517.083372115
 UP BND  F25_20  517.083372115
 UP BND  F25_26  517.083372115
 UP BND  F25_29  517.083372115
 UP BND  F26_0  279.629824419
 UP BND  F26_2  279.629824419
 UP BND  F26_6  279.629824419
 UP BND  F26_8  279.629824419
 UP BND  F26_16  279.629824419
 UP BND  F26_17  279.629824419
 UP BND  F26_18  279.629824419
 UP BND  F26_22  279.629824419
 UP BND  F26_24  279.629824419
 UP BND  F26_27  279.629824419
 UP BND  F26_29  279.629824419
 UP BND  F27_1  982.372344306
 UP BND  F27_2  982.372344306
 UP BND  F27_4  982.372344306
 UP BND  F27_5  982.372344306
 UP BND  F27_7  982.372344306
 UP BND  F27_9  982.372344306
 UP BND  F27_10  982.372344306
 UP BND  F27_13  982.372344306
 UP BND  F27_14  982.372344306
 UP BND  F27_18  982.372344306
 UP BND  F27_24  982.372344306
 UP BND  F27_28  982.372344306
 UP BND  F28_0  390.450202827
 UP BND  F28_2  390.450202827
 UP BND  F28_4  390.450202827
 UP BND  F28_6  390.450202827
 UP BND  F28_7  390.450202827
 UP BND  F28_10  390.450202827
 UP BND  F28_13  390.450202827
 UP BND  F28_25  390.450202827
 UP BND  F28_26  390.450202827
 UP BND  F28_29  390.450202827
 UP BND  F29_1  268.661740867
 UP BND  F29_2  268.661740867
 UP BND  F29_9  268.661740867
 UP BND  F29_11  268.661740867
 UP BND  F29_14  268.661740867
 UP BND  F29_15  268.661740867
 UP BND  F29_16  268.661740867
 UP BND  F29_17  268.661740867
 UP BND  F29_22  268.661740867
 UP BND  F30_0  1279.71801149
 UP BND  F30_4  1279.71801149
 UP BND  F30_8  1279.71801149
 UP BND  F30_14  1279.71801149
 UP BND  F30_16  1279.71801149
 UP BND  F30_17  1279.71801149
 UP BND  F30_20  1279.71801149
 UP BND  F30_28  1279.71801149
 UP BND  F31_3  716.33766724
 UP BND  F31_7  716.33766724
 UP BND  F31_8  716.33766724
 UP BND  F31_9  716.33766724
 UP BND  F31_11  716.33766724
 UP BND  F31_15  716.33766724
 UP BND  F31_16  716.33766724
 UP BND  F31_17  716.33766724
 UP BND  F31_18  716.33766724
 UP BND  F31_25  716.33766724
 UP BND  F31_28  716.33766724
 UP BND  F32_0  1325.11759889
 UP BND  F32_4  1325.11759889
 UP BND  F32_10  1325.11759889
 UP BND  F32_11  1325.11759889
 UP BND  F32_13  1325.11759889
 UP BND  F32_16  1325.11759889
 UP BND  F32_19  1325.11759889
 UP BND  F32_22  1325.11759889
 UP BND  F32_27  1325.11759889
 UP BND  F33_0  1167.24090847
 UP BND  F33_2  1167.24090847
 UP BND  F33_4  1167.24090847
 UP BND  F33_5  1167.24090847
 UP BND  F33_7  1167.24090847
 UP BND  F33_9  1167.24090847
 UP BND  F33_16  1167.24090847
 UP BND  F33_23  1167.24090847
 UP BND  F33_25  1167.24090847
 UP BND  F34_2  461.253238987
 UP BND  F34_3  461.253238987
 UP BND  F34_10  461.253238987
 UP BND  F34_15  461.253238987
 UP BND  F34_18  461.253238987
 UP BND  F34_19  461.253238987
 UP BND  F34_21  461.253238987
 UP BND  F34_22  461.253238987
 UP BND  F34_26  461.253238987
 UP BND  F35_0  310.254684652
 UP BND  F35_2  310.254684652
 UP BND  F35_4  310.254684652
 UP BND  F35_7  310.254684652
 UP BND  F35_8  310.254684652
 UP BND  F35_11  310.254684652
 UP BND  F35_12  310.254684652
 UP BND  F35_14  310.254684652
 UP BND  F35_15  310.254684652
 UP BND  F35_20  310.254684652
 UP BND  F35_22  310.254684652
 UP BND  F35_24  310.254684652
 UP BND  F36_4  422.764428129
 UP BND  F36_7  422.764428129
 UP BND  F36_10  422.764428129
 UP BND  F36_12  422.764428129
 UP BND  F36_14  422.764428129
 UP BND  F36_23  422.764428129
 UP BND  F36_26  422.764428129
 UP BND  F36_28  422.764428129
 UP BND  F36_29  422.764428129
 UP BND  F37_5  842.954213807
 UP BND  F37_7  842.954213807
 UP BND  F37_11  842.954213807
 UP BND  F37_14  842.954213807
 UP BND  F37_19  842.954213807
 UP BND  F37_20  842.954213807
 UP BND  F37_21  842.954213807
 UP BND  F37_22  842.954213807
 UP BND  F37_24  842.954213807
 UP BND  F37_28  842.954213807
 UP BND  F38_0  665.072581444
 UP BND  F38_4  665.072581444
 UP BND  F38_9  665.072581444
 UP BND  F38_15  665.072581444
 UP BND  F38_18  665.072581444
 UP BND  F38_20  665.072581444
 UP BND  F38_21  665.072581444
 UP BND  F38_26  665.072581444
 UP BND  F39_2  1281.57665612
 UP BND  F39_4  1281.57665612
 UP BND  F39_15  1281.57665612
 UP BND  F39_18  1281.57665612
 UP BND  F39_19  1281.57665612
 UP BND  F39_21  1281.57665612
 UP BND  F39_25  1281.57665612
 UP BND  F39_28  1281.57665612
 UP BND  F40_1  810.01309597
 UP BND  F40_2  810.01309597
 UP BND  F40_3  810.01309597
 UP BND  F40_4  810.01309597
 UP BND  F40_5  810.01309597
 UP BND  F40_10  810.01309597
 UP BND  F40_11  810.01309597
 UP BND  F40_14  810.01309597
 UP BND  F40_19  810.01309597
 UP BND  F40_21  810.01309597
 UP BND  F40_25  810.01309597
 UP BND  F40_26  810.01309597
 UP BND  F40_28  810.01309597
 UP BND  F40_29  810.01309597
 UP BND  F41_0  921.174610577
 UP BND  F41_1  921.174610577
 UP BND  F41_6  921.174610577
 UP BND  F41_7  921.174610577
 UP BND  F41_16  921.174610577
 UP BND  F41_17  921.174610577
 UP BND  F41_19  921.174610577
 UP BND  F41_21  921.174610577
 UP BND  F41_24  921.174610577
 UP BND  F41_25  921.174610577
 UP BND  F42_0  703.687917795
 UP BND  F42_1  703.687917795
 UP BND  F42_2  703.687917795
 UP BND  F42_3  703.687917795
 UP BND  F42_5  703.687917795
 UP BND  F42_6  703.687917795
 UP BND  F42_9  703.687917795
 UP BND  F42_11  703.687917795
 UP BND  F42_12  703.687917795
 UP BND  F42_16  703.687917795
 UP BND  F42_22  703.687917795
 UP BND  F42_25  703.687917795
 UP BND  F42_27  703.687917795
 UP BND  F43_1  1181.37043987
 UP BND  F43_5  1181.37043987
 UP BND  F43_8  1181.37043987
 UP BND  F43_11  1181.37043987
 UP BND  F43_12  1181.37043987
 UP BND  F43_14  1181.37043987
 UP BND  F43_15  1181.37043987
 UP BND  F43_21  1181.37043987
 UP BND  F43_22  1181.37043987
 UP BND  F43_23  1181.37043987
 UP BND  F43_26  1181.37043987
 UP BND  F44_2  1095.62172867
 UP BND  F44_14  1095.62172867
 UP BND  F44_17  1095.62172867
 UP BND  F44_20  1095.62172867
 UP BND  F44_27  1095.62172867
 UP BND  F44_29  1095.62172867
 UP BND  F45_2  1091.5040343
 UP BND  F45_11  1091.5040343
 UP BND  F45_14  1091.5040343
 UP BND  F45_15  1091.5040343
 UP BND  F45_16  1091.5040343
 UP BND  F45_19  1091.5040343
 UP BND  F45_21  1091.5040343
 UP BND  F45_23  1091.5040343
 UP BND  F45_29  1091.5040343
 UP BND  F46_2  1203.07270492
 UP BND  F46_8  1203.07270492
 UP BND  F46_11  1203.07270492
 UP BND  F46_13  1203.07270492
 UP BND  F46_19  1203.07270492
 UP BND  F46_21  1203.07270492
 UP BND  F46_24  1203.07270492
 UP BND  F46_25  1203.07270492
 UP BND  F46_26  1203.07270492
 UP BND  F46_27  1203.07270492
 UP BND  F46_29  1203.07270492
 UP BND  F47_0  718.187967332
 UP BND  F47_2  718.187967332
 UP BND  F47_3  718.187967332
 UP BND  F47_4  718.187967332
 UP BND  F47_5  718.187967332
 UP BND  F47_7  718.187967332
 UP BND  F47_8  718.187967332
 UP BND  F47_10  718.187967332
 UP BND  F47_11  718.187967332
 UP BND  F47_12  718.187967332
 UP BND  F47_15  718.187967332
 UP BND  F47_16  718.187967332
 UP BND  F47_18  718.187967332
 UP BND  F47_20  718.187967332
 UP BND  F47_21  718.187967332
 UP BND  F47_23  718.187967332
 UP BND  F48_7  354.811593612
 UP BND  F48_8  354.811593612
 UP BND  F48_10  354.811593612
 UP BND  F48_11  354.811593612
 UP BND  F48_14  354.811593612
 UP BND  F48_15  354.811593612
 UP BND  F48_18  354.811593612
 UP BND  F48_25  354.811593612
 UP BND  F48_26  354.811593612
 UP BND  F49_1  1263.31347739
 UP BND  F49_4  1263.31347739
 UP BND  F49_7  1263.31347739
 UP BND  F49_9  1263.31347739
 UP BND  F49_10  1263.31347739
 UP BND  F49_11  1263.31347739
 UP BND  F49_12  1263.31347739
 UP BND  F49_14  1263.31347739
 UP BND  F49_18  1263.31347739
 UP BND  F49_20  1263.31347739
 UP BND  F49_23  1263.31347739
 UP BND  F49_27  1263.31347739
 UP BND  F49_28  1263.31347739
 UP BND  F49_29  1263.31347739
 UP BND  F50_0  649.179231229
 UP BND  F50_1  649.179231229
 UP BND  F50_2  649.179231229
 UP BND  F50_3  649.179231229
 UP BND  F50_12  649.179231229
 UP BND  F50_14  649.179231229
 UP BND  F50_15  649.179231229
 UP BND  F50_19  649.179231229
 UP BND  F50_21  649.179231229
 UP BND  F50_25  649.179231229
 UP BND  F51_5  1099.29140087
 UP BND  F51_6  1099.29140087
 UP BND  F51_8  1099.29140087
 UP BND  F51_12  1099.29140087
 UP BND  F51_13  1099.29140087
 UP BND  F51_19  1099.29140087
 UP BND  F51_23  1099.29140087
 UP BND  F51_25  1099.29140087
 UP BND  F52_1  1485.00568219
 UP BND  F52_2  1485.00568219
 UP BND  F52_15  1485.00568219
 UP BND  F52_19  1485.00568219
 UP BND  F52_22  1485.00568219
 UP BND  F53_5  1112.29025608
 UP BND  F53_7  1112.29025608
 UP BND  F53_11  1112.29025608
 UP BND  F53_19  1112.29025608
 UP BND  F53_20  1112.29025608
 UP BND  F53_27  1112.29025608
 UP BND  F54_0  1378.69145047
 UP BND  F54_10  1378.69145047
 UP BND  F54_15  1378.69145047
 UP BND  F54_16  1378.69145047
 UP BND  F54_18  1378.69145047
 UP BND  F54_21  1378.69145047
 UP BND  F54_27  1378.69145047
 UP BND  F54_29  1378.69145047
 UP BND  F55_4  217.361433225
 UP BND  F55_6  217.361433225
 UP BND  F55_8  217.361433225
 UP BND  F55_10  217.361433225
 UP BND  F55_16  217.361433225
 UP BND  F55_17  217.361433225
 UP BND  F55_19  217.361433225
 UP BND  F55_20  217.361433225
 UP BND  F55_22  217.361433225
 UP BND  F55_23  217.361433225
 UP BND  F55_26  217.361433225
 UP BND  F55_28  217.361433225
 UP BND  F56_3  984.832710809
 UP BND  F56_6  984.832710809
 UP BND  F56_8  984.832710809
 UP BND  F56_11  984.832710809
 UP BND  F56_17  984.832710809
 UP BND  F56_20  984.832710809
 UP BND  F56_23  984.832710809
 UP BND  F56_24  984.832710809
 UP BND  F56_26  984.832710809
 UP BND  F56_27  984.832710809
 UP BND  F57_0  326.519499845
 UP BND  F57_1  326.519499845
 UP BND  F57_5  326.519499845
 UP BND  F57_7  326.519499845
 UP BND  F57_8  326.519499845
 UP BND  F57_9  326.519499845
 UP BND  F57_10  326.519499845
 UP BND  F57_12  326.519499845
 UP BND  F57_14  326.519499845
 UP BND  F57_17  326.519499845
 UP BND  F57_18  326.519499845
 UP BND  F57_21  326.519499845
 UP BND  F57_25  326.519499845
 UP BND  F57_28  326.519499845
 UP BND  F58_4  1334.25602007
 UP BND  F58_6  1334.25602007
 UP BND  F58_7  1334.25602007
 UP BND  F58_11  1334.25602007
 UP BND  F58_13  1334.25602007
 UP BND  F58_14  1334.25602007
 UP BND  F58_18  1334.25602007
 UP BND  F58_20  1334.25602007
 UP BND  F58_21  1334.25602007
 UP BND  F58_22  1334.25602007
 UP BND  F58_24  1334.25602007
 UP BND  F59_1  1448.32207894
 UP BND  F59_4  1448.32207894
 UP BND  F59_11  1448.32207894
 UP BND  F59_16  1448.32207894
 UP BND  F59_18  1448.32207894
 UP BND  F59_19  1448.32207894
 UP BND  F59_21  1448.32207894
 UP BND  F59_23  1448.32207894
 UP BND  F59_28  1448.32207894
 UP BND  F59_29  1448.32207894
 UP BND  F60_5  244.399650796
 UP BND  F60_8  244.399650796
 UP BND  F60_11  244.399650796
 UP BND  F60_17  244.399650796
 UP BND  F60_18  244.399650796
 UP BND  F60_20  244.399650796
 UP BND  F60_21  244.399650796
 UP BND  F60_23  244.399650796
 UP BND  F60_24  244.399650796
 UP BND  F60_28  244.399650796
 UP BND  F61_1  373.23975548
 UP BND  F61_2  373.23975548
 UP BND  F61_3  373.23975548
 UP BND  F61_12  373.23975548
 UP BND  F61_15  373.23975548
 UP BND  F61_17  373.23975548
 UP BND  F61_18  373.23975548
 UP BND  F61_19  373.23975548
 UP BND  F61_21  373.23975548
 UP BND  F61_26  373.23975548
 UP BND  F61_27  373.23975548
 UP BND  F62_0  1282.58934569
 UP BND  F62_2  1282.58934569
 UP BND  F62_8  1282.58934569
 UP BND  F62_10  1282.58934569
 UP BND  F62_13  1282.58934569
 UP BND  F62_14  1282.58934569
 UP BND  F62_15  1282.58934569
 UP BND  F62_16  1282.58934569
 UP BND  F62_18  1282.58934569
 UP BND  F62_21  1282.58934569
 UP BND  F62_23  1282.58934569
 UP BND  F62_28  1282.58934569
 UP BND  F63_2  1092.95235509
 UP BND  F63_4  1092.95235509
 UP BND  F63_6  1092.95235509
 UP BND  F63_7  1092.95235509
 UP BND  F63_8  1092.95235509
 UP BND  F63_16  1092.95235509
 UP BND  F63_23  1092.95235509
 UP BND  F63_26  1092.95235509
 UP BND  F63_27  1092.95235509
 UP BND  F64_6  1476.15510956
 UP BND  F64_9  1476.15510956
 UP BND  F64_10  1476.15510956
 UP BND  F64_12  1476.15510956
 UP BND  F64_18  1476.15510956
 UP BND  F64_20  1476.15510956
 UP BND  F64_28  1476.15510956
 UP BND  F65_3  1183.46195331
 UP BND  F65_6  1183.46195331
 UP BND  F65_8  1183.46195331
 UP BND  F65_12  1183.46195331
 UP BND  F65_13  1183.46195331
 UP BND  F65_15  1183.46195331
 UP BND  F65_23  1183.46195331
 UP BND  F65_25  1183.46195331
 UP BND  F66_3  972.447096882
 UP BND  F66_6  972.447096882
 UP BND  F66_7  972.447096882
 UP BND  F66_8  972.447096882
 UP BND  F66_10  972.447096882
 UP BND  F66_14  972.447096882
 UP BND  F66_16  972.447096882
 UP BND  F66_17  972.447096882
 UP BND  F66_20  972.447096882
 UP BND  F66_22  972.447096882
 UP BND  F67_1  901.016229819
 UP BND  F67_6  901.016229819
 UP BND  F67_7  901.016229819
 UP BND  F67_12  901.016229819
 UP BND  F67_13  901.016229819
 UP BND  F67_14  901.016229819
 UP BND  F67_19  901.016229819
 UP BND  F67_22  901.016229819
 UP BND  F67_29  901.016229819
 UP BND  F68_0  212.82756762
 UP BND  F68_1  212.82756762
 UP BND  F68_2  212.82756762
 UP BND  F68_4  212.82756762
 UP BND  F68_5  212.82756762
 UP BND  F68_7  212.82756762
 UP BND  F68_9  212.82756762
 UP BND  F68_12  212.82756762
 UP BND  F68_16  212.82756762
 UP BND  F68_19  212.82756762
 UP BND  F68_26  212.82756762
 UP BND  F68_28  212.82756762
 UP BND  F68_29  212.82756762
 UP BND  F69_0  1218.95911548
 UP BND  F69_4  1218.95911548
 UP BND  F69_8  1218.95911548
 UP BND  F69_10  1218.95911548
 UP BND  F69_11  1218.95911548
 UP BND  F69_14  1218.95911548
 UP BND  F69_22  1218.95911548
 UP BND  F69_23  1218.95911548
 UP BND  F69_27  1218.95911548
 UP BND  F69_28  1218.95911548
 UP BND  F70_1  699.20232233
 UP BND  F70_2  699.20232233
 UP BND  F70_5  699.20232233
 UP BND  F70_6  699.20232233
 UP BND  F70_8  699.20232233
 UP BND  F70_9  699.20232233
 UP BND  F70_12  699.20232233
 UP BND  F70_15  699.20232233
 UP BND  F70_17  699.20232233
 UP BND  F70_21  699.20232233
 UP BND  F70_27  699.20232233
 UP BND  F70_28  699.20232233
 UP BND  F70_29  699.20232233
 UP BND  F71_2  338.64915937
 UP BND  F71_4  338.64915937
 UP BND  F71_7  338.64915937
 UP BND  F71_12  338.64915937
 UP BND  F71_13  338.64915937
 UP BND  F71_16  338.64915937
 UP BND  F71_17  338.64915937
 UP BND  F71_26  338.64915937
 UP BND  F71_27  338.64915937
 UP BND  F71_28  338.64915937
 UP BND  F72_0  910.885236247
 UP BND  F72_3  910.885236247
 UP BND  F72_5  910.885236247
 UP BND  F72_6  910.885236247
 UP BND  F72_10  910.885236247
 UP BND  F72_16  910.885236247
 UP BND  F72_17  910.885236247
 UP BND  F72_18  910.885236247
 UP BND  F72_24  910.885236247
 UP BND  F73_0  680.951562145
 UP BND  F73_1  680.951562145
 UP BND  F73_3  680.951562145
 UP BND  F73_7  680.951562145
 UP BND  F73_8  680.951562145
 UP BND  F73_10  680.951562145
 UP BND  F73_13  680.951562145
 UP BND  F73_21  680.951562145
 UP BND  F73_22  680.951562145
 UP BND  F73_29  680.951562145
 UP BND  F74_2  987.615341438
 UP BND  F74_4  987.615341438
 UP BND  F74_6  987.615341438
 UP BND  F74_7  987.615341438
 UP BND  F74_8  987.615341438
 UP BND  F74_11  987.615341438
 UP BND  F74_14  987.615341438
 UP BND  F74_28  987.615341438
 UP BND  F74_29  987.615341438
 UP BND  F75_1  221.673764739
 UP BND  F75_4  221.673764739
 UP BND  F75_5  221.673764739
 UP BND  F75_6  221.673764739
 UP BND  F75_8  221.673764739
 UP BND  F75_11  221.673764739
 UP BND  F75_12  221.673764739
 UP BND  F75_14  221.673764739
 UP BND  F75_15  221.673764739
 UP BND  F75_16  221.673764739
 UP BND  F75_20  221.673764739
 UP BND  F76_2  414.468945048
 UP BND  F76_3  414.468945048
 UP BND  F76_7  414.468945048
 UP BND  F76_8  414.468945048
 UP BND  F76_12  414.468945048
 UP BND  F76_17  414.468945048
 UP BND  F76_25  414.468945048
 UP BND  F76_28  414.468945048
 UP BND  F76_29  414.468945048
 UP BND  F77_2  901.780208764
 UP BND  F77_9  901.780208764
 UP BND  F77_10  901.780208764
 UP BND  F77_11  901.780208764
 UP BND  F77_13  901.780208764
 UP BND  F77_14  901.780208764
 UP BND  F77_16  901.780208764
 UP BND  F77_17  901.780208764
 UP BND  F77_18  901.780208764
 UP BND  F77_19  901.780208764
 UP BND  F77_20  901.780208764
 UP BND  F77_21  901.780208764
 UP BND  F77_22  901.780208764
 UP BND  F77_27  901.780208764
 UP BND  F77_28  901.780208764
 UP BND  F78_1  992.879641091
 UP BND  F78_3  992.879641091
 UP BND  F78_6  992.879641091
 UP BND  F78_8  992.879641091
 UP BND  F78_11  992.879641091
 UP BND  F78_12  992.879641091
 UP BND  F78_13  992.879641091
 UP BND  F78_16  992.879641091
 UP BND  F78_18  992.879641091
 UP BND  F78_19  992.879641091
 UP BND  F78_21  992.879641091
 UP BND  F78_25  992.879641091
 UP BND  F78_27  992.879641091
 UP BND  F78_28  992.879641091
 UP BND  F78_29  992.879641091
 UP BND  F79_0  306.878407055
 UP BND  F79_4  306.878407055
 UP BND  F79_10  306.878407055
 UP BND  F79_17  306.878407055
 UP BND  F79_18  306.878407055
 UP BND  F79_19  306.878407055
 UP BND  F79_21  306.878407055
 UP BND  F79_23  306.878407055
 UP BND  F79_24  306.878407055
 UP BND  F79_26  306.878407055
 UP BND  F79_27  306.878407055
 UP BND  F80_0  1027.29123808
 UP BND  F80_1  1027.29123808
 UP BND  F80_2  1027.29123808
 UP BND  F80_8  1027.29123808
 UP BND  F80_10  1027.29123808
 UP BND  F80_11  1027.29123808
 UP BND  F80_16  1027.29123808
 UP BND  F80_17  1027.29123808
 UP BND  F80_21  1027.29123808
 UP BND  F80_25  1027.29123808
 UP BND  F80_26  1027.29123808
 UP BND  F80_29  1027.29123808
 UP BND  F81_1  1293.58749288
 UP BND  F81_4  1293.58749288
 UP BND  F81_8  1293.58749288
 UP BND  F81_9  1293.58749288
 UP BND  F81_13  1293.58749288
 UP BND  F81_14  1293.58749288
 UP BND  F81_17  1293.58749288
 UP BND  F81_24  1293.58749288
 UP BND  F81_25  1293.58749288
 UP BND  F81_27  1293.58749288
 UP BND  F81_28  1293.58749288
 UP BND  F82_2  572.818713686
 UP BND  F82_3  572.818713686
 UP BND  F82_4  572.818713686
 UP BND  F82_5  572.818713686
 UP BND  F82_7  572.818713686
 UP BND  F82_8  572.818713686
 UP BND  F82_13  572.818713686
 UP BND  F82_14  572.818713686
 UP BND  F82_22  572.818713686
 UP BND  F82_24  572.818713686
 UP BND  F82_28  572.818713686
 UP BND  F83_0  877.730012232
 UP BND  F83_3  877.730012232
 UP BND  F83_6  877.730012232
 UP BND  F83_11  877.730012232
 UP BND  F83_12  877.730012232
 UP BND  F83_16  877.730012232
 UP BND  F83_17  877.730012232
 UP BND  F83_20  877.730012232
 UP BND  F83_21  877.730012232
 UP BND  F83_27  877.730012232
 UP BND  F84_5  1377.9550574
 UP BND  F84_11  1377.9550574
 UP BND  F84_12  1377.9550574
 UP BND  F84_14  1377.9550574
 UP BND  F84_16  1377.9550574
 UP BND  F84_20  1377.9550574
 UP BND  F84_24  1377.9550574
 UP BND  F85_5  1113.84759082
 UP BND  F85_9  1113.84759082
 UP BND  F85_10  1113.84759082
 UP BND  F85_14  1113.84759082
 UP BND  F85_16  1113.84759082
 UP BND  F85_17  1113.84759082
 UP BND  F85_18  1113.84759082
 UP BND  F85_20  1113.84759082
 UP BND  F85_23  1113.84759082
 UP BND  F85_25  1113.84759082
 UP BND  F85_29  1113.84759082
 UP BND  F86_4  468.739026346
 UP BND  F86_6  468.739026346
 UP BND  F86_7  468.739026346
 UP BND  F86_10  468.739026346
 UP BND  F86_11  468.739026346
 UP BND  F86_14  468.739026346
 UP BND  F86_22  468.739026346
 UP BND  F86_26  468.739026346
 UP BND  F86_27  468.739026346
 UP BND  F86_28  468.739026346
 UP BND  F87_0  1456.4404775
 UP BND  F87_1  1456.4404775
 UP BND  F87_2  1456.4404775
 UP BND  F87_5  1456.4404775
 UP BND  F87_6  1456.4404775
 UP BND  F87_9  1456.4404775
 UP BND  F87_11  1456.4404775
 UP BND  F87_13  1456.4404775
 UP BND  F87_18  1456.4404775
 UP BND  F87_21  1456.4404775
 UP BND  F87_24  1456.4404775
 UP BND  F87_25  1456.4404775
 UP BND  F87_27  1456.4404775
 UP BND  F87_29  1456.4404775
 UP BND  F88_1  644.697557151
 UP BND  F88_2  644.697557151
 UP BND  F88_5  644.697557151
 UP BND  F88_6  644.697557151
 UP BND  F88_9  644.697557151
 UP BND  F88_11  644.697557151
 UP BND  F88_15  644.697557151
 UP BND  F88_24  644.697557151
 UP BND  F88_25  644.697557151
 UP BND  F88_27  644.697557151
 UP BND  F89_1  1271.46317308
 UP BND  F89_5  1271.46317308
 UP BND  F89_15  1271.46317308
 UP BND  F89_18  1271.46317308
 UP BND  F89_20  1271.46317308
 UP BND  F90_0  788.272718441
 UP BND  F90_1  788.272718441
 UP BND  F90_2  788.272718441
 UP BND  F90_3  788.272718441
 UP BND  F90_8  788.272718441
 UP BND  F90_10  788.272718441
 UP BND  F90_12  788.272718441
 UP BND  F90_13  788.272718441
 UP BND  F90_14  788.272718441
 UP BND  F90_18  788.272718441
 UP BND  F90_19  788.272718441
 UP BND  F90_26  788.272718441
 UP BND  F90_27  788.272718441
 UP BND  F90_28  788.272718441
 UP BND  F91_0  1226.69783086
 UP BND  F91_2  1226.69783086
 UP BND  F91_4  1226.69783086
 UP BND  F91_5  1226.69783086
 UP BND  F91_6  1226.69783086
 UP BND  F91_10  1226.69783086
 UP BND  F91_14  1226.69783086
 UP BND  F91_15  1226.69783086
 UP BND  F91_21  1226.69783086
 UP BND  F91_22  1226.69783086
 UP BND  F91_26  1226.69783086
 UP BND  F92_0  1397.19947637
 UP BND  F92_1  1397.19947637
 UP BND  F92_2  1397.19947637
 UP BND  F92_3  1397.19947637
 UP BND  F92_4  1397.19947637
 UP BND  F92_12  1397.19947637
 UP BND  F92_17  1397.19947637
 UP BND  F92_22  1397.19947637
 UP BND  F93_0  1373.54033409
 UP BND  F93_3  1373.54033409
 UP BND  F93_4  1373.54033409
 UP BND  F93_5  1373.54033409
 UP BND  F93_7  1373.54033409
 UP BND  F93_8  1373.54033409
 UP BND  F93_10  1373.54033409
 UP BND  F93_11  1373.54033409
 UP BND  F93_16  1373.54033409
 UP BND  F93_18  1373.54033409
 UP BND  F93_20  1373.54033409
 UP BND  F93_21  1373.54033409
 UP BND  F93_25  1373.54033409
 UP BND  F93_26  1373.54033409
 UP BND  F94_2  1245.98319885
 UP BND  F94_3  1245.98319885
 UP BND  F94_4  1245.98319885
 UP BND  F94_5  1245.98319885
 UP BND  F94_7  1245.98319885
 UP BND  F94_13  1245.98319885
 UP BND  F94_14  1245.98319885
 UP BND  F94_16  1245.98319885
 UP BND  F95_2  619.86403017
 UP BND  F95_4  619.86403017
 UP BND  F95_7  619.86403017
 UP BND  F95_8  619.86403017
 UP BND  F95_9  619.86403017
 UP BND  F95_11  619.86403017
 UP BND  F95_18  619.86403017
 UP BND  F95_19  619.86403017
 UP BND  F95_20  619.86403017
 UP BND  F95_25  619.86403017
 UP BND  F95_28  619.86403017
 UP BND  F96_0  1386.4185638
 UP BND  F96_1  1386.4185638
 UP BND  F96_3  1386.4185638
 UP BND  F96_4  1386.4185638
 UP BND  F96_7  1386.4185638
 UP BND  F96_8  1386.4185638
 UP BND  F96_13  1386.4185638
 UP BND  F96_14  1386.4185638
 UP BND  F96_17  1386.4185638
 UP BND  F96_21  1386.4185638
 UP BND  F96_22  1386.4185638
 UP BND  F96_23  1386.4185638
 UP BND  F96_28  1386.4185638
 UP BND  F97_0  399.34170632
 UP BND  F97_1  399.34170632
 UP BND  F97_3  399.34170632
 UP BND  F97_5  399.34170632
 UP BND  F97_11  399.34170632
 UP BND  F97_13  399.34170632
 UP BND  F97_16  399.34170632
 UP BND  F97_17  399.34170632
 UP BND  F97_19  399.34170632
 UP BND  F97_21  399.34170632
 UP BND  F97_22  399.34170632
 UP BND  F97_23  399.34170632
 UP BND  F97_26  399.34170632
 UP BND  F97_28  399.34170632
 UP BND  F98_0  538.253469609
 UP BND  F98_4  538.253469609
 UP BND  F98_7  538.253469609
 UP BND  F98_11  538.253469609
 UP BND  F98_12  538.253469609
 UP BND  F98_17  538.253469609
 UP BND  F98_18  538.253469609
 UP BND  F98_20  538.253469609
 UP BND  F98_22  538.253469609
 UP BND  F98_27  538.253469609
 UP BND  F98_29  538.253469609
 UP BND  F99_0  1040.25919129
 UP BND  F99_5  1040.25919129
 UP BND  F99_8  1040.25919129
 UP BND  F99_10  1040.25919129
 UP BND  F99_11  1040.25919129
 UP BND  F99_14  1040.25919129
 UP BND  F99_18  1040.25919129
 UP BND  F99_21  1040.25919129
 UP BND  F99_22  1040.25919129
 UP BND  F99_23  1040.25919129
 UP BND  F100_5  1172.63545631
 UP BND  F100_8  1172.63545631
 UP BND  F100_9  1172.63545631
 UP BND  F100_11  1172.63545631
 UP BND  F100_12  1172.63545631
 UP BND  F100_17  1172.63545631
 UP BND  F100_23  1172.63545631
 UP BND  F100_25  1172.63545631
 UP BND  F101_1  265.437168154
 UP BND  F101_2  265.437168154
 UP BND  F101_3  265.437168154
 UP BND  F101_5  265.437168154
 UP BND  F101_9  265.437168154
 UP BND  F101_10  265.437168154
 UP BND  F101_11  265.437168154
 UP BND  F101_12  265.437168154
 UP BND  F101_13  265.437168154
 UP BND  F101_14  265.437168154
 UP BND  F101_19  265.437168154
 UP BND  F101_20  265.437168154
 UP BND  F101_22  265.437168154
 UP BND  F101_23  265.437168154
 UP BND  F101_26  265.437168154
 UP BND  F101_29  265.437168154
 UP BND  F102_2  549.523423629
 UP BND  F102_7  549.523423629
 UP BND  F102_17  549.523423629
 UP BND  F102_18  549.523423629
 UP BND  F102_21  549.523423629
 UP BND  F102_26  549.523423629
 UP BND  F103_3  679.743177758
 UP BND  F103_6  679.743177758
 UP BND  F103_7  679.743177758
 UP BND  F103_9  679.743177758
 UP BND  F103_10  679.743177758
 UP BND  F103_11  679.743177758
 UP BND  F103_12  679.743177758
 UP BND  F103_15  679.743177758
 UP BND  F103_21  679.743177758
 UP BND  F103_24  679.743177758
 UP BND  F103_26  679.743177758
 UP BND  F103_28  679.743177758
 UP BND  F103_29  679.743177758
 UP BND  F104_1  1301.42048167
 UP BND  F104_2  1301.42048167
 UP BND  F104_3  1301.42048167
 UP BND  F104_4  1301.42048167
 UP BND  F104_13  1301.42048167
 UP BND  F104_17  1301.42048167
 UP BND  F104_19  1301.42048167
 UP BND  F104_20  1301.42048167
 UP BND  F104_21  1301.42048167
 UP BND  F104_24  1301.42048167
 UP BND  F104_25  1301.42048167
 UP BND  F104_26  1301.42048167
 UP BND  F105_0  202.492564786
 UP BND  F105_1  202.492564786
 UP BND  F105_2  202.492564786
 UP BND  F105_9  202.492564786
 UP BND  F105_15  202.492564786
 UP BND  F105_21  202.492564786
 UP BND  F105_23  202.492564786
 UP BND  F106_0  1356.99425418
 UP BND  F106_4  1356.99425418
 UP BND  F106_8  1356.99425418
 UP BND  F106_13  1356.99425418
 UP BND  F106_14  1356.99425418
 UP BND  F106_16  1356.99425418
 UP BND  F106_23  1356.99425418
 UP BND  F106_26  1356.99425418
 UP BND  F107_0  635.149726009
 UP BND  F107_4  635.149726009
 UP BND  F107_6  635.149726009
 UP BND  F107_7  635.149726009
 UP BND  F107_10  635.149726009
 UP BND  F107_20  635.149726009
 UP BND  F107_21  635.149726009
 UP BND  F107_26  635.149726009
 UP BND  F107_28  635.149726009
 UP BND  F108_3  1001.54561987
 UP BND  F108_8  1001.54561987
 UP BND  F108_9  1001.54561987
 UP BND  F108_11  1001.54561987
 UP BND  F108_19  1001.54561987
 UP BND  F108_20  1001.54561987
 UP BND  F108_25  1001.54561987
 UP BND  F108_29  1001.54561987
 UP BND  F109_0  1416.4890234
 UP BND  F109_1  1416.4890234
 UP BND  F109_5  1416.4890234
 UP BND  F109_8  1416.4890234
 UP BND  F109_11  1416.4890234
 UP BND  F109_16  1416.4890234
 UP BND  F109_18  1416.4890234
 UP BND  F109_21  1416.4890234
 UP BND  F109_23  1416.4890234
 UP BND  F109_25  1416.4890234
 UP BND  F109_27  1416.4890234
 UP BND  F109_29  1416.4890234
 UP BND  F110_0  280.078108367
 UP BND  F110_1  280.078108367
 UP BND  F110_2  280.078108367
 UP BND  F110_3  280.078108367
 UP BND  F110_4  280.078108367
 UP BND  F110_5  280.078108367
 UP BND  F110_8  280.078108367
 UP BND  F110_10  280.078108367
 UP BND  F110_15  280.078108367
 UP BND  F110_18  280.078108367
 UP BND  F110_19  280.078108367
 UP BND  F110_22  280.078108367
 UP BND  F110_23  280.078108367
 UP BND  F110_28  280.078108367
 UP BND  F110_29  280.078108367
 UP BND  F111_4  908.82949081
 UP BND  F111_7  908.82949081
 UP BND  F111_8  908.82949081
 UP BND  F111_9  908.82949081
 UP BND  F111_10  908.82949081
 UP BND  F111_12  908.82949081
 UP BND  F111_15  908.82949081
 UP BND  F111_17  908.82949081
 UP BND  F111_22  908.82949081
 UP BND  F111_23  908.82949081
 UP BND  F111_28  908.82949081
 UP BND  F111_29  908.82949081
 UP BND  F112_5  488.882739665
 UP BND  F112_6  488.882739665
 UP BND  F112_8  488.882739665
 UP BND  F112_11  488.882739665
 UP BND  F112_14  488.882739665
 UP BND  F112_19  488.882739665
 UP BND  F112_21  488.882739665
 UP BND  F112_22  488.882739665
 UP BND  F112_26  488.882739665
 UP BND  F112_27  488.882739665
 UP BND  F112_29  488.882739665
 UP BND  F113_0  1112.92173182
 UP BND  F113_1  1112.92173182
 UP BND  F113_3  1112.92173182
 UP BND  F113_5  1112.92173182
 UP BND  F113_8  1112.92173182
 UP BND  F113_11  1112.92173182
 UP BND  F113_12  1112.92173182
 UP BND  F113_13  1112.92173182
 UP BND  F113_14  1112.92173182
 UP BND  F113_16  1112.92173182
 UP BND  F113_18  1112.92173182
 UP BND  F113_19  1112.92173182
 UP BND  F113_23  1112.92173182
 UP BND  F113_24  1112.92173182
 UP BND  F113_25  1112.92173182
 UP BND  F113_29  1112.92173182
 UP BND  F114_5  1263.1638286
 UP BND  F114_10  1263.1638286
 UP BND  F114_11  1263.1638286
 UP BND  F114_12  1263.1638286
 UP BND  F114_23  1263.1638286
 UP BND  F114_25  1263.1638286
 UP BND  F114_27  1263.1638286
 UP BND  F115_0  520.124277097
 UP BND  F115_5  520.124277097
 UP BND  F115_9  520.124277097
 UP BND  F115_11  520.124277097
 UP BND  F115_13  520.124277097
 UP BND  F115_19  520.124277097
 UP BND  F115_21  520.124277097
 UP BND  F115_22  520.124277097
 UP BND  F115_26  520.124277097
 UP BND  F115_29  520.124277097
 UP BND  F116_1  1317.86294265
 UP BND  F116_2  1317.86294265
 UP BND  F116_9  1317.86294265
 UP BND  F116_12  1317.86294265
 UP BND  F116_15  1317.86294265
 UP BND  F116_26  1317.86294265
 UP BND  F116_27  1317.86294265
 UP BND  F116_28  1317.86294265
 UP BND  F116_29  1317.86294265
 UP BND  F117_0  430.637511691
 UP BND  F117_3  430.637511691
 UP BND  F117_4  430.637511691
 UP BND  F117_16  430.637511691
 UP BND  F117_17  430.637511691
 UP BND  F117_18  430.637511691
 UP BND  F117_19  430.637511691
 UP BND  F117_21  430.637511691
 UP BND  F117_27  430.637511691
 UP BND  F117_28  430.637511691
 UP BND  F118_2  824.093949911
 UP BND  F118_8  824.093949911
 UP BND  F118_10  824.093949911
 UP BND  F118_11  824.093949911
 UP BND  F118_13  824.093949911
 UP BND  F118_14  824.093949911
 UP BND  F118_18  824.093949911
 UP BND  F118_22  824.093949911
 UP BND  F118_24  824.093949911
 UP BND  F118_27  824.093949911
 UP BND  F119_2  370.667394558
 UP BND  F119_12  370.667394558
 UP BND  F119_13  370.667394558
 UP BND  F119_15  370.667394558
 UP BND  F119_18  370.667394558
 UP BND  F119_21  370.667394558
 UP BND  F119_22  370.667394558
 UP BND  F119_23  370.667394558
 UP BND  F119_27  370.667394558
ENDATA
