NAME          SC0
ROWS
 N  COST
 L  SUP0
 L  SUP1
 L  SUP2
 L  SUP3
 L  SUP4
 L  SUP5
 L  SUP6
 L  SUP7
 L  SUP8
 L  SUP9
 L  SUP10
 L  SUP11
 L  SUP12
 L  SUP13
 L  SUP14
 L  SUP15
 L  SUP16
 L  SUP17
 L  SUP18
 L  SUP19
 L  SUP20
 L  SUP21
 L  SUP22
 L  SUP23
 L  SUP24
 L  SUP25
 L  SUP26
 L  SUP27
 L  SUP28
 L  SUP29
 L  SUP30
 L  SUP31
 L  SUP32
 L  SUP33
 L  SUP34
 L  SUP35
 L  SUP36
 L  SUP37
 L  SUP38
 L  SUP39
 L  SUP40
 L  SUP41
 L  SUP42
 L  SUP43
 L  SUP44
 L  SUP45
 L  SUP46
 L  SUP47
 L  SUP48
 L  SUP49
 L  SUP50
 L  SUP51
 L  SUP52
 L  SUP53
 L  SUP54
 L  SUP55
 L  SUP56
 L  SUP57
 L  SUP58
 L  SUP59
 L  SUP60
 L  SUP61
 L  SUP62
 L  SUP63
 L  SUP64
 L  SUP65
 L  SUP66
 L  SUP67
 L  SUP68
 L  SUP69
 E  HUB0
 E  HUB1
 E  HUB2
 E  HUB3
 E  HUB4
 E  HUB5
 E  HUB6
 E  HUB7
 E  HUB8
 E  HUB9
 E  HUB10
 E  HUB11
 E  HUB12
 E  HUB13
 E  HUB14
 E  HUB15
 E  HUB16
 E  HUB17
 E  HUB18
 E  HUB19
 E  HUB20
 E  HUB21
 E  HUB22
 E  HUB23
 E  HUB24
 E  HUB25
 E  HUB26
 E  HUB27
 E  HUB28
 E  HUB29
 E  HUB30
 E  HUB31
 E  HUB32
 E  HUB33
 E  HUB34
 E  HUB35
 E  HUB36
 E  HUB37
 E  HUB38
 E  HUB39
 G  DEM0
 G  DEM1
 G  DEM2
 G  DEM3
 G  DEM4
 G  DEM5
 G  DEM6
 G  DEM7
 G  DEM8
 G  DEM9
 G  DEM10
 G  DEM11
 G  DEM12
 G  DEM13
 G  DEM14
 G  DEM15
 G  DEM16
 G  DEM17
 G  DEM18
 G  DEM19
 G  DEM20
 G  DEM21
 G  DEM22
 G  DEM23
 G  DEM24
 G  DEM25
 G  DEM26
 G  DEM27
 G  DEM28
 G  DEM29
 G  DEM30
 G  DEM31
 G  DEM32
 G  DEM33
 G  DEM34
 G  DEM35
 G  DEM36
 G  DEM37
 G  DEM38
 G  DEM39
 G  DEM40
 G  DEM41
 G  DEM42
 G  DEM43
 G  DEM44
 G  DEM45
 G  DEM46
 G  DEM47
 G  DEM48
 G  DEM49
 G  DEM50
 G  DEM51
 G  DEM52
 G  DEM53
 G  DEM54
 G  DEM55
 G  DEM56
 G  DEM57
 G  DEM58
 G  DEM59
 G  DEM60
 G  DEM61
 G  DEM62
 G  DEM63
 G  DEM64
 G  DEM65
 G  DEM66
 G  DEM67
 G  DEM68
 G  DEM69
 G  DEM70
 G  DEM71
 G  DEM72
 G  DEM73
 G  DEM74
 G  DEM75
 G  DEM76
 G  DEM77
 G  DEM78
 G  DEM79
 G  DEM80
 G  DEM81
 G  DEM82
 G  DEM83
 G  DEM84
 G  DEM85
 G  DEM86
 G  DEM87
 G  DEM88
 G  DEM89
 G  DEM90
 G  DEM91
 G  DEM92
 G  DEM93
 G  DEM94
 G  DEM95
 G  DEM96
 G  DEM97
 G  DEM98
 G  DEM99
 G  DEM100
 G  DEM101
 G  DEM102
 G  DEM103
 G  DEM104
 G  DEM105
 G  DEM106
 G  DEM107
 G  DEM108
 G  DEM109
COLUMNS
    A0_0  COST  3.69657088451
    A0_0  SUP0  1
    A0_0  HUB0  1
    A0_1  COST  10.1227866957
    A0_1  SUP0  1
    A0_1  HUB1  1
    A0_2  COST  1.03724788081
    A0_2  SUP0  1
    A0_2  HUB2  1
    A0_4  COST  2.41550766897
    A0_4  SUP0  1
    A0_4  HUB4  1
    A0_10  COST  13.9253598134
    A0_10  SUP0  1
    A0_10  HUB10  1
    A0_14  COST  9.69049323177
    A0_14  SUP0  1
    A0_14  HUB14  1
    A0_19  COST  11.9634166895
    A0_19  SUP0  1
    A0_19  HUB19  1
    A0_25  COST  3.91596539289
    A0_25  SUP0  1
    A0_25  HUB25  1
    A0_27  COST  12.2218936491
    A0_27  SUP0  1
    A0_27  HUB27  1
    A0_28  COST  1.49817331257
    A0_28  SUP0  1
    A0_28  HUB28  1
    A0_30  COST  10.2476866087
    A0_30  SUP0  1
    A0_30  HUB30  1
    A0_33  COST  6.97789148844
    A0_33  SUP0  1
    A0_33  HUB33  1
    A0_34  COST  9.39798079924
    A0_34  SUP0  1
    A0_34  HUB34  1
    A0_36  COST  4.47924827353
    A0_36  SUP0  1
    A0_36  HUB36  1
    A0_37  COST  3.88437058316
    A0_37  SUP0  1
    A0_37  HUB37  1
    A1_0  COST  7.35312311663
    A1_0  SUP1  1
    A1_0  HUB0  1
    A1_1  COST  8.12108185773
    A1_1  SUP1  1
    A1_1  HUB1  1
    A1_3  COST  12.9057508162
    A1_3  SUP1  1
    A1_3  HUB3  1
    A1_7  COST  8.3596121205
    A1_7  SUP1  1
    A1_7  HUB7  1
    A1_8  COST  10.3609019829
    A1_8  SUP1  1
    A1_8  HUB8  1
    A1_12  COST  4.12943851685
    A1_12  SUP1  1
    A1_12  HUB12  1
    A1_13  COST  1.68072253569
    A1_13  SUP1  1
    A1_13  HUB13  1
    A1_16  COST  8.81378591299
    A1_16  SUP1  1
    A1_16  HUB16  1
    A1_17  COST  1.92534023726
    A1_17  SUP1  1
    A1_17  HUB17  1
    A1_18  COST  4.71463858393
    A1_18  SUP1  1
    A1_18  HUB18  1
    A1_19  COST  11.5982055158
    A1_19  SUP1  1
    A1_19  HUB19  1
    A1_21  COST  1.89820818133
    A1_21  SUP1  1
    A1_21  HUB21  1
    A1_22  COST  11.9526117637
    A1_22  SUP1  1
    A1_22  HUB22  1
    A1_23  COST  4.70205298198
    A1_23  SUP1  1
    A1_23  HUB23  1
    A1_24  COST  2.45511068573
    A1_24  SUP1  1
    A1_24  HUB24  1
    A1_28  COST  1.14464663068
    A1_28  SUP1  1
    A1_28  HUB28  1
    A1_30  COST  9.40896450002
    A1_30  SUP1  1
    A1_30  HUB30  1
    A1_35  COST  4.96274849166
    A1_35  SUP1  1
    A1_35  HUB35  1
    A1_38  COST  8.61080266646
    A1_38  SUP1  1
    A1_38  HUB38  1
    A1_39  COST  5.98379035954
    A1_39  SUP1  1
    A1_39  HUB39  1
    A2_1  COST  13.9147824773
    A2_1  SUP2  1
    A2_1  HUB1  1
    A2_2  COST  8.56248998266
    A2_2  SUP2  1
    A2_2  HUB2  1
    A2_3  COST  9.7891865055
    A2_3  SUP2  1
    A2_3  HUB3  1
    A2_4  COST  2.02523924353
    A2_4  SUP2  1
    A2_4  HUB4  1
    A2_9  COST  10.9615549361
    A2_9  SUP2  1
    A2_9  HUB9  1
    A2_10  COST  7.46450957873
    A2_10  SUP2  1
    A2_10  HUB10  1
    A2_11  COST  5.28567942358
    A2_11  SUP2  1
    A2_11  HUB11  1
    A2_14  COST  2.66234956084
    A2_14  SUP2  1
    A2_14  HUB14  1
    A2_15  COST  10.4057704869
    A2_15  SUP2  1
    A2_15  HUB15  1
    A2_17  COST  4.93212445937
    A2_17  SUP2  1
    A2_17  HUB17  1
    A2_18  COST  7.96091009525
    A2_18  SUP2  1
    A2_18  HUB18  1
    A2_22  COST  9.6182890614
    A2_22  SUP2  1
    A2_22  HUB22  1
    A2_24  COST  13.911162096
    A2_24  SUP2  1
    A2_24  HUB24  1
    A2_31  COST  1.1635463875
    A2_31  SUP2  1
    A2_31  HUB31  1
    A2_32  COST  2.70754762994
    A2_32  SUP2  1
    A2_32  HUB32  1
    A2_33  COST  1.69969941045
    A2_33  SUP2  1
    A2_33  HUB33  1
    A2_34  COST  4.36290117552
    A2_34  SUP2  1
    A2_34  HUB34  1
    A2_36  COST  13.6917111199
    A2_36  SUP2  1
    A2_36  HUB36  1
    A2_37  COST  11.7759777762
    A2_37  SUP2  1
    A2_37  HUB37  1
    A3_4  COST  12.4447608531
    A3_4  SUP3  1
    A3_4  HUB4  1
    A3_5  COST  7.89552922634
    A3_5  SUP3  1
    A3_5  HUB5  1
    A3_6  COST  12.6556274915
    A3_6  SUP3  1
    A3_6  HUB6  1
    A3_7  COST  5.88423650863
    A3_7  SUP3  1
    A3_7  HUB7  1
    A3_8  COST  2.18181751867
    A3_8  SUP3  1
    A3_8  HUB8  1
    A3_11  COST  3.94726012987
    A3_11  SUP3  1
    A3_11  HUB11  1
    A3_13  COST  3.68196792784
    A3_13  SUP3  1
    A3_13  HUB13  1
    A3_14  COST  7.08415233673
    A3_14  SUP3  1
    A3_14  HUB14  1
    A3_15  COST  8.58222015284
    A3_15  SUP3  1
    A3_15  HUB15  1
    A3_16  COST  10.3914586008
    A3_16  SUP3  1
    A3_16  HUB16  1
    A3_19  COST  5.66610283215
    A3_19  SUP3  1
    A3_19  HUB19  1
    A3_20  COST  2.66106027513
    A3_20  SUP3  1
    A3_20  HUB20  1
    A3_32  COST  2.23408039205
    A3_32  SUP3  1
    A3_32  HUB32  1
    A3_34  COST  4.44306896647
    A3_34  SUP3  1
    A3_34  HUB34  1
    A3_35  COST  9.24890604024
    A3_35  SUP3  1
    A3_35  HUB35  1
    A3_36  COST  12.0692974263
    A3_36  SUP3  1
    A3_36  HUB36  1
    A3_37  COST  2.19472787397
    A3_37  SUP3  1
    A3_37  HUB37  1
    A4_1  COST  4.30417648073
    A4_1  SUP4  1
    A4_1  HUB1  1
    A4_2  COST  6.54653177737
    A4_2  SUP4  1
    A4_2  HUB2  1
    A4_3  COST  1.83989018617
    A4_3  SUP4  1
    A4_3  HUB3  1
    A4_4  COST  4.28008447761
    A4_4  SUP4  1
    A4_4  HUB4  1
    A4_5  COST  8.79074974631
    A4_5  SUP4  1
    A4_5  HUB5  1
    A4_7  COST  4.46734640794
    A4_7  SUP4  1
    A4_7  HUB7  1
    A4_8  COST  4.65803784162
    A4_8  SUP4  1
    A4_8  HUB8  1
    A4_10  COST  1.88150730293
    A4_10  SUP4  1
    A4_10  HUB10  1
    A4_13  COST  13.2532456116
    A4_13  SUP4  1
    A4_13  HUB13  1
    A4_14  COST  10.7065647356
    A4_14  SUP4  1
    A4_14  HUB14  1
    A4_15  COST  4.77135921585
    A4_15  SUP4  1
    A4_15  HUB15  1
    A4_17  COST  13.0896807423
    A4_17  SUP4  1
    A4_17  HUB17  1
    A4_21  COST  11.4649464322
    A4_21  SUP4  1
    A4_21  HUB21  1
    A4_22  COST  9.03360160973
    A4_22  SUP4  1
    A4_22  HUB22  1
    A4_25  COST  5.04411359369
    A4_25  SUP4  1
    A4_25  HUB25  1
    A4_26  COST  4.95225739271
    A4_26  SUP4  1
    A4_26  HUB26  1
    A4_27  COST  2.4811589363
    A4_27  SUP4  1
    A4_27  HUB27  1
    A4_29  COST  4.18333123601
    A4_29  SUP4  1
    A4_29  HUB29  1
    A4_32  COST  4.17306276568
    A4_32  SUP4  1
    A4_32  HUB32  1
    A4_35  COST  13.8794681542
    A4_35  SUP4  1
    A4_35  HUB35  1
    A4_36  COST  12.2732253967
    A4_36  SUP4  1
    A4_36  HUB36  1
    A5_0  COST  4.00339882246
    A5_0  SUP5  1
    A5_0  HUB0  1
    A5_4  COST  9.73397681327
    A5_4  SUP5  1
    A5_4  HUB4  1
    A5_9  COST  6.54183275471
    A5_9  SUP5  1
    A5_9  HUB9  1
    A5_12  COST  5.37726996546
    A5_12  SUP5  1
    A5_12  HUB12  1
    A5_15  COST  12.720504154
    A5_15  SUP5  1
    A5_15  HUB15  1
    A5_16  COST  12.1826493829
    A5_16  SUP5  1
    A5_16  HUB16  1
    A5_17  COST  12.2993482914
    A5_17  SUP5  1
    A5_17  HUB17  1
    A5_18  COST  9.83784964367
    A5_18  SUP5  1
    A5_18  HUB18  1
    A5_21  COST  9.73319286424
    A5_21  SUP5  1
    A5_21  HUB21  1
    A5_22  COST  13.4270607926
    A5_22  SUP5  1
    A5_22  HUB22  1
    A5_23  COST  9.27650268918
    A5_23  SUP5  1
    A5_23  HUB23  1
    A5_24  COST  7.20052471045
    A5_24  SUP5  1
    A5_24  HUB24  1
    A5_27  COST  4.70059685077
    A5_27  SUP5  1
    A5_27  HUB27  1
    A5_28  COST  10.6373023377
    A5_28  SUP5  1
    A5_28  HUB28  1
    A5_30  COST  1.68683011335
    A5_30  SUP5  1
    A5_30  HUB30  1
    A5_32  COST  2.26672913218
    A5_32  SUP5  1
    A5_32  HUB32  1
    A5_36  COST  3.75231373564
    A5_36  SUP5  1
    A5_36  HUB36  1
    A5_38  COST  1.51763399227
    A5_38  SUP5  1
    A5_38  HUB38  1
    A5_39  COST  12.8347014045
    A5_39  SUP5  1
    A5_39  HUB39  1
    A6_0  COST  8.85762064645
    A6_0  SUP6  1
    A6_0  HUB0  1
    A6_3  COST  13.3312945387
    A6_3  SUP6  1
    A6_3  HUB3  1
    A6_4  COST  5.59938892091
    A6_4  SUP6  1
    A6_4  HUB4  1
    A6_6  COST  3.27700236906
    A6_6  SUP6  1
    A6_6  HUB6  1
    A6_7  COST  7.15539344758
    A6_7  SUP6  1
    A6_7  HUB7  1
    A6_8  COST  7.94338384999
    A6_8  SUP6  1
    A6_8  HUB8  1
    A6_10  COST  8.00903610123
    A6_10  SUP6  1
    A6_10  HUB10  1
    A6_13  COST  2.44235952991
    A6_13  SUP6  1
    A6_13  HUB13  1
    A6_14  COST  3.57253210849
    A6_14  SUP6  1
    A6_14  HUB14  1
    A6_19  COST  1.33620473231
    A6_19  SUP6  1
    A6_19  HUB19  1
    A6_25  COST  9.81341964846
    A6_25  SUP6  1
    A6_25  HUB25  1
    A6_26  COST  9.33891912621
    A6_26  SUP6  1
    A6_26  HUB26  1
    A6_28  COST  8.45363006221
    A6_28  SUP6  1
    A6_28  HUB28  1
    A6_30  COST  9.5631090792
    A6_30  SUP6  1
    A6_30  HUB30  1
    A6_31  COST  2.30090613503
    A6_31  SUP6  1
    A6_31  HUB31  1
    A6_35  COST  3.66473061419
    A6_35  SUP6  1
    A6_35  HUB35  1
    A6_36  COST  3.87370064977
    A6_36  SUP6  1
    A6_36  HUB36  1
    A6_39  COST  10.4822332931
    A6_39  SUP6  1
    A6_39  HUB39  1
    A7_0  COST  11.9309058377
    A7_0  SUP7  1
    A7_0  HUB0  1
    A7_1  COST  4.02852336277
    A7_1  SUP7  1
    A7_1  HUB1  1
    A7_2  COST  7.71521368507
    A7_2  SUP7  1
    A7_2  HUB2  1
    A7_3  COST  7.60427234167
    A7_3  SUP7  1
    A7_3  HUB3  1
    A7_8  COST  9.74462658592
    A7_8  SUP7  1
    A7_8  HUB8  1
    A7_10  COST  10.9047531724
    A7_10  SUP7  1
    A7_10  HUB10  1
    A7_11  COST  2.28518780921
    A7_11  SUP7  1
    A7_11  HUB11  1
    A7_14  COST  3.25830712706
    A7_14  SUP7  1
    A7_14  HUB14  1
    A7_15  COST  4.78060782535
    A7_15  SUP7  1
    A7_15  HUB15  1
    A7_18  COST  9.7824967638
    A7_18  SUP7  1
    A7_18  HUB18  1
    A7_19  COST  5.55253510163
    A7_19  SUP7  1
    A7_19  HUB19  1
    A7_21  COST  9.09794319115
    A7_21  SUP7  1
    A7_21  HUB21  1
    A7_22  COST  5.00456322889
    A7_22  SUP7  1
    A7_22  HUB22  1
    A7_23  COST  2.14738412448
    A7_23  SUP7  1
    A7_23  HUB23  1
    A7_26  COST  7.26735517873
    A7_26  SUP7  1
    A7_26  HUB26  1
    A7_28  COST  5.48469826075
    A7_28  SUP7  1
    A7_28  HUB28  1
    A7_30  COST  12.7230167718
    A7_30  SUP7  1
    A7_30  HUB30  1
    A7_32  COST  9.96114758464
    A7_32  SUP7  1
    A7_32  HUB32  1
    A7_33  COST  7.68044373394
    A7_33  SUP7  1
    A7_33  HUB33  1
    A7_35  COST  4.93094588724
    A7_35  SUP7  1
    A7_35  HUB35  1
    A7_38  COST  2.84879973691
    A7_38  SUP7  1
    A7_38  HUB38  1
    A7_39  COST  12.5544970327
    A7_39  SUP7  1
    A7_39  HUB39  1
    A8_4  COST  9.75022455678
    A8_4  SUP8  1
    A8_4  HUB4  1
    A8_6  COST  13.9717332801
    A8_6  SUP8  1
    A8_6  HUB6  1
    A8_7  COST  13.1619210158
    A8_7  SUP8  1
    A8_7  HUB7  1
    A8_8  COST  1.48414591673
    A8_8  SUP8  1
    A8_8  HUB8  1
    A8_10  COST  5.26213808775
    A8_10  SUP8  1
    A8_10  HUB10  1
    A8_11  COST  2.50573064798
    A8_11  SUP8  1
    A8_11  HUB11  1
    A8_12  COST  12.5309188973
    A8_12  SUP8  1
    A8_12  HUB12  1
    A8_13  COST  8.46872890088
    A8_13  SUP8  1
    A8_13  HUB13  1
    A8_14  COST  9.85674244569
    A8_14  SUP8  1
    A8_14  HUB14  1
    A8_15  COST  5.75432059609
    A8_15  SUP8  1
    A8_15  HUB15  1
    A8_18  COST  3.70588154734
    A8_18  SUP8  1
    A8_18  HUB18  1
    A8_19  COST  13.3807749815
    A8_19  SUP8  1
    A8_19  HUB19  1
    A8_21  COST  9.1042807456
    A8_21  SUP8  1
    A8_21  HUB21  1
    A8_22  COST  13.1067501433
    A8_22  SUP8  1
    A8_22  HUB22  1
    A8_28  COST  11.3327059742
    A8_28  SUP8  1
    A8_28  HUB28  1
    A8_29  COST  6.41931604066
    A8_29  SUP8  1
    A8_29  HUB29  1
    A8_30  COST  5.36670068674
    A8_30  SUP8  1
    A8_30  HUB30  1
    A9_1  COST  9.574143317
    A9_1  SUP9  1
    A9_1  HUB1  1
    A9_3  COST  2.24043938955
    A9_3  SUP9  1
    A9_3  HUB3  1
    A9_4  COST  4.11119365182
    A9_4  SUP9  1
    A9_4  HUB4  1
    A9_5  COST  11.2561133384
    A9_5  SUP9  1
    A9_5  HUB5  1
    A9_6  COST  6.63776544029
    A9_6  SUP9  1
    A9_6  HUB6  1
    A9_7  COST  6.36594214362
    A9_7  SUP9  1
    A9_7  HUB7  1
    A9_9  COST  6.36491731727
    A9_9  SUP9  1
    A9_9  HUB9  1
    A9_10  COST  5.40197621581
    A9_10  SUP9  1
    A9_10  HUB10  1
    A9_11  COST  1.78864909222
    A9_11  SUP9  1
    A9_11  HUB11  1
    A9_12  COST  5.79375475941
    A9_12  SUP9  1
    A9_12  HUB12  1
    A9_13  COST  1.1872121077
    A9_13  SUP9  1
    A9_13  HUB13  1
    A9_15  COST  9.40609528847
    A9_15  SUP9  1
    A9_15  HUB15  1
    A9_19  COST  3.24573268937
    A9_19  SUP9  1
    A9_19  HUB19  1
    A9_21  COST  11.0373780173
    A9_21  SUP9  1
    A9_21  HUB21  1
    A9_22  COST  5.44097219304
    A9_22  SUP9  1
    A9_22  HUB22  1
    A9_25  COST  4.08764513562
    A9_25  SUP9  1
    A9_25  HUB25  1
    A9_26  COST  12.998397646
    A9_26  SUP9  1
    A9_26  HUB26  1
    A9_27  COST  8.73304147242
    A9_27  SUP9  1
    A9_27  HUB27  1
    A9_28  COST  2.11400419322
    A9_28  SUP9  1
    A9_28  HUB28  1
    A9_30  COST  13.258546181
    A9_30  SUP9  1
    A9_30  HUB30  1
    A9_32  COST  9.62863943255
    A9_32  SUP9  1
    A9_32  HUB32  1
    A9_33  COST  2.02691325288
    A9_33  SUP9  1
    A9_33  HUB33  1
    A9_36  COST  1.06746757856
    A9_36  SUP9  1
    A9_36  HUB36  1
    A9_38  COST  3.39896988286
    A9_38  SUP9  1
    A9_38  HUB38  1
    A10_0  COST  9.50716461588
    A10_0  SUP10  1
    A10_0  HUB0  1
    A10_1  COST  10.700613332
    A10_1  SUP10  1
    A10_1  HUB1  1
    A10_2  COST  2.77486348444
    A10_2  SUP10  1
    A10_2  HUB2  1
    A10_3  COST  4.96687637109
    A10_3  SUP10  1
    A10_3  HUB3  1
    A10_5  COST  1.15727673578
    A10_5  SUP10  1
    A10_5  HUB5  1
    A10_6  COST  2.55817416643
    A10_6  SUP10  1
    A10_6  HUB6  1
    A10_8  COST  1.84570874214
    A10_8  SUP10  1
    A10_8  HUB8  1
    A10_10  COST  11.4099342691
    A10_10  SUP10  1
    A10_10  HUB10  1
    A10_12  COST  11.7187284421
    A10_12  SUP10  1
    A10_12  HUB12  1
    A10_14  COST  12.5632379315
    A10_14  SUP10  1
    A10_14  HUB14  1
    A10_17  COST  8.18709998971
    A10_17  SUP10  1
    A10_17  HUB17  1
    A10_18  COST  9.46653475565
    A10_18  SUP10  1
    A10_18  HUB18  1
    A10_22  COST  4.3616171498
    A10_22  SUP10  1
    A10_22  HUB22  1
    A10_23  COST  10.2889573862
    A10_23  SUP10  1
    A10_23  HUB23  1
    A10_24  COST  11.7113165139
    A10_24  SUP10  1
    A10_24  HUB24  1
    A10_25  COST  10.6515079899
    A10_25  SUP10  1
    A10_25  HUB25  1
    A10_27  COST  10.8714147478
    A10_27  SUP10  1
    A10_27  HUB27  1
    A10_28  COST  8.66525592289
    A10_28  SUP10  1
    A10_28  HUB28  1
    A10_29  COST  11.6474431803
    A10_29  SUP10  1
    A10_29  HUB29  1
    A10_30  COST  1.56852469829
    A10_30  SUP10  1
    A10_30  HUB30  1
    A10_33  COST  3.19727952354
    A10_33  SUP10  1
    A10_33  HUB33  1
    A10_35  COST  3.0295896582
    A10_35  SUP10  1
    A10_35  HUB35  1
    A10_37  COST  9.13975996999
    A10_37  SUP10  1
    A10_37  HUB37  1
    A10_38  COST  5.92801470216
    A10_38  SUP10  1
    A10_38  HUB38  1
    A11_4  COST  1.33425783215
    A11_4  SUP11  1
    A11_4  HUB4  1
    A11_9  COST  7.42881117741
    A11_9  SUP11  1
    A11_9  HUB9  1
    A11_10  COST  12.2127375014
    A11_10  SUP11  1
    A11_10  HUB10  1
    A11_12  COST  4.51531411505
    A11_12  SUP11  1
    A11_12  HUB12  1
    A11_13  COST  7.63946457728
    A11_13  SUP11  1
    A11_13  HUB13  1
    A11_14  COST  9.58577665032
    A11_14  SUP11  1
    A11_14  HUB14  1
    A11_19  COST  11.2683597684
    A11_19  SUP11  1
    A11_19  HUB19  1
    A11_24  COST  11.8925216522
    A11_24  SUP11  1
    A11_24  HUB24  1
    A11_25  COST  13.3558460215
    A11_25  SUP11  1
    A11_25  HUB25  1
    A11_32  COST  13.3570567035
    A11_32  SUP11  1
    A11_32  HUB32  1
    A12_2  COST  10.2075959479
    A12_2  SUP12  1
    A12_2  HUB2  1
    A12_6  COST  9.64456028858
    A12_6  SUP12  1
    A12_6  HUB6  1
    A12_11  COST  7.41636204475
    A12_11  SUP12  1
    A12_11  HUB11  1
    A12_13  COST  1.21362051361
    A12_13  SUP12  1
    A12_13  HUB13  1
    A12_16  COST  7.82984643271
    A12_16  SUP12  1
    A12_16  HUB16  1
    A12_17  COST  12.1438143318
    A12_17  SUP12  1
    A12_17  HUB17  1
    A12_18  COST  9.14872922009
    A12_18  SUP12  1
    A12_18  HUB18  1
    A12_19  COST  11.6247026686
    A12_19  SUP12  1
    A12_19  HUB19  1
    A12_20  COST  1.76246712255
    A12_20  SUP12  1
    A12_20  HUB20  1
    A12_23  COST  11.4910130492
    A12_23  SUP12  1
    A12_23  HUB23  1
    A12_25  COST  9.42595083476
    A12_25  SUP12  1
    A12_25  HUB25  1
    A12_26  COST  10.3714779878
    A12_26  SUP12  1
    A12_26  HUB26  1
    A12_28  COST  4.58414850726
    A12_28  SUP12  1
    A12_28  HUB28  1
    A12_29  COST  9.10817407254
    A12_29  SUP12  1
    A12_29  HUB29  1
    A12_30  COST  6.33777966144
    A12_30  SUP12  1
    A12_30  HUB30  1
    A12_34  COST  4.21563116563
    A12_34  SUP12  1
    A12_34  HUB34  1
    A12_36  COST  12.1353721576
    A12_36  SUP12  1
    A12_36  HUB36  1
    A13_2  COST  1.09960613489
    A13_2  SUP13  1
    A13_2  HUB2  1
    A13_6  COST  9.14285881016
    A13_6  SUP13  1
    A13_6  HUB6  1
    A13_7  COST  3.50619989853
    A13_7  SUP13  1
    A13_7  HUB7  1
    A13_8  COST  4.58828139734
    A13_8  SUP13  1
    A13_8  HUB8  1
    A13_9  COST  1.07348324534
    A13_9  SUP13  1
    A13_9  HUB9  1
    A13_11  COST  3.09981297089
    A13_11  SUP13  1
    A13_11  HUB11  1
    A13_13  COST  9.86930811858
    A13_13  SUP13  1
    A13_13  HUB13  1
    A13_16  COST  13.5553240983
    A13_16  SUP13  1
    A13_16  HUB16  1
    A13_17  COST  7.89607998701
    A13_17  SUP13  1
    A13_17  HUB17  1
    A13_19  COST  1.241996976
    A13_19  SUP13  1
    A13_19  HUB19  1
    A13_22  COST  13.7474759733
    A13_22  SUP13  1
    A13_22  HUB22  1
    A13_26  COST  5.71361975648
    A13_26  SUP13  1
    A13_26  HUB26  1
    A13_29  COST  10.9977348194
    A13_29  SUP13  1
    A13_29  HUB29  1
    A13_32  COST  9.85403289946
    A13_32  SUP13  1
    A13_32  HUB32  1
    A13_38  COST  4.22656047851
    A13_38  SUP13  1
    A13_38  HUB38  1
    A13_39  COST  1.47443268879
    A13_39  SUP13  1
    A13_39  HUB39  1
    A14_0  COST  11.027962434
    A14_0  SUP14  1
    A14_0  HUB0  1
    A14_3  COST  10.4119092203
    A14_3  SUP14  1
    A14_3  HUB3  1
    A14_4  COST  10.4255078739
    A14_4  SUP14  1
    A14_4  HUB4  1
    A14_5  COST  5.17602200345
    A14_5  SUP14  1
    A14_5  HUB5  1
    A14_7  COST  9.93767887283
    A14_7  SUP14  1
    A14_7  HUB7  1
    A14_9  COST  12.7547237068
    A14_9  SUP14  1
    A14_9  HUB9  1
    A14_10  COST  3.25987075495
    A14_10  SUP14  1
    A14_10  HUB10  1
    A14_13  COST  11.1072471181
    A14_13  SUP14  1
    A14_13  HUB13  1
    A14_18  COST  11.5110081656
    A14_18  SUP14  1
    A14_18  HUB18  1
    A14_19  COST  6.30393965977
    A14_19  SUP14  1
    A14_19  HUB19  1
    A14_22  COST  5.65570869921
    A14_22  SUP14  1
    A14_22  HUB22  1
    A14_23  COST  13.2064765491
    A14_23  SUP14  1
    A14_23  HUB23  1
    A14_28  COST  6.59974546633
    A14_28  SUP14  1
    A14_28  HUB28  1
    A14_29  COST  2.26963511434
    A14_29  SUP14  1
    A14_29  HUB29  1
    A14_30  COST  6.35936837841
    A14_30  SUP14  1
    A14_30  HUB30  1
    A14_31  COST  3.69984258869
    A14_31  SUP14  1
    A14_31  HUB31  1
    A14_33  COST  2.24600513665
    A14_33  SUP14  1
    A14_33  HUB33  1
    A14_34  COST  9.70271349054
    A14_34  SUP14  1
    A14_34  HUB34  1
    A14_35  COST  11.6528241778
    A14_35  SUP14  1
    A14_35  HUB35  1
    A14_38  COST  6.25385542108
    A14_38  SUP14  1
    A14_38  HUB38  1
    A15_0  COST  4.02748101078
    A15_0  SUP15  1
    A15_0  HUB0  1
    A15_1  COST  5.15268369367
    A15_1  SUP15  1
    A15_1  HUB1  1
    A15_2  COST  11.0491988275
    A15_2  SUP15  1
    A15_2  HUB2  1
    A15_8  COST  5.10528995769
    A15_8  SUP15  1
    A15_8  HUB8  1
    A15_11  COST  13.3940260634
    A15_11  SUP15  1
    A15_11  HUB11  1
    A15_13  COST  9.7687281192
    A15_13  SUP15  1
    A15_13  HUB13  1
    A15_14  COST  9.14243495447
    A15_14  SUP15  1
    A15_14  HUB14  1
    A15_22  COST  12.3738423963
    A15_22  SUP15  1
    A15_22  HUB22  1
    A15_24  COST  4.32228842155
    A15_24  SUP15  1
    A15_24  HUB24  1
    A15_27  COST  13.7910162712
    A15_27  SUP15  1
    A15_27  HUB27  1
    A15_28  COST  8.79419860575
    A15_28  SUP15  1
    A15_28  HUB28  1
    A15_29  COST  2.96863424152
    A15_29  SUP15  1
    A15_29  HUB29  1
    A15_31  COST  10.1640210834
    A15_31  SUP15  1
    A15_31  HUB31  1
    A15_32  COST  11.8383228588
    A15_32  SUP15  1
    A15_32  HUB32  1
    A15_33  COST  2.59805975737
    A15_33  SUP15  1
    A15_33  HUB33  1
    A15_35  COST  13.5314579535
    A15_35  SUP15  1
    A15_35  HUB35  1
    A15_36  COST  13.2709705232
    A15_36  SUP15  1
    A15_36  HUB36  1
    A15_38  COST  7.64936217196
    A15_38  SUP15  1
    A15_38  HUB38  1
    A15_39  COST  6.4151026064
    A15_39  SUP15  1
    A15_39  HUB39  1
    A16_1  COST  9.22437393821
    A16_1  SUP16  1
    A16_1  HUB1  1
    A16_3  COST  1.67683003636
    A16_3  SUP16  1
    A16_3  HUB3  1
    A16_5  COST  2.29073926304
    A16_5  SUP16  1
    A16_5  HUB5  1
    A16_6  COST  11.2118433605
    A16_6  SUP16  1
    A16_6  HUB6  1
    A16_7  COST  11.1402314164
    A16_7  SUP16  1
    A16_7  HUB7  1
    A16_8  COST  3.56659678591
    A16_8  SUP16  1
    A16_8  HUB8  1
    A16_10  COST  9.43429812685
    A16_10  SUP16  1
    A16_10  HUB10  1
    A16_12  COST  12.5240485907
    A16_12  SUP16  1
    A16_12  HUB12  1
    A16_13  COST  2.43787740016
    A16_13  SUP16  1
    A16_13  HUB13  1
    A16_14  COST  2.19883069632
    A16_14  SUP16  1
    A16_14  HUB14  1
    A16_18  COST  12.9924713818
    A16_18  SUP16  1
    A16_18  HUB18  1
    A16_19  COST  2.16408551798
    A16_19  SUP16  1
    A16_19  HUB19  1
    A16_23  COST  6.16093644355
    A16_23  SUP16  1
    A16_23  HUB23  1
    A16_27  COST  5.7670732358
    A16_27  SUP16  1
    A16_27  HUB27  1
    A16_30  COST  1.17412184759
    A16_30  SUP16  1
    A16_30  HUB30  1
    A16_31  COST  9.98044354529
    A16_31  SUP16  1
    A16_31  HUB31  1
    A16_32  COST  12.4049921061
    A16_32  SUP16  1
    A16_32  HUB32  1
    A16_35  COST  4.57432344052
    A16_35  SUP16  1
    A16_35  HUB35  1
    A16_38  COST  13.7872280825
    A16_38  SUP16  1
    A16_38  HUB38  1
    A16_39  COST  8.36987636181
    A16_39  SUP16  1
    A16_39  HUB39  1
    A17_0  COST  9.85119978744
    A17_0  SUP17  1
    A17_0  HUB0  1
    A17_4  COST  10.9645584949
    A17_4  SUP17  1
    A17_4  HUB4  1
    A17_9  COST  7.22504937572
    A17_9  SUP17  1
    A17_9  HUB9  1
    A17_10  COST  1.5119371594
    A17_10  SUP17  1
    A17_10  HUB10  1
    A17_12  COST  13.8877531214
    A17_12  SUP17  1
    A17_12  HUB12  1
    A17_13  COST  2.3323730619
    A17_13  SUP17  1
    A17_13  HUB13  1
    A17_14  COST  8.95691338646
    A17_14  SUP17  1
    A17_14  HUB14  1
    A17_15  COST  2.22790537206
    A17_15  SUP17  1
    A17_15  HUB15  1
    A17_18  COST  1.5758198254
    A17_18  SUP17  1
    A17_18  HUB18  1
    A17_19  COST  9.21443760769
    A17_19  SUP17  1
    A17_19  HUB19  1
    A17_23  COST  6.40662544397
    A17_23  SUP17  1
    A17_23  HUB23  1
    A17_25  COST  3.33639072115
    A17_25  SUP17  1
    A17_25  HUB25  1
    A17_28  COST  4.54091887032
    A17_28  SUP17  1
    A17_28  HUB28  1
    A17_30  COST  11.828338722
    A17_30  SUP17  1
    A17_30  HUB30  1
    A17_31  COST  11.5251563394
    A17_31  SUP17  1
    A17_31  HUB31  1
    A17_34  COST  5.78389884059
    A17_34  SUP17  1
    A17_34  HUB34  1
    A18_1  COST  12.5704176156
    A18_1  SUP18  1
    A18_1  HUB1  1
    A18_3  COST  8.32460138178
    A18_3  SUP18  1
    A18_3  HUB3  1
    A18_4  COST  6.76179616538
    A18_4  SUP18  1
    A18_4  HUB4  1
    A18_5  COST  4.68442820572
    A18_5  SUP18  1
    A18_5  HUB5  1
    A18_6  COST  3.64497057325
    A18_6  SUP18  1
    A18_6  HUB6  1
    A18_7  COST  12.8481702815
    A18_7  SUP18  1
    A18_7  HUB7  1
    A18_8  COST  13.876216736
    A18_8  SUP18  1
    A18_8  HUB8  1
    A18_11  COST  4.01999630107
    A18_11  SUP18  1
    A18_11  HUB11  1
    A18_13  COST  4.04918792322
    A18_13  SUP18  1
    A18_13  HUB13  1
    A18_17  COST  7.51155068702
    A18_17  SUP18  1
    A18_17  HUB17  1
    A18_20  COST  8.21348753721
    A18_20  SUP18  1
    A18_20  HUB20  1
    A18_24  COST  5.86537124952
    A18_24  SUP18  1
    A18_24  HUB24  1
    A18_28  COST  6.25436777531
    A18_28  SUP18  1
    A18_28  HUB28  1
    A18_32  COST  8.0409216309
    A18_32  SUP18  1
    A18_32  HUB32  1
    A18_33  COST  7.13447011419
    A18_33  SUP18  1
    A18_33  HUB33  1
    A18_35  COST  10.2865604938
    A18_35  SUP18  1
    A18_35  HUB35  1
    A18_38  COST  13.0082085346
    A18_38  SUP18  1
    A18_38  HUB38  1
    A18_39  COST  4.77985217982
    A18_39  SUP18  1
    A18_39  HUB39  1
    A19_0  COST  11.103938649
    A19_0  SUP19  1
    A19_0  HUB0  1
    A19_2  COST  8.19573330034
    A19_2  SUP19  1
    A19_2  HUB2  1
    A19_4  COST  11.6587796745
    A19_4  SUP19  1
    A19_4  HUB4  1
    A19_8  COST  6.13772921421
    A19_8  SUP19  1
    A19_8  HUB8  1
    A19_9  COST  12.0664227089
    A19_9  SUP19  1
    A19_9  HUB9  1
    A19_11  COST  5.32067635172
    A19_11  SUP19  1
    A19_11  HUB11  1
    A19_13  COST  8.86855834619
    A19_13  SUP19  1
    A19_13  HUB13  1
    A19_14  COST  12.2525216412
    A19_14  SUP19  1
    A19_14  HUB14  1
    A19_18  COST  12.5186425209
    A19_18  SUP19  1
    A19_18  HUB18  1
    A19_19  COST  12.5689453323
    A19_19  SUP19  1
    A19_19  HUB19  1
    A19_21  COST  5.73819645255
    A19_21  SUP19  1
    A19_21  HUB21  1
    A19_23  COST  12.908945317
    A19_23  SUP19  1
    A19_23  HUB23  1
    A19_26  COST  4.2382853316
    A19_26  SUP19  1
    A19_26  HUB26  1
    A19_27  COST  2.68241017689
    A19_27  SUP19  1
    A19_27  HUB27  1
    A19_28  COST  11.3166149835
    A19_28  SUP19  1
    A19_28  HUB28  1
    A19_30  COST  6.36893199545
    A19_30  SUP19  1
    A19_30  HUB30  1
    A19_32  COST  10.657500484
    A19_32  SUP19  1
    A19_32  HUB32  1
    A19_33  COST  5.20383684425
    A19_33  SUP19  1
    A19_33  HUB33  1
    A19_35  COST  1.95813870529
    A19_35  SUP19  1
    A19_35  HUB35  1
    A20_0  COST  11.631805031
    A20_0  SUP20  1
    A20_0  HUB0  1
    A20_3  COST  12.9332660108
    A20_3  SUP20  1
    A20_3  HUB3  1
    A20_5  COST  2.95169835292
    A20_5  SUP20  1
    A20_5  HUB5  1
    A20_6  COST  13.4268985619
    A20_6  SUP20  1
    A20_6  HUB6  1
    A20_7  COST  8.43189985714
    A20_7  SUP20  1
    A20_7  HUB7  1
    A20_8  COST  10.5200493457
    A20_8  SUP20  1
    A20_8  HUB8  1
    A20_9  COST  13.4745978836
    A20_9  SUP20  1
    A20_9  HUB9  1
    A20_11  COST  4.05575812847
    A20_11  SUP20  1
    A20_11  HUB11  1
    A20_14  COST  8.90916959621
    A20_14  SUP20  1
    A20_14  HUB14  1
    A20_15  COST  8.15392685875
    A20_15  SUP20  1
    A20_15  HUB15  1
    A20_16  COST  4.92670896399
    A20_16  SUP20  1
    A20_16  HUB16  1
    A20_17  COST  12.6677529309
    A20_17  SUP20  1
    A20_17  HUB17  1
    A20_20  COST  6.0915670033
    A20_20  SUP20  1
    A20_20  HUB20  1
    A20_22  COST  4.9977744587
    A20_22  SUP20  1
    A20_22  HUB22  1
    A20_25  COST  11.1846811356
    A20_25  SUP20  1
    A20_25  HUB25  1
    A20_29  COST  7.86588097066
    A20_29  SUP20  1
    A20_29  HUB29  1
    A20_33  COST  11.0566794803
    A20_33  SUP20  1
    A20_33  HUB33  1
    A20_35  COST  1.85855369703
    A20_35  SUP20  1
    A20_35  HUB35  1
    A21_1  COST  5.66823234706
    A21_1  SUP21  1
    A21_1  HUB1  1
    A21_2  COST  4.50979925945
    A21_2  SUP21  1
    A21_2  HUB2  1
    A21_4  COST  6.50126315527
    A21_4  SUP21  1
    A21_4  HUB4  1
    A21_5  COST  10.8367253602
    A21_5  SUP21  1
    A21_5  HUB5  1
    A21_7  COST  11.685592572
    A21_7  SUP21  1
    A21_7  HUB7  1
    A21_9  COST  13.9545844605
    A21_9  SUP21  1
    A21_9  HUB9  1
    A21_14  COST  5.60172965195
    A21_14  SUP21  1
    A21_14  HUB14  1
    A21_17  COST  12.2481950811
    A21_17  SUP21  1
    A21_17  HUB17  1
    A21_19  COST  13.772452223
    A21_19  SUP21  1
    A21_19  HUB19  1
    A21_20  COST  7.96181522018
    A21_20  SUP21  1
    A21_20  HUB20  1
    A21_21  COST  7.19507134772
    A21_21  SUP21  1
    A21_21  HUB21  1
    A21_22  COST  10.2587582985
    A21_22  SUP21  1
    A21_22  HUB22  1
    A21_24  COST  2.46721794359
    A21_24  SUP21  1
    A21_24  HUB24  1
    A21_25  COST  11.1060091478
    A21_25  SUP21  1
    A21_25  HUB25  1
    A21_28  COST  7.7704052528
    A21_28  SUP21  1
    A21_28  HUB28  1
    A21_29  COST  5.67589109916
    A21_29  SUP21  1
    A21_29  HUB29  1
    A21_33  COST  8.79706636495
    A21_33  SUP21  1
    A21_33  HUB33  1
    A21_35  COST  10.5199024163
    A21_35  SUP21  1
    A21_35  HUB35  1
    A21_39  COST  7.03939567092
    A21_39  SUP21  1
    A21_39  HUB39  1
    A22_3  COST  6.83187805491
    A22_3  SUP22  1
    A22_3  HUB3  1
    A22_4  COST  2.52002951765
    A22_4  SUP22  1
    A22_4  HUB4  1
    A22_5  COST  3.76637722496
    A22_5  SUP22  1
    A22_5  HUB5  1
    A22_6  COST  8.53503808285
    A22_6  SUP22  1
    A22_6  HUB6  1
    A22_10  COST  12.4570019266
    A22_10  SUP22  1
    A22_10  HUB10  1
    A22_12  COST  2.6427874636
    A22_12  SUP22  1
    A22_12  HUB12  1
    A22_17  COST  8.82334986882
    A22_17  SUP22  1
    A22_17  HUB17  1
    A22_18  COST  4.04449279972
    A22_18  SUP22  1
    A22_18  HUB18  1
    A22_19  COST  13.0855235102
    A22_19  SUP22  1
    A22_19  HUB19  1
    A22_20  COST  7.41017461468
    A22_20  SUP22  1
    A22_20  HUB20  1
    A22_21  COST  5.26179247618
    A22_21  SUP22  1
    A22_21  HUB21  1
    A22_25  COST  1.97248360574
    A22_25  SUP22  1
    A22_25  HUB25  1
    A22_26  COST  12.7894863238
    A22_26  SUP22  1
    A22_26  HUB26  1
    A22_27  COST  7.67204949333
    A22_27  SUP22  1
    A22_27  HUB27  1
    A22_28  COST  3.02102940347
    A22_28  SUP22  1
    A22_28  HUB28  1
    A22_29  COST  2.38271039597
    A22_29  SUP22  1
    A22_29  HUB29  1
    A22_33  COST  5.59358181515
    A22_33  SUP22  1
    A22_33  HUB33  1
    A22_35  COST  4.06587705798
    A22_35  SUP22  1
    A22_35  HUB35  1
    A22_36  COST  4.67212156972
    A22_36  SUP22  1
    A22_36  HUB36  1
    A22_37  COST  8.13048083829
    A22_37  SUP22  1
    A22_37  HUB37  1
    A22_39  COST  5.25006939111
    A22_39  SUP22  1
    A22_39  HUB39  1
    A23_3  COST  1.3873362874
    A23_3  SUP23  1
    A23_3  HUB3  1
    A23_5  COST  2.40574807626
    A23_5  SUP23  1
    A23_5  HUB5  1
    A23_7  COST  2.25354600818
    A23_7  SUP23  1
    A23_7  HUB7  1
    A23_8  COST  5.26725711961
    A23_8  SUP23  1
    A23_8  HUB8  1
    A23_9  COST  7.24300486499
    A23_9  SUP23  1
    A23_9  HUB9  1
    A23_12  COST  8.11005086243
    A23_12  SUP23  1
    A23_12  HUB12  1
    A23_14  COST  5.15374279507
    A23_14  SUP23  1
    A23_14  HUB14  1
    A23_22  COST  11.2403212761
    A23_22  SUP23  1
    A23_22  HUB22  1
    A23_24  COST  4.11346842474
    A23_24  SUP23  1
    A23_24  HUB24  1
    A23_26  COST  5.92423583702
    A23_26  SUP23  1
    A23_26  HUB26  1
    A23_28  COST  1.49250883457
    A23_28  SUP23  1
    A23_28  HUB28  1
    A23_32  COST  7.89720861274
    A23_32  SUP23  1
    A23_32  HUB32  1
    A23_33  COST  1.60200363771
    A23_33  SUP23  1
    A23_33  HUB33  1
    A23_39  COST  10.6912395567
    A23_39  SUP23  1
    A23_39  HUB39  1
    A24_5  COST  4.45813024257
    A24_5  SUP24  1
    A24_5  HUB5  1
    A24_12  COST  4.35536480809
    A24_12  SUP24  1
    A24_12  HUB12  1
    A24_14  COST  6.4635112016
    A24_14  SUP24  1
    A24_14  HUB14  1
    A24_16  COST  3.25962273422
    A24_16  SUP24  1
    A24_16  HUB16  1
    A24_20  COST  11.9528019887
    A24_20  SUP24  1
    A24_20  HUB20  1
    A24_21  COST  8.72268262515
    A24_21  SUP24  1
    A24_21  HUB21  1
    A24_24  COST  11.0875372167
    A24_24  SUP24  1
    A24_24  HUB24  1
    A24_26  COST  9.05983262744
    A24_26  SUP24  1
    A24_26  HUB26  1
    A24_33  COST  3.18290826462
    A24_33  SUP24  1
    A24_33  HUB33  1
    A24_36  COST  7.72670059981
    A24_36  SUP24  1
    A24_36  HUB36  1
    A24_37  COST  5.71975417802
    A24_37  SUP24  1
    A24_37  HUB37  1
    A25_1  COST  6.65152777627
    A25_1  SUP25  1
    A25_1  HUB1  1
    A25_2  COST  2.23154893935
    A25_2  SUP25  1
    A25_2  HUB2  1
    A25_4  COST  11.8151062127
    A25_4  SUP25  1
    A25_4  HUB4  1
    A25_5  COST  1.5004051424
    A25_5  SUP25  1
    A25_5  HUB5  1
    A25_11  COST  9.13118499105
    A25_11  SUP25  1
    A25_11  HUB11  1
    A25_13  COST  3.01608808483
    A25_13  SUP25  1
    A25_13  HUB13  1
    A25_14  COST  7.5664846563
    A25_14  SUP25  1
    A25_14  HUB14  1
    A25_16  COST  10.1931493424
    A25_16  SUP25  1
    A25_16  HUB16  1
    A25_17  COST  10.0163415826
    A25_17  SUP25  1
    A25_17  HUB17  1
    A25_18  COST  7.45728069078
    A25_18  SUP25  1
    A25_18  HUB18  1
    A25_19  COST  10.2832525359
    A25_19  SUP25  1
    A25_19  HUB19  1
    A25_20  COST  7.56052831621
    A25_20  SUP25  1
    A25_20  HUB20  1
    A25_22  COST  1.8197123036
    A25_22  SUP25  1
    A25_22  HUB22  1
    A25_25  COST  7.60428990562
    A25_25  SUP25  1
    A25_25  HUB25  1
    A25_28  COST  12.5725032815
    A25_28  SUP25  1
    A25_28  HUB28  1
    A25_31  COST  13.4877809385
    A25_31  SUP25  1
    A25_31  HUB31  1
    A25_32  COST  1.4258980558
    A25_32  SUP25  1
    A25_32  HUB32  1
    A25_35  COST  6.71382905692
    A25_35  SUP25  1
    A25_35  HUB35  1
    A26_1  COST  7.88528358771
    A26_1  SUP26  1
    A26_1  HUB1  1
    A26_9  COST  9.92325605194
    A26_9  SUP26  1
    A26_9  HUB9  1
    A26_10  COST  1.47853466902
    A26_10  SUP26  1
    A26_10  HUB10  1
    A26_14  COST  10.9617129413
    A26_14  SUP26  1
    A26_14  HUB14  1
    A26_15  COST  8.89724262832
    A26_15  SUP26  1
    A26_15  HUB15  1
    A26_16  COST  4.68125282985
    A26_16  SUP26  1
    A26_16  HUB16  1
    A26_18  COST  11.0024317801
    A26_18  SUP26  1
    A26_18  HUB18  1
    A26_20  COST  4.2799050761
    A26_20  SUP26  1
    A26_20  HUB20  1
    A26_22  COST  5.63696893757
    A26_22  SUP26  1
    A26_22  HUB22  1
    A26_25  COST  1.18730367558
    A26_25  SUP26  1
    A26_25  HUB25  1
    A26_28  COST  4.11417606802
    A26_28  SUP26  1
    A26_28  HUB28  1
    A26_29  COST  13.0789452493
    A26_29  SUP26  1
    A26_29  HUB29  1
    A26_30  COST  13.0974772303
    A26_30  SUP26  1
    A26_30  HUB30  1
    A26_31  COST  1.14813606592
    A26_31  SUP26  1
    A26_31  HUB31  1
    A26_32  COST  6.25611833388
    A26_32  SUP26  1
    A26_32  HUB32  1
    A26_34  COST  12.1068813735
    A26_34  SUP26  1
    A26_34  HUB34  1
    A26_35  COST  13.1643732958
    A26_35  SUP26  1
    A26_35  HUB35  1
    A26_36  COST  7.59585775987
    A26_36  SUP26  1
    A26_36  HUB36  1
    A26_38  COST  1.79777290458
    A26_38  SUP26  1
    A26_38  HUB38  1
    A27_0  COST  6.71193629325
    A27_0  SUP27  1
    A27_0  HUB0  1
    A27_6  COST  12.9793837119
    A27_6  SUP27  1
    A27_6  HUB6  1
    A27_7  COST  13.5049018425
    A27_7  SUP27  1
    A27_7  HUB7  1
    A27_9  COST  10.5996446966
    A27_9  SUP27  1
    A27_9  HUB9  1
    A27_14  COST  8.00894388891
    A27_14  SUP27  1
    A27_14  HUB14  1
    A27_16  COST  2.34200743246
    A27_16  SUP27  1
    A27_16  HUB16  1
    A27_19  COST  9.76115069139
    A27_19  SUP27  1
    A27_19  HUB19  1
    A27_21  COST  9.65645051412
    A27_21  SUP27  1
    A27_21  HUB21  1
    A27_27  COST  12.4928411729
    A27_27  SUP27  1
    A27_27  HUB27  1
    A27_29  COST  11.6746904833
    A27_29  SUP27  1
    A27_29  HUB29  1
    A27_30  COST  6.7241228353
    A27_30  SUP27  1
    A27_30  HUB30  1
    A27_31  COST  13.3734587906
    A27_31  SUP27  1
    A27_31  HUB31  1
    A27_32  COST  3.08297925337
    A27_32  SUP27  1
    A27_32  HUB32  1
    A27_35  COST  3.88331815293
    A27_35  SUP27  1
    A27_35  HUB35  1
    A27_38  COST  9.81842073363
    A27_38  SUP27  1
    A27_38  HUB38  1
    A27_39  COST  8.28552871981
    A27_39  SUP27  1
    A27_39  HUB39  1
    A28_0  COST  5.63664057189
    A28_0  SUP28  1
    A28_0  HUB0  1
    A28_3  COST  9.5203914286
    A28_3  SUP28  1
    A28_3  HUB3  1
    A28_6  COST  10.666129638
    A28_6  SUP28  1
    A28_6  HUB6  1
    A28_7  COST  3.57228220351
    A28_7  SUP28  1
    A28_7  HUB7  1
    A28_9  COST  11.3490687049
    A28_9  SUP28  1
    A28_9  HUB9  1
    A28_13  COST  11.4058432711
    A28_13  SUP28  1
    A28_13  HUB13  1
    A28_15  COST  4.45263361632
    A28_15  SUP28  1
    A28_15  HUB15  1
    A28_16  COST  12.4452475312
    A28_16  SUP28  1
    A28_16  HUB16  1
    A28_17  COST  6.41515685401
    A28_17  SUP28  1
    A28_17  HUB17  1
    A28_18  COST  13.9511445812
    A28_18  SUP28  1
    A28_18  HUB18  1
    A28_21  COST  2.07823038351
    A28_21  SUP28  1
    A28_21  HUB21  1
    A28_23  COST  1.15503088963
    A28_23  SUP28  1
    A28_23  HUB23  1
    A28_25  COST  4.40852440851
    A28_25  SUP28  1
    A28_25  HUB25  1
    A28_26  COST  6.54160242241
    A28_26  SUP28  1
    A28_26  HUB26  1
    A28_27  COST  7.08157877137
    A28_27  SUP28  1
    A28_27  HUB27  1
    A28_28  COST  9.65711229413
    A28_28  SUP28  1
    A28_28  HUB28  1
    A28_30  COST  3.94340009587
    A28_30  SUP28  1
    A28_30  HUB30  1
    A28_32  COST  11.1768140834
    A28_32  SUP28  1
    A28_32  HUB32  1
    A28_33  COST  5.08550855523
    A28_33  SUP28  1
    A28_33  HUB33  1
    A28_34  COST  5.52751963484
    A28_34  SUP28  1
    A28_34  HUB34  1
    A28_35  COST  8.0441306886
    A28_35  SUP28  1
    A28_35  HUB35  1
    A29_1  COST  11.1089611813
    A29_1  SUP29  1
    A29_1  HUB1  1
    A29_2  COST  5.57235150897
    A29_2  SUP29  1
    A29_2  HUB2  1
    A29_4  COST  12.7762506313
    A29_4  SUP29  1
    A29_4  HUB4  1
    A29_8  COST  10.311247535
    A29_8  SUP29  1
    A29_8  HUB8  1
    A29_10  COST  13.9516912114
    A29_10  SUP29  1
    A29_10  HUB10  1
    A29_12  COST  9.79093174629
    A29_12  SUP29  1
    A29_12  HUB12  1
    A29_13  COST  7.52163301082
    A29_13  SUP29  1
    A29_13  HUB13  1
    A29_14  COST  11.4832459803
    A29_14  SUP29  1
    A29_14  HUB14  1
    A29_16  COST  4.49133204697
    A29_16  SUP29  1
    A29_16  HUB16  1
    A29_17  COST  4.08298880614
    A29_17  SUP29  1
    A29_17  HUB17  1
    A29_20  COST  10.4390212749
    A29_20  SUP29  1
    A29_20  HUB20  1
    A29_21  COST  5.38380679445
    A29_21  SUP29  1
    A29_21  HUB21  1
    A29_22  COST  4.15584480777
    A29_22  SUP29  1
    A29_22  HUB22  1
    A29_23  COST  5.00220146964
    A29_23  SUP29  1
    A29_23  HUB23  1
    A29_24  COST  7.19755293934
    A29_24  SUP29  1
    A29_24  HUB24  1
    A29_28  COST  2.63429050488
    A29_28  SUP29  1
    A29_28  HUB28  1
    A29_29  COST  13.288895956
    A29_29  SUP29  1
    A29_29  HUB29  1
    A29_30  COST  12.948262087
    A29_30  SUP29  1
    A29_30  HUB30  1
    A29_31  COST  12.6270472233
    A29_31  SUP29  1
    A29_31  HUB31  1
    A29_32  COST  10.0218307228
    A29_32  SUP29  1
    A29_32  HUB32  1
    A29_36  COST  8.32547519635
    A29_36  SUP29  1
    A29_36  HUB36  1
    A29_38  COST  4.40506907392
    A29_38  SUP29  1
    A29_38  HUB38  1
    A29_39  COST  7.38467165383
    A29_39  SUP29  1
    A29_39  HUB39  1
    A30_0  COST  5.78526243787
    A30_0  SUP30  1
    A30_0  HUB0  1
    A30_1  COST  13.4095263446
    A30_1  SUP30  1
    A30_1  HUB1  1
    A30_3  COST  2.45801112262
    A30_3  SUP30  1
    A30_3  HUB3  1
    A30_5  COST  3.2343960431
    A30_5  SUP30  1
    A30_5  HUB5  1
    A30_7  COST  1.58350640271
    A30_7  SUP30  1
    A30_7  HUB7  1
    A30_13  COST  3.32658635447
    A30_13  SUP30  1
    A30_13  HUB13  1
    A30_14  COST  5.91909023674
    A30_14  SUP30  1
    A30_14  HUB14  1
    A30_18  COST  1.09518682449
    A30_18  SUP30  1
    A30_18  HUB18  1
    A30_19  COST  4.40952911375
    A30_19  SUP30  1
    A30_19  HUB19  1
    A30_20  COST  1.37049513947
    A30_20  SUP30  1
    A30_20  HUB20  1
    A30_21  COST  11.8282631546
    A30_21  SUP30  1
    A30_21  HUB21  1
    A30_23  COST  6.02314967033
    A30_23  SUP30  1
    A30_23  HUB23  1
    A30_24  COST  8.48507235611
    A30_24  SUP30  1
    A30_24  HUB24  1
    A30_25  COST  4.62578415279
    A30_25  SUP30  1
    A30_25  HUB25  1
    A30_27  COST  11.9471880269
    A30_27  SUP30  1
    A30_27  HUB27  1
    A30_28  COST  5.17530691738
    A30_28  SUP30  1
    A30_28  HUB28  1
    A30_29  COST  4.40937834853
    A30_29  SUP30  1
    A30_29  HUB29  1
    A30_31  COST  1.44052332391
    A30_31  SUP30  1
    A30_31  HUB31  1
    A30_32  COST  11.3638899608
    A30_32  SUP30  1
    A30_32  HUB32  1
    A30_35  COST  11.4315728959
    A30_35  SUP30  1
    A30_35  HUB35  1
    A30_36  COST  6.76139189536
    A30_36  SUP30  1
    A30_36  HUB36  1
    A30_37  COST  6.01173739172
    A30_37  SUP30  1
    A30_37  HUB37  1
    A30_38  COST  13.3627053521
    A30_38  SUP30  1
    A30_38  HUB38  1
    A30_39  COST  9.7924256645
    A30_39  SUP30  1
    A30_39  HUB39  1
    A31_0  COST  9.00309812918
    A31_0  SUP31  1
    A31_0  HUB0  1
    A31_2  COST  10.377669594
    A31_2  SUP31  1
    A31_2  HUB2  1
    A31_5  COST  11.1186336488
    A31_5  SUP31  1
    A31_5  HUB5  1
    A31_8  COST  8.79936202003
    A31_8  SUP31  1
    A31_8  HUB8  1
    A31_9  COST  8.35268932462
    A31_9  SUP31  1
    A31_9  HUB9  1
    A31_11  COST  6.9536438928
    A31_11  SUP31  1
    A31_11  HUB11  1
    A31_14  COST  1.98664107811
    A31_14  SUP31  1
    A31_14  HUB14  1
    A31_17  COST  3.42673484549
    A31_17  SUP31  1
    A31_17  HUB17  1
    A31_19  COST  3.51437157891
    A31_19  SUP31  1
    A31_19  HUB19  1
    A31_22  COST  4.0737665809
    A31_22  SUP31  1
    A31_22  HUB22  1
    A31_24  COST  7.80811690955
    A31_24  SUP31  1
    A31_24  HUB24  1
    A31_25  COST  13.7308149313
    A31_25  SUP31  1
    A31_25  HUB25  1
    A31_27  COST  3.9613895087
    A31_27  SUP31  1
    A31_27  HUB27  1
    A31_31  COST  12.5234920838
    A31_31  SUP31  1
    A31_31  HUB31  1
    A31_32  COST  1.43048587985
    A31_32  SUP31  1
    A31_32  HUB32  1
    A31_33  COST  3.66638044623
    A31_33  SUP31  1
    A31_33  HUB33  1
    A31_35  COST  13.1272875583
    A31_35  SUP31  1
    A31_35  HUB35  1
    A31_36  COST  11.3101070111
    A31_36  SUP31  1
    A31_36  HUB36  1
    A31_37  COST  6.21790364409
    A31_37  SUP31  1
    A31_37  HUB37  1
    A32_0  COST  13.8664140629
    A32_0  SUP32  1
    A32_0  HUB0  1
    A32_4  COST  11.2743201975
    A32_4  SUP32  1
    A32_4  HUB4  1
    A32_5  COST  9.89032276252
    A32_5  SUP32  1
    A32_5  HUB5  1
    A32_6  COST  9.74639880702
    A32_6  SUP32  1
    A32_6  HUB6  1
    A32_10  COST  10.1931481768
    A32_10  SUP32  1
    A32_10  HUB10  1
    A32_13  COST  12.0624136585
    A32_13  SUP32  1
    A32_13  HUB13  1
    A32_18  COST  4.34484185728
    A32_18  SUP32  1
    A32_18  HUB18  1
    A32_24  COST  13.3046571891
    A32_24  SUP32  1
    A32_24  HUB24  1
    A32_25  COST  4.21764681472
    A32_25  SUP32  1
    A32_25  HUB25  1
    A32_30  COST  4.74206562437
    A32_30  SUP32  1
    A32_30  HUB30  1
    A32_33  COST  5.12072941258
    A32_33  SUP32  1
    A32_33  HUB33  1
    A32_34  COST  5.00762993188
    A32_34  SUP32  1
    A32_34  HUB34  1
    A32_36  COST  7.57409015068
    A32_36  SUP32  1
    A32_36  HUB36  1
    A33_0  COST  5.05893531173
    A33_0  SUP33  1
    A33_0  HUB0  1
    A33_4  COST  5.71045243384
    A33_4  SUP33  1
    A33_4  HUB4  1
    A33_5  COST  6.64983375954
    A33_5  SUP33  1
    A33_5  HUB5  1
    A33_7  COST  9.82236914811
    A33_7  SUP33  1
    A33_7  HUB7  1
    A33_9  COST  6.60600636709
    A33_9  SUP33  1
    A33_9  HUB9  1
    A33_12  COST  7.46757166399
    A33_12  SUP33  1
    A33_12  HUB12  1
    A33_14  COST  4.54635676086
    A33_14  SUP33  1
    A33_14  HUB14  1
    A33_20  COST  12.7888692751
    A33_20  SUP33  1
    A33_20  HUB20  1
    A33_21  COST  13.0718290271
    A33_21  SUP33  1
    A33_21  HUB21  1
    A33_27  COST  13.2482018973
    A33_27  SUP33  1
    A33_27  HUB27  1
    A33_29  COST  9.0310873503
    A33_29  SUP33  1
    A33_29  HUB29  1
    A33_35  COST  7.54182289155
    A33_35  SUP33  1
    A33_35  HUB35  1
    A33_36  COST  11.9957695056
    A33_36  SUP33  1
    A33_36  HUB36  1
    A34_0  COST  10.2872200094
    A34_0  SUP34  1
    A34_0  HUB0  1
    A34_4  COST  5.70995517241
    A34_4  SUP34  1
    A34_4  HUB4  1
    A34_6  COST  7.74848105393
    A34_6  SUP34  1
    A34_6  HUB6  1
    A34_8  COST  12.8906085498
    A34_8  SUP34  1
    A34_8  HUB8  1
    A34_10  COST  9.12594914521
    A34_10  SUP34  1
    A34_10  HUB10  1
    A34_12  COST  12.5861488015
    A34_12  SUP34  1
    A34_12  HUB12  1
    A34_14  COST  13.6879066412
    A34_14  SUP34  1
    A34_14  HUB14  1
    A34_16  COST  9.76927904729
    A34_16  SUP34  1
    A34_16  HUB16  1
    A34_18  COST  12.042047464
    A34_18  SUP34  1
    A34_18  HUB18  1
    A34_19  COST  8.03485906999
    A34_19  SUP34  1
    A34_19  HUB19  1
    A34_22  COST  7.48482759099
    A34_22  SUP34  1
    A34_22  HUB22  1
    A34_29  COST  4.35646661532
    A34_29  SUP34  1
    A34_29  HUB29  1
    A34_33  COST  4.79912239725
    A34_33  SUP34  1
    A34_33  HUB33  1
    A34_34  COST  2.54131495507
    A34_34  SUP34  1
    A34_34  HUB34  1
    A34_36  COST  12.4651607372
    A34_36  SUP34  1
    A34_36  HUB36  1
    A34_38  COST  8.74471968373
    A34_38  SUP34  1
    A34_38  HUB38  1
    A35_0  COST  4.85976738516
    A35_0  SUP35  1
    A35_0  HUB0  1
    A35_3  COST  7.95837091126
    A35_3  SUP35  1
    A35_3  HUB3  1
    A35_4  COST  9.87085849523
    A35_4  SUP35  1
    A35_4  HUB4  1
    A35_6  COST  7.80951217177
    A35_6  SUP35  1
    A35_6  HUB6  1
    A35_8  COST  12.471445386
    A35_8  SUP35  1
    A35_8  HUB8  1
    A35_9  COST  9.8411324247
    A35_9  SUP35  1
    A35_9  HUB9  1
    A35_17  COST  12.2593842252
    A35_17  SUP35  1
    A35_17  HUB17  1
    A35_18  COST  2.69273114166
    A35_18  SUP35  1
    A35_18  HUB18  1
    A35_19  COST  9.76628559561
    A35_19  SUP35  1
    A35_19  HUB19  1
    A35_21  COST  12.54422378
    A35_21  SUP35  1
    A35_21  HUB21  1
    A35_22  COST  7.76437862605
    A35_22  SUP35  1
    A35_22  HUB22  1
    A35_29  COST  1.32039706817
    A35_29  SUP35  1
    A35_29  HUB29  1
    A35_31  COST  2.93483391805
    A35_31  SUP35  1
    A35_31  HUB31  1
    A35_32  COST  1.90020148189
    A35_32  SUP35  1
    A35_32  HUB32  1
    A35_33  COST  3.14150501174
    A35_33  SUP35  1
    A35_33  HUB33  1
    A35_35  COST  13.6912915191
    A35_35  SUP35  1
    A35_35  HUB35  1
    A35_36  COST  1.11556191313
    A35_36  SUP35  1
    A35_36  HUB36  1
    A35_38  COST  5.15040020016
    A35_38  SUP35  1
    A35_38  HUB38  1
    A36_1  COST  4.65723643692
    A36_1  SUP36  1
    A36_1  HUB1  1
    A36_2  COST  3.01246361706
    A36_2  SUP36  1
    A36_2  HUB2  1
    A36_3  COST  1.42900261624
    A36_3  SUP36  1
    A36_3  HUB3  1
    A36_4  COST  2.15862297544
    A36_4  SUP36  1
    A36_4  HUB4  1
    A36_7  COST  2.78986794687
    A36_7  SUP36  1
    A36_7  HUB7  1
    A36_8  COST  6.12717367303
    A36_8  SUP36  1
    A36_8  HUB8  1
    A36_10  COST  12.312233242
    A36_10  SUP36  1
    A36_10  HUB10  1
    A36_11  COST  9.21306531806
    A36_11  SUP36  1
    A36_11  HUB11  1
    A36_13  COST  4.80249167881
    A36_13  SUP36  1
    A36_13  HUB13  1
    A36_15  COST  2.60978358897
    A36_15  SUP36  1
    A36_15  HUB15  1
    A36_17  COST  6.45246946749
    A36_17  SUP36  1
    A36_17  HUB17  1
    A36_20  COST  11.9428100644
    A36_20  SUP36  1
    A36_20  HUB20  1
    A36_21  COST  5.45752592424
    A36_21  SUP36  1
    A36_21  HUB21  1
    A36_23  COST  2.21203701485
    A36_23  SUP36  1
    A36_23  HUB23  1
    A36_26  COST  6.76496254678
    A36_26  SUP36  1
    A36_26  HUB26  1
    A36_29  COST  8.10006660141
    A36_29  SUP36  1
    A36_29  HUB29  1
    A36_32  COST  1.80645450378
    A36_32  SUP36  1
    A36_32  HUB32  1
    A36_35  COST  7.27933741227
    A36_35  SUP36  1
    A36_35  HUB35  1
    A36_37  COST  5.19241291836
    A36_37  SUP36  1
    A36_37  HUB37  1
    A37_3  COST  12.788380618
    A37_3  SUP37  1
    A37_3  HUB3  1
    A37_7  COST  3.63124548713
    A37_7  SUP37  1
    A37_7  HUB7  1
    A37_9  COST  13.5812292818
    A37_9  SUP37  1
    A37_9  HUB9  1
    A37_10  COST  3.23684944684
    A37_10  SUP37  1
    A37_10  HUB10  1
    A37_11  COST  8.11696840767
    A37_11  SUP37  1
    A37_11  HUB11  1
    A37_12  COST  6.66582558159
    A37_12  SUP37  1
    A37_12  HUB12  1
    A37_13  COST  8.3012818939
    A37_13  SUP37  1
    A37_13  HUB13  1
    A37_16  COST  4.0701756479
    A37_16  SUP37  1
    A37_16  HUB16  1
    A37_17  COST  5.61832650519
    A37_17  SUP37  1
    A37_17  HUB17  1
    A37_18  COST  1.75564125796
    A37_18  SUP37  1
    A37_18  HUB18  1
    A37_21  COST  4.73963765743
    A37_21  SUP37  1
    A37_21  HUB21  1
    A37_24  COST  6.7840606369
    A37_24  SUP37  1
    A37_24  HUB24  1
    A37_27  COST  12.1008246411
    A37_27  SUP37  1
    A37_27  HUB27  1
    A37_29  COST  7.41827956205
    A37_29  SUP37  1
    A37_29  HUB29  1
    A37_30  COST  12.5844781477
    A37_30  SUP37  1
    A37_30  HUB30  1
    A37_31  COST  6.8167294736
    A37_31  SUP37  1
    A37_31  HUB31  1
    A37_32  COST  10.9917406626
    A37_32  SUP37  1
    A37_32  HUB32  1
    A37_33  COST  11.5378614985
    A37_33  SUP37  1
    A37_33  HUB33  1
    A37_35  COST  13.5035395758
    A37_35  SUP37  1
    A37_35  HUB35  1
    A37_38  COST  2.74419586557
    A37_38  SUP37  1
    A37_38  HUB38  1
    A37_39  COST  12.7217039826
    A37_39  SUP37  1
    A37_39  HUB39  1
    A38_0  COST  8.44942607727
    A38_0  SUP38  1
    A38_0  HUB0  1
    A38_1  COST  11.9209810157
    A38_1  SUP38  1
    A38_1  HUB1  1
    A38_6  COST  7.9425788982
    A38_6  SUP38  1
    A38_6  HUB6  1
    A38_10  COST  4.73950254489
    A38_10  SUP38  1
    A38_10  HUB10  1
    A38_14  COST  5.44373438399
    A38_14  SUP38  1
    A38_14  HUB14  1
    A38_15  COST  11.1735766926
    A38_15  SUP38  1
    A38_15  HUB15  1
    A38_18  COST  8.20163373636
    A38_18  SUP38  1
    A38_18  HUB18  1
    A38_19  COST  3.54569491993
    A38_19  SUP38  1
    A38_19  HUB19  1
    A38_20  COST  3.14405418793
    A38_20  SUP38  1
    A38_20  HUB20  1
    A38_21  COST  7.15784223116
    A38_21  SUP38  1
    A38_21  HUB21  1
    A38_22  COST  12.6657563207
    A38_22  SUP38  1
    A38_22  HUB22  1
    A38_26  COST  8.02127665739
    A38_26  SUP38  1
    A38_26  HUB26  1
    A38_27  COST  2.71604157838
    A38_27  SUP38  1
    A38_27  HUB27  1
    A38_28  COST  5.89163296313
    A38_28  SUP38  1
    A38_28  HUB28  1
    A38_30  COST  1.12989582208
    A38_30  SUP38  1
    A38_30  HUB30  1
    A38_34  COST  1.98219279207
    A38_34  SUP38  1
    A38_34  HUB34  1
    A38_37  COST  12.0080320202
    A38_37  SUP38  1
    A38_37  HUB37  1
    A39_3  COST  3.43041716757
    A39_3  SUP39  1
    A39_3  HUB3  1
    A39_5  COST  9.51743873163
    A39_5  SUP39  1
    A39_5  HUB5  1
    A39_8  COST  9.97746246727
    A39_8  SUP39  1
    A39_8  HUB8  1
    A39_13  COST  10.5843031403
    A39_13  SUP39  1
    A39_13  HUB13  1
    A39_14  COST  8.73673982709
    A39_14  SUP39  1
    A39_14  HUB14  1
    A39_16  COST  7.59244348873
    A39_16  SUP39  1
    A39_16  HUB16  1
    A39_18  COST  6.29258802682
    A39_18  SUP39  1
    A39_18  HUB18  1
    A39_19  COST  3.33231883556
    A39_19  SUP39  1
    A39_19  HUB19  1
    A39_20  COST  5.71618369632
    A39_20  SUP39  1
    A39_20  HUB20  1
    A39_21  COST  6.49152678792
    A39_21  SUP39  1
    A39_21  HUB21  1
    A39_24  COST  5.22030720526
    A39_24  SUP39  1
    A39_24  HUB24  1
    A39_25  COST  9.00416663608
    A39_25  SUP39  1
    A39_25  HUB25  1
    A39_26  COST  4.74136741078
    A39_26  SUP39  1
    A39_26  HUB26  1
    A39_31  COST  3.51118146218
    A39_31  SUP39  1
    A39_31  HUB31  1
    A39_33  COST  4.11304907842
    A39_33  SUP39  1
    A39_33  HUB33  1
    A39_35  COST  6.5248365125
    A39_35  SUP39  1
    A39_35  HUB35  1
    A39_36  COST  1.27257724519
    A39_36  SUP39  1
    A39_36  HUB36  1
    A39_38  COST  12.3735679696
    A39_38  SUP39  1
    A39_38  HUB38  1
    A40_0  COST  4.35382906773
    A40_0  SUP40  1
    A40_0  HUB0  1
    A40_2  COST  7.32329799278
    A40_2  SUP40  1
    A40_2  HUB2  1
    A40_3  COST  9.93907392839
    A40_3  SUP40  1
    A40_3  HUB3  1
    A40_5  COST  2.3166501929
    A40_5  SUP40  1
    A40_5  HUB5  1
    A40_8  COST  13.376975649
    A40_8  SUP40  1
    A40_8  HUB8  1
    A40_10  COST  10.1532742092
    A40_10  SUP40  1
    A40_10  HUB10  1
    A40_13  COST  4.27808948526
    A40_13  SUP40  1
    A40_13  HUB13  1
    A40_15  COST  4.50057774937
    A40_15  SUP40  1
    A40_15  HUB15  1
    A40_16  COST  2.29608023665
    A40_16  SUP40  1
    A40_16  HUB16  1
    A40_18  COST  1.84096396088
    A40_18  SUP40  1
    A40_18  HUB18  1
    A40_21  COST  1.17022962198
    A40_21  SUP40  1
    A40_21  HUB21  1
    A40_23  COST  8.77430951206
    A40_23  SUP40  1
    A40_23  HUB23  1
    A40_26  COST  4.24637833622
    A40_26  SUP40  1
    A40_26  HUB26  1
    A40_27  COST  9.84080113563
    A40_27  SUP40  1
    A40_27  HUB27  1
    A40_28  COST  3.99112866468
    A40_28  SUP40  1
    A40_28  HUB28  1
    A40_32  COST  5.34999852512
    A40_32  SUP40  1
    A40_32  HUB32  1
    A40_34  COST  10.6253892714
    A40_34  SUP40  1
    A40_34  HUB34  1
    A40_35  COST  11.371992523
    A40_35  SUP40  1
    A40_35  HUB35  1
    A40_36  COST  10.1688019832
    A40_36  SUP40  1
    A40_36  HUB36  1
    A40_37  COST  7.5630299868
    A40_37  SUP40  1
    A40_37  HUB37  1
    A40_39  COST  10.3984073654
    A40_39  SUP40  1
    A40_39  HUB39  1
    A41_0  COST  5.38224616831
    A41_0  SUP41  1
    A41_0  HUB0  1
    A41_1  COST  6.06128533456
    A41_1  SUP41  1
    A41_1  HUB1  1
    A41_2  COST  1.67030067898
    A41_2  SUP41  1
    A41_2  HUB2  1
    A41_8  COST  5.77117034216
    A41_8  SUP41  1
    A41_8  HUB8  1
    A41_12  COST  3.97172995154
    A41_12  SUP41  1
    A41_12  HUB12  1
    A41_13  COST  8.7840668831
    A41_13  SUP41  1
    A41_13  HUB13  1
    A41_16  COST  3.46601838155
    A41_16  SUP41  1
    A41_16  HUB16  1
    A41_19  COST  10.0153762525
    A41_19  SUP41  1
    A41_19  HUB19  1
    A41_20  COST  5.81489242794
    A41_20  SUP41  1
    A41_20  HUB20  1
    A41_22  COST  3.34991558152
    A41_22  SUP41  1
    A41_22  HUB22  1
    A41_26  COST  5.99420892681
    A41_26  SUP41  1
    A41_26  HUB26  1
    A41_27  COST  1.39547439287
    A41_27  SUP41  1
    A41_27  HUB27  1
    A41_34  COST  8.77636620437
    A41_34  SUP41  1
    A41_34  HUB34  1
    A41_38  COST  10.9780822925
    A41_38  SUP41  1
    A41_38  HUB38  1
    A42_0  COST  3.72656473256
    A42_0  SUP42  1
    A42_0  HUB0  1
    A42_1  COST  11.6634374012
    A42_1  SUP42  1
    A42_1  HUB1  1
    A42_3  COST  5.49293753618
    A42_3  SUP42  1
    A42_3  HUB3  1
    A42_4  COST  8.8893882147
    A42_4  SUP42  1
    A42_4  HUB4  1
    A42_6  COST  2.86791667469
    A42_6  SUP42  1
    A42_6  HUB6  1
    A42_7  COST  6.30448046406
    A42_7  SUP42  1
    A42_7  HUB7  1
    A42_10  COST  8.58743351458
    A42_10  SUP42  1
    A42_10  HUB10  1
    A42_11  COST  10.7670830982
    A42_11  SUP42  1
    A42_11  HUB11  1
    A42_12  COST  4.75324389239
    A42_12  SUP42  1
    A42_12  HUB12  1
    A42_15  COST  1.79734432231
    A42_15  SUP42  1
    A42_15  HUB15  1
    A42_16  COST  13.7671292969
    A42_16  SUP42  1
    A42_16  HUB16  1
    A42_18  COST  7.33198026939
    A42_18  SUP42  1
    A42_18  HUB18  1
    A42_20  COST  10.4752395128
    A42_20  SUP42  1
    A42_20  HUB20  1
    A42_26  COST  8.49129708848
    A42_26  SUP42  1
    A42_26  HUB26  1
    A42_28  COST  8.53554238473
    A42_28  SUP42  1
    A42_28  HUB28  1
    A42_31  COST  13.5789442916
    A42_31  SUP42  1
    A42_31  HUB31  1
    A42_38  COST  1.26916156423
    A42_38  SUP42  1
    A42_38  HUB38  1
    A42_39  COST  4.37499196284
    A42_39  SUP42  1
    A42_39  HUB39  1
    A43_2  COST  6.18544719607
    A43_2  SUP43  1
    A43_2  HUB2  1
    A43_3  COST  3.78592741775
    A43_3  SUP43  1
    A43_3  HUB3  1
    A43_4  COST  2.67274116463
    A43_4  SUP43  1
    A43_4  HUB4  1
    A43_5  COST  9.03509528358
    A43_5  SUP43  1
    A43_5  HUB5  1
    A43_6  COST  12.0918901848
    A43_6  SUP43  1
    A43_6  HUB6  1
    A43_8  COST  11.5563719832
    A43_8  SUP43  1
    A43_8  HUB8  1
    A43_9  COST  2.7478916033
    A43_9  SUP43  1
    A43_9  HUB9  1
    A43_10  COST  5.78289820795
    A43_10  SUP43  1
    A43_10  HUB10  1
    A43_14  COST  8.02287853159
    A43_14  SUP43  1
    A43_14  HUB14  1
    A43_15  COST  3.40006891752
    A43_15  SUP43  1
    A43_15  HUB15  1
    A43_20  COST  7.11197441548
    A43_20  SUP43  1
    A43_20  HUB20  1
    A43_22  COST  6.89883447938
    A43_22  SUP43  1
    A43_22  HUB22  1
    A43_23  COST  11.7844093278
    A43_23  SUP43  1
    A43_23  HUB23  1
    A43_24  COST  3.21299868062
    A43_24  SUP43  1
    A43_24  HUB24  1
    A43_25  COST  12.5573260508
    A43_25  SUP43  1
    A43_25  HUB25  1
    A43_26  COST  3.26363133573
    A43_26  SUP43  1
    A43_26  HUB26  1
    A43_28  COST  9.35324457066
    A43_28  SUP43  1
    A43_28  HUB28  1
    A43_30  COST  4.75157844232
    A43_30  SUP43  1
    A43_30  HUB30  1
    A43_32  COST  5.30378822306
    A43_32  SUP43  1
    A43_32  HUB32  1
    A43_33  COST  1.44373617655
    A43_33  SUP43  1
    A43_33  HUB33  1
    A43_38  COST  3.48595989786
    A43_38  SUP43  1
    A43_38  HUB38  1
    A43_39  COST  8.62475506114
    A43_39  SUP43  1
    A43_39  HUB39  1
    A44_0  COST  9.29226245878
    A44_0  SUP44  1
    A44_0  HUB0  1
    A44_3  COST  4.95261969716
    A44_3  SUP44  1
    A44_3  HUB3  1
    A44_4  COST  1.26463774313
    A44_4  SUP44  1
    A44_4  HUB4  1
    A44_6  COST  2.26920009681
    A44_6  SUP44  1
    A44_6  HUB6  1
    A44_7  COST  3.01866473297
    A44_7  SUP44  1
    A44_7  HUB7  1
    A44_13  COST  7.68890604806
    A44_13  SUP44  1
    A44_13  HUB13  1
    A44_15  COST  3.89021074789
    A44_15  SUP44  1
    A44_15  HUB15  1
    A44_16  COST  4.02474586431
    A44_16  SUP44  1
    A44_16  HUB16  1
    A44_18  COST  4.61216151135
    A44_18  SUP44  1
    A44_18  HUB18  1
    A44_19  COST  11.4955563992
    A44_19  SUP44  1
    A44_19  HUB19  1
    A44_21  COST  6.32760786334
    A44_21  SUP44  1
    A44_21  HUB21  1
    A44_22  COST  2.85392089226
    A44_22  SUP44  1
    A44_22  HUB22  1
    A44_23  COST  2.71431739402
    A44_23  SUP44  1
    A44_23  HUB23  1
    A44_24  COST  11.9554275227
    A44_24  SUP44  1
    A44_24  HUB24  1
    A44_25  COST  3.92849751352
    A44_25  SUP44  1
    A44_25  HUB25  1
    A44_35  COST  5.78093447939
    A44_35  SUP44  1
    A44_35  HUB35  1
    A44_37  COST  13.3875694539
    A44_37  SUP44  1
    A44_37  HUB37  1
    A44_38  COST  4.87531643808
    A44_38  SUP44  1
    A44_38  HUB38  1
    A45_0  COST  4.84261925715
    A45_0  SUP45  1
    A45_0  HUB0  1
    A45_1  COST  3.22289588847
    A45_1  SUP45  1
    A45_1  HUB1  1
    A45_6  COST  12.6302333099
    A45_6  SUP45  1
    A45_6  HUB6  1
    A45_7  COST  6.22628298962
    A45_7  SUP45  1
    A45_7  HUB7  1
    A45_12  COST  6.74417878197
    A45_12  SUP45  1
    A45_12  HUB12  1
    A45_15  COST  6.60337204468
    A45_15  SUP45  1
    A45_15  HUB15  1
    A45_19  COST  10.7877071788
    A45_19  SUP45  1
    A45_19  HUB19  1
    A45_20  COST  8.31458392188
    A45_20  SUP45  1
    A45_20  HUB20  1
    A45_21  COST  7.55314522624
    A45_21  SUP45  1
    A45_21  HUB21  1
    A45_22  COST  1.30999333535
    A45_22  SUP45  1
    A45_22  HUB22  1
    A45_23  COST  7.99040144163
    A45_23  SUP45  1
    A45_23  HUB23  1
    A45_25  COST  6.91788621992
    A45_25  SUP45  1
    A45_25  HUB25  1
    A45_26  COST  5.78624185776
    A45_26  SUP45  1
    A45_26  HUB26  1
    A45_27  COST  13.0084754746
    A45_27  SUP45  1
    A45_27  HUB27  1
    A45_28  COST  7.37598616657
    A45_28  SUP45  1
    A45_28  HUB28  1
    A45_29  COST  5.39106175869
    A45_29  SUP45  1
    A45_29  HUB29  1
    A45_31  COST  5.21822664961
    A45_31  SUP45  1
    A45_31  HUB31  1
    A45_33  COST  1.79143762296
    A45_33  SUP45  1
    A45_33  HUB33  1
    A45_35  COST  10.5428914459
    A45_35  SUP45  1
    A45_35  HUB35  1
    A45_38  COST  6.6648840237
    A45_38  SUP45  1
    A45_38  HUB38  1
    A46_0  COST  10.6179988291
    A46_0  SUP46  1
    A46_0  HUB0  1
    A46_4  COST  7.89254569456
    A46_4  SUP46  1
    A46_4  HUB4  1
    A46_6  COST  11.6815417876
    A46_6  SUP46  1
    A46_6  HUB6  1
    A46_7  COST  7.77008211004
    A46_7  SUP46  1
    A46_7  HUB7  1
    A46_8  COST  6.88839112088
    A46_8  SUP46  1
    A46_8  HUB8  1
    A46_17  COST  5.12812767338
    A46_17  SUP46  1
    A46_17  HUB17  1
    A46_21  COST  6.08372500782
    A46_21  SUP46  1
    A46_21  HUB21  1
    A46_22  COST  12.5724693046
    A46_22  SUP46  1
    A46_22  HUB22  1
    A46_23  COST  4.79710254928
    A46_23  SUP46  1
    A46_23  HUB23  1
    A46_26  COST  4.3280617929
    A46_26  SUP46  1
    A46_26  HUB26  1
    A46_27  COST  4.61650700906
    A46_27  SUP46  1
    A46_27  HUB27  1
    A46_39  COST  6.03534744102
    A46_39  SUP46  1
    A46_39  HUB39  1
    A47_1  COST  12.116374123
    A47_1  SUP47  1
    A47_1  HUB1  1
    A47_2  COST  2.2122038631
    A47_2  SUP47  1
    A47_2  HUB2  1
    A47_3  COST  13.5029754306
    A47_3  SUP47  1
    A47_3  HUB3  1
    A47_5  COST  6.38693082739
    A47_5  SUP47  1
    A47_5  HUB5  1
    A47_6  COST  5.67365279115
    A47_6  SUP47  1
    A47_6  HUB6  1
    A47_7  COST  10.5660335087
    A47_7  SUP47  1
    A47_7  HUB7  1
    A47_14  COST  1.90676656874
    A47_14  SUP47  1
    A47_14  HUB14  1
    A47_15  COST  3.92827477137
    A47_15  SUP47  1
    A47_15  HUB15  1
    A47_17  COST  3.95757852971
    A47_17  SUP47  1
    A47_17  HUB17  1
    A47_19  COST  12.6114635254
    A47_19  SUP47  1
    A47_19  HUB19  1
    A47_20  COST  4.55480136023
    A47_20  SUP47  1
    A47_20  HUB20  1
    A47_25  COST  1.3958130131
    A47_25  SUP47  1
    A47_25  HUB25  1
    A47_26  COST  2.72413166697
    A47_26  SUP47  1
    A47_26  HUB26  1
    A47_32  COST  13.6632523563
    A47_32  SUP47  1
    A47_32  HUB32  1
    A47_36  COST  10.0221286612
    A47_36  SUP47  1
    A47_36  HUB36  1
    A48_3  COST  11.0958443048
    A48_3  SUP48  1
    A48_3  HUB3  1
    A48_4  COST  2.54647735117
    A48_4  SUP48  1
    A48_4  HUB4  1
    A48_5  COST  3.92168810288
    A48_5  SUP48  1
    A48_5  HUB5  1
    A48_6  COST  11.6600634359
    A48_6  SUP48  1
    A48_6  HUB6  1
    A48_9  COST  12.5463105484
    A48_9  SUP48  1
    A48_9  HUB9  1
    A48_10  COST  3.59750793222
    A48_10  SUP48  1
    A48_10  HUB10  1
    A48_16  COST  3.96733391746
    A48_16  SUP48  1
    A48_16  HUB16  1
    A48_18  COST  4.14000487283
    A48_18  SUP48  1
    A48_18  HUB18  1
    A48_19  COST  12.4358891649
    A48_19  SUP48  1
    A48_19  HUB19  1
    A48_20  COST  8.45742156592
    A48_20  SUP48  1
    A48_20  HUB20  1
    A48_23  COST  1.04036498723
    A48_23  SUP48  1
    A48_23  HUB23  1
    A48_24  COST  6.72867310768
    A48_24  SUP48  1
    A48_24  HUB24  1
    A48_25  COST  4.40152131383
    A48_25  SUP48  1
    A48_25  HUB25  1
    A48_26  COST  10.5476818534
    A48_26  SUP48  1
    A48_26  HUB26  1
    A48_28  COST  4.672729352
    A48_28  SUP48  1
    A48_28  HUB28  1
    A48_31  COST  12.7992604795
    A48_31  SUP48  1
    A48_31  HUB31  1
    A48_32  COST  11.6041187975
    A48_32  SUP48  1
    A48_32  HUB32  1
    A48_33  COST  2.37973089143
    A48_33  SUP48  1
    A48_33  HUB33  1
    A48_34  COST  5.05000523228
    A48_34  SUP48  1
    A48_34  HUB34  1
    A48_37  COST  11.2943483174
    A48_37  SUP48  1
    A48_37  HUB37  1
    A48_38  COST  13.6416153584
    A48_38  SUP48  1
    A48_38  HUB38  1
    A49_1  COST  9.26058888842
    A49_1  SUP49  1
    A49_1  HUB1  1
    A49_4  COST  5.30660782908
    A49_4  SUP49  1
    A49_4  HUB4  1
    A49_6  COST  13.6240765703
    A49_6  SUP49  1
    A49_6  HUB6  1
    A49_12  COST  10.6567183181
    A49_12  SUP49  1
    A49_12  HUB12  1
    A49_13  COST  11.5007391467
    A49_13  SUP49  1
    A49_13  HUB13  1
    A49_14  COST  7.11419097044
    A49_14  SUP49  1
    A49_14  HUB14  1
    A49_16  COST  11.862637228
    A49_16  SUP49  1
    A49_16  HUB16  1
    A49_18  COST  9.38817312401
    A49_18  SUP49  1
    A49_18  HUB18  1
    A49_20  COST  10.5623352123
    A49_20  SUP49  1
    A49_20  HUB20  1
    A49_21  COST  9.55369861491
    A49_21  SUP49  1
    A49_21  HUB21  1
    A49_23  COST  13.806737695
    A49_23  SUP49  1
    A49_23  HUB23  1
    A49_25  COST  9.58663321055
    A49_25  SUP49  1
    A49_25  HUB25  1
    A49_26  COST  13.8784787254
    A49_26  SUP49  1
    A49_26  HUB26  1
    A49_30  COST  12.2874600566
    A49_30  SUP49  1
    A49_30  HUB30  1
    A49_31  COST  7.71023855661
    A49_31  SUP49  1
    A49_31  HUB31  1
    A49_32  COST  6.20188980366
    A49_32  SUP49  1
    A49_32  HUB32  1
    A49_33  COST  4.68036280507
    A49_33  SUP49  1
    A49_33  HUB33  1
    A49_37  COST  1.35534190247
    A49_37  SUP49  1
    A49_37  HUB37  1
    A49_38  COST  4.44921192502
    A49_38  SUP49  1
    A49_38  HUB38  1
    A50_0  COST  9.33760769036
    A50_0  SUP50  1
    A50_0  HUB0  1
    A50_2  COST  2.08233765139
    A50_2  SUP50  1
    A50_2  HUB2  1
    A50_3  COST  5.91554401543
    A50_3  SUP50  1
    A50_3  HUB3  1
    A50_5  COST  13.1244905432
    A50_5  SUP50  1
    A50_5  HUB5  1
    A50_6  COST  8.88682187907
    A50_6  SUP50  1
    A50_6  HUB6  1
    A50_7  COST  5.74407921465
    A50_7  SUP50  1
    A50_7  HUB7  1
    A50_9  COST  9.36424209558
    A50_9  SUP50  1
    A50_9  HUB9  1
    A50_11  COST  1.61042598641
    A50_11  SUP50  1
    A50_11  HUB11  1
    A50_12  COST  11.4814653158
    A50_12  SUP50  1
    A50_12  HUB12  1
    A50_13  COST  3.92691445814
    A50_13  SUP50  1
    A50_13  HUB13  1
    A50_14  COST  10.862133922
    A50_14  SUP50  1
    A50_14  HUB14  1
    A50_18  COST  1.90022187375
    A50_18  SUP50  1
    A50_18  HUB18  1
    A50_21  COST  4.22219974693
    A50_21  SUP50  1
    A50_21  HUB21  1
    A50_23  COST  3.54601896798
    A50_23  SUP50  1
    A50_23  HUB23  1
    A50_24  COST  7.01047964368
    A50_24  SUP50  1
    A50_24  HUB24  1
    A50_27  COST  5.16953436693
    A50_27  SUP50  1
    A50_27  HUB27  1
    A50_29  COST  3.87878411957
    A50_29  SUP50  1
    A50_29  HUB29  1
    A50_30  COST  11.4785401025
    A50_30  SUP50  1
    A50_30  HUB30  1
    A50_32  COST  13.0659398679
    A50_32  SUP50  1
    A50_32  HUB32  1
    A50_33  COST  8.08656454632
    A50_33  SUP50  1
    A50_33  HUB33  1
    A50_35  COST  1.571853206
    A50_35  SUP50  1
    A50_35  HUB35  1
    A50_38  COST  12.0490996924
    A50_38  SUP50  1
    A50_38  HUB38  1
    A51_0  COST  13.8541579259
    A51_0  SUP51  1
    A51_0  HUB0  1
    A51_1  COST  4.24720258694
    A51_1  SUP51  1
    A51_1  HUB1  1
    A51_3  COST  4.14168452646
    A51_3  SUP51  1
    A51_3  HUB3  1
    A51_6  COST  7.62921177591
    A51_6  SUP51  1
    A51_6  HUB6  1
    A51_8  COST  4.27395967563
    A51_8  SUP51  1
    A51_8  HUB8  1
    A51_10  COST  5.29560201098
    A51_10  SUP51  1
    A51_10  HUB10  1
    A51_12  COST  5.23142565979
    A51_12  SUP51  1
    A51_12  HUB12  1
    A51_21  COST  4.32328894416
    A51_21  SUP51  1
    A51_21  HUB21  1
    A51_25  COST  11.5148105965
    A51_25  SUP51  1
    A51_25  HUB25  1
    A51_29  COST  3.86823716336
    A51_29  SUP51  1
    A51_29  HUB29  1
    A51_30  COST  8.93793586133
    A51_30  SUP51  1
    A51_30  HUB30  1
    A51_32  COST  9.12456274607
    A51_32  SUP51  1
    A51_32  HUB32  1
    A51_33  COST  6.54607840741
    A51_33  SUP51  1
    A51_33  HUB33  1
    A51_38  COST  3.12615162757
    A51_38  SUP51  1
    A51_38  HUB38  1
    A52_2  COST  5.2819210659
    A52_2  SUP52  1
    A52_2  HUB2  1
    A52_5  COST  6.13574508754
    A52_5  SUP52  1
    A52_5  HUB5  1
    A52_9  COST  2.67817212022
    A52_9  SUP52  1
    A52_9  HUB9  1
    A52_10  COST  9.63099389578
    A52_10  SUP52  1
    A52_10  HUB10  1
    A52_12  COST  13.3278871294
    A52_12  SUP52  1
    A52_12  HUB12  1
    A52_16  COST  4.70856625458
    A52_16  SUP52  1
    A52_16  HUB16  1
    A52_22  COST  5.48062716449
    A52_22  SUP52  1
    A52_22  HUB22  1
    A52_27  COST  1.44824951491
    A52_27  SUP52  1
    A52_27  HUB27  1
    A52_32  COST  1.62922881476
    A52_32  SUP52  1
    A52_32  HUB32  1
    A52_36  COST  4.11749160994
    A52_36  SUP52  1
    A52_36  HUB36  1
    A52_37  COST  8.22013852281
    A52_37  SUP52  1
    A52_37  HUB37  1
    A53_0  COST  5.33724538945
    A53_0  SUP53  1
    A53_0  HUB0  1
    A53_3  COST  4.32217244745
    A53_3  SUP53  1
    A53_3  HUB3  1
    A53_5  COST  8.15628247644
    A53_5  SUP53  1
    A53_5  HUB5  1
    A53_7  COST  10.9915904965
    A53_7  SUP53  1
    A53_7  HUB7  1
    A53_9  COST  8.15726930423
    A53_9  SUP53  1
    A53_9  HUB9  1
    A53_10  COST  1.87042094413
    A53_10  SUP53  1
    A53_10  HUB10  1
    A53_11  COST  12.5297719015
    A53_11  SUP53  1
    A53_11  HUB11  1
    A53_16  COST  10.3884278672
    A53_16  SUP53  1
    A53_16  HUB16  1
    A53_18  COST  13.5730135444
    A53_18  SUP53  1
    A53_18  HUB18  1
    A53_19  COST  7.01076566294
    A53_19  SUP53  1
    A53_19  HUB19  1
    A53_20  COST  8.19794540492
    A53_20  SUP53  1
    A53_20  HUB20  1
    A53_22  COST  4.14618883231
    A53_22  SUP53  1
    A53_22  HUB22  1
    A53_29  COST  9.04371095537
    A53_29  SUP53  1
    A53_29  HUB29  1
    A53_30  COST  7.45408331582
    A53_30  SUP53  1
    A53_30  HUB30  1
    A53_33  COST  3.61680248302
    A53_33  SUP53  1
    A53_33  HUB33  1
    A53_34  COST  12.016477076
    A53_34  SUP53  1
    A53_34  HUB34  1
    A53_35  COST  7.17247690876
    A53_35  SUP53  1
    A53_35  HUB35  1
    A53_37  COST  9.6532894911
    A53_37  SUP53  1
    A53_37  HUB37  1
    A54_1  COST  8.9163500643
    A54_1  SUP54  1
    A54_1  HUB1  1
    A54_3  COST  3.3729745896
    A54_3  SUP54  1
    A54_3  HUB3  1
    A54_4  COST  7.94895308025
    A54_4  SUP54  1
    A54_4  HUB4  1
    A54_6  COST  8.01314596838
    A54_6  SUP54  1
    A54_6  HUB6  1
    A54_9  COST  6.50390541567
    A54_9  SUP54  1
    A54_9  HUB9  1
    A54_10  COST  6.06262232038
    A54_10  SUP54  1
    A54_10  HUB10  1
    A54_12  COST  3.3316713912
    A54_12  SUP54  1
    A54_12  HUB12  1
    A54_14  COST  11.5621497158
    A54_14  SUP54  1
    A54_14  HUB14  1
    A54_15  COST  11.4040585028
    A54_15  SUP54  1
    A54_15  HUB15  1
    A54_16  COST  12.792321412
    A54_16  SUP54  1
    A54_16  HUB16  1
    A54_20  COST  13.649018173
    A54_20  SUP54  1
    A54_20  HUB20  1
    A54_21  COST  10.3110620571
    A54_21  SUP54  1
    A54_21  HUB21  1
    A54_22  COST  10.2396899664
    A54_22  SUP54  1
    A54_22  HUB22  1
    A54_23  COST  13.7113352517
    A54_23  SUP54  1
    A54_23  HUB23  1
    A54_24  COST  12.6391817734
    A54_24  SUP54  1
    A54_24  HUB24  1
    A54_26  COST  4.1116516546
    A54_26  SUP54  1
    A54_26  HUB26  1
    A54_27  COST  12.3724536494
    A54_27  SUP54  1
    A54_27  HUB27  1
    A54_32  COST  4.43648262361
    A54_32  SUP54  1
    A54_32  HUB32  1
    A54_33  COST  5.4250522383
    A54_33  SUP54  1
    A54_33  HUB33  1
    A54_34  COST  7.95085818354
    A54_34  SUP54  1
    A54_34  HUB34  1
    A54_36  COST  8.89409177259
    A54_36  SUP54  1
    A54_36  HUB36  1
    A54_39  COST  7.37557034253
    A54_39  SUP54  1
    A54_39  HUB39  1
    A55_2  COST  6.37342330783
    A55_2  SUP55  1
    A55_2  HUB2  1
    A55_3  COST  1.8689561262
    A55_3  SUP55  1
    A55_3  HUB3  1
    A55_4  COST  9.71887116428
    A55_4  SUP55  1
    A55_4  HUB4  1
    A55_5  COST  3.9339543908
    A55_5  SUP55  1
    A55_5  HUB5  1
    A55_7  COST  3.26682580304
    A55_7  SUP55  1
    A55_7  HUB7  1
    A55_9  COST  10.5510039704
    A55_9  SUP55  1
    A55_9  HUB9  1
    A55_10  COST  13.2647276696
    A55_10  SUP55  1
    A55_10  HUB10  1
    A55_11  COST  4.527231298
    A55_11  SUP55  1
    A55_11  HUB11  1
    A55_17  COST  7.82205713978
    A55_17  SUP55  1
    A55_17  HUB17  1
    A55_21  COST  9.05370204415
    A55_21  SUP55  1
    A55_21  HUB21  1
    A55_25  COST  6.79727868729
    A55_25  SUP55  1
    A55_25  HUB25  1
    A55_26  COST  1.70466799241
    A55_26  SUP55  1
    A55_26  HUB26  1
    A55_28  COST  7.74171606832
    A55_28  SUP55  1
    A55_28  HUB28  1
    A55_29  COST  11.488131043
    A55_29  SUP55  1
    A55_29  HUB29  1
    A55_30  COST  3.96771944869
    A55_30  SUP55  1
    A55_30  HUB30  1
    A55_31  COST  12.5115080982
    A55_31  SUP55  1
    A55_31  HUB31  1
    A55_33  COST  12.5143396174
    A55_33  SUP55  1
    A55_33  HUB33  1
    A55_34  COST  10.7202033106
    A55_34  SUP55  1
    A55_34  HUB34  1
    A55_37  COST  12.7444219528
    A55_37  SUP55  1
    A55_37  HUB37  1
    A55_39  COST  10.7458480932
    A55_39  SUP55  1
    A55_39  HUB39  1
    A56_1  COST  11.1734871649
    A56_1  SUP56  1
    A56_1  HUB1  1
    A56_3  COST  13.7566232491
    A56_3  SUP56  1
    A56_3  HUB3  1
    A56_4  COST  5.25514172113
    A56_4  SUP56  1
    A56_4  HUB4  1
    A56_8  COST  3.22728803238
    A56_8  SUP56  1
    A56_8  HUB8  1
    A56_9  COST  7.24741823666
    A56_9  SUP56  1
    A56_9  HUB9  1
    A56_11  COST  3.77416651437
    A56_11  SUP56  1
    A56_11  HUB11  1
    A56_13  COST  5.49450229962
    A56_13  SUP56  1
    A56_13  HUB13  1
    A56_14  COST  7.23974770307
    A56_14  SUP56  1
    A56_14  HUB14  1
    A56_17  COST  10.9444917003
    A56_17  SUP56  1
    A56_17  HUB17  1
    A56_18  COST  4.51121027623
    A56_18  SUP56  1
    A56_18  HUB18  1
    A56_21  COST  5.32879042963
    A56_21  SUP56  1
    A56_21  HUB21  1
    A56_26  COST  8.63891549383
    A56_26  SUP56  1
    A56_26  HUB26  1
    A56_28  COST  2.12844715409
    A56_28  SUP56  1
    A56_28  HUB28  1
    A56_30  COST  3.02628410535
    A56_30  SUP56  1
    A56_30  HUB30  1
    A56_32  COST  8.01863218196
    A56_32  SUP56  1
    A56_32  HUB32  1
    A56_33  COST  7.99550635921
    A56_33  SUP56  1
    A56_33  HUB33  1
    A56_35  COST  11.560347757
    A56_35  SUP56  1
    A56_35  HUB35  1
    A56_39  COST  1.27419229087
    A56_39  SUP56  1
    A56_39  HUB39  1
    A57_1  COST  11.455084646
    A57_1  SUP57  1
    A57_1  HUB1  1
    A57_2  COST  7.31209849799
    A57_2  SUP57  1
    A57_2  HUB2  1
    A57_4  COST  1.28624412595
    A57_4  SUP57  1
    A57_4  HUB4  1
    A57_11  COST  3.23133228692
    A57_11  SUP57  1
    A57_11  HUB11  1
    A57_12  COST  6.13008007457
    A57_12  SUP57  1
    A57_12  HUB12  1
    A57_13  COST  11.4004592276
    A57_13  SUP57  1
    A57_13  HUB13  1
    A57_14  COST  12.9362164149
    A57_14  SUP57  1
    A57_14  HUB14  1
    A57_16  COST  12.1770047811
    A57_16  SUP57  1
    A57_16  HUB16  1
    A57_17  COST  10.3800937801
    A57_17  SUP57  1
    A57_17  HUB17  1
    A57_19  COST  12.1077959782
    A57_19  SUP57  1
    A57_19  HUB19  1
    A57_24  COST  13.8491600511
    A57_24  SUP57  1
    A57_24  HUB24  1
    A57_28  COST  4.50214209833
    A57_28  SUP57  1
    A57_28  HUB28  1
    A57_35  COST  10.8923075051
    A57_35  SUP57  1
    A57_35  HUB35  1
    A57_37  COST  7.3763701829
    A57_37  SUP57  1
    A57_37  HUB37  1
    A58_3  COST  6.79652110815
    A58_3  SUP58  1
    A58_3  HUB3  1
    A58_4  COST  7.82592719103
    A58_4  SUP58  1
    A58_4  HUB4  1
    A58_5  COST  1.32141545225
    A58_5  SUP58  1
    A58_5  HUB5  1
    A58_6  COST  13.2368567459
    A58_6  SUP58  1
    A58_6  HUB6  1
    A58_9  COST  11.2145653955
    A58_9  SUP58  1
    A58_9  HUB9  1
    A58_10  COST  6.3183021797
    A58_10  SUP58  1
    A58_10  HUB10  1
    A58_14  COST  1.70937358936
    A58_14  SUP58  1
    A58_14  HUB14  1
    A58_18  COST  10.1415137505
    A58_18  SUP58  1
    A58_18  HUB18  1
    A58_19  COST  13.4681069089
    A58_19  SUP58  1
    A58_19  HUB19  1
    A58_21  COST  11.8720000199
    A58_21  SUP58  1
    A58_21  HUB21  1
    A58_22  COST  12.3814698295
    A58_22  SUP58  1
    A58_22  HUB22  1
    A58_24  COST  13.7643615256
    A58_24  SUP58  1
    A58_24  HUB24  1
    A58_25  COST  7.54799672191
    A58_25  SUP58  1
    A58_25  HUB25  1
    A58_28  COST  8.50132068119
    A58_28  SUP58  1
    A58_28  HUB28  1
    A58_29  COST  13.4078492666
    A58_29  SUP58  1
    A58_29  HUB29  1
    A58_31  COST  1.79018835004
    A58_31  SUP58  1
    A58_31  HUB31  1
    A58_32  COST  11.9841213391
    A58_32  SUP58  1
    A58_32  HUB32  1
    A58_33  COST  13.4347349422
    A58_33  SUP58  1
    A58_33  HUB33  1
    A58_38  COST  5.63083866632
    A58_38  SUP58  1
    A58_38  HUB38  1
    A59_2  COST  13.7240947008
    A59_2  SUP59  1
    A59_2  HUB2  1
    A59_3  COST  3.9208229474
    A59_3  SUP59  1
    A59_3  HUB3  1
    A59_4  COST  7.4437402475
    A59_4  SUP59  1
    A59_4  HUB4  1
    A59_6  COST  10.4022400731
    A59_6  SUP59  1
    A59_6  HUB6  1
    A59_7  COST  13.5438602086
    A59_7  SUP59  1
    A59_7  HUB7  1
    A59_10  COST  7.4187759595
    A59_10  SUP59  1
    A59_10  HUB10  1
    A59_14  COST  5.24384011079
    A59_14  SUP59  1
    A59_14  HUB14  1
    A59_15  COST  6.21624249016
    A59_15  SUP59  1
    A59_15  HUB15  1
    A59_18  COST  3.75578448529
    A59_18  SUP59  1
    A59_18  HUB18  1
    A59_19  COST  12.6836026171
    A59_19  SUP59  1
    A59_19  HUB19  1
    A59_21  COST  4.16445573125
    A59_21  SUP59  1
    A59_21  HUB21  1
    A59_22  COST  11.0048027176
    A59_22  SUP59  1
    A59_22  HUB22  1
    A59_24  COST  11.3290449447
    A59_24  SUP59  1
    A59_24  HUB24  1
    A59_25  COST  13.3874756785
    A59_25  SUP59  1
    A59_25  HUB25  1
    A59_26  COST  7.74131172801
    A59_26  SUP59  1
    A59_26  HUB26  1
    A59_27  COST  8.9715057005
    A59_27  SUP59  1
    A59_27  HUB27  1
    A59_28  COST  2.33733457833
    A59_28  SUP59  1
    A59_28  HUB28  1
    A59_30  COST  3.1010024578
    A59_30  SUP59  1
    A59_30  HUB30  1
    A59_33  COST  5.55370599564
    A59_33  SUP59  1
    A59_33  HUB33  1
    A59_36  COST  12.4281679249
    A59_36  SUP59  1
    A59_36  HUB36  1
    A59_37  COST  1.72108366525
    A59_37  SUP59  1
    A59_37  HUB37  1
    A59_38  COST  9.25395997744
    A59_38  SUP59  1
    A59_38  HUB38  1
    A60_3  COST  11.9174890257
    A60_3  SUP60  1
    A60_3  HUB3  1
    A60_4  COST  11.9097358424
    A60_4  SUP60  1
    A60_4  HUB4  1
    A60_6  COST  2.87442376315
    A60_6  SUP60  1
    A60_6  HUB6  1
    A60_8  COST  5.11644884827
    A60_8  SUP60  1
    A60_8  HUB8  1
    A60_10  COST  4.40841796976
    A60_10  SUP60  1
    A60_10  HUB10  1
    A60_12  COST  12.3241043345
    A60_12  SUP60  1
    A60_12  HUB12  1
    A60_13  COST  10.882447769
    A60_13  SUP60  1
    A60_13  HUB13  1
    A60_14  COST  10.1120766481
    A60_14  SUP60  1
    A60_14  HUB14  1
    A60_15  COST  2.82155401683
    A60_15  SUP60  1
    A60_15  HUB15  1
    A60_17  COST  9.25532494558
    A60_17  SUP60  1
    A60_17  HUB17  1
    A60_18  COST  2.07091430385
    A60_18  SUP60  1
    A60_18  HUB18  1
    A60_19  COST  13.7532310909
    A60_19  SUP60  1
    A60_19  HUB19  1
    A60_20  COST  6.71305028068
    A60_20  SUP60  1
    A60_20  HUB20  1
    A60_22  COST  1.43219568254
    A60_22  SUP60  1
    A60_22  HUB22  1
    A60_26  COST  5.92614433786
    A60_26  SUP60  1
    A60_26  HUB26  1
    A60_27  COST  7.68497555951
    A60_27  SUP60  1
    A60_27  HUB27  1
    A60_28  COST  1.19165349574
    A60_28  SUP60  1
    A60_28  HUB28  1
    A60_30  COST  12.6013136215
    A60_30  SUP60  1
    A60_30  HUB30  1
    A60_32  COST  10.2944842795
    A60_32  SUP60  1
    A60_32  HUB32  1
    A60_33  COST  4.85979857925
    A60_33  SUP60  1
    A60_33  HUB33  1
    A60_36  COST  8.33889482073
    A60_36  SUP60  1
    A60_36  HUB36  1
    A60_37  COST  12.1364879918
    A60_37  SUP60  1
    A60_37  HUB37  1
    A60_38  COST  3.15467342072
    A60_38  SUP60  1
    A60_38  HUB38  1
    A61_1  COST  7.76675612398
    A61_1  SUP61  1
    A61_1  HUB1  1
    A61_5  COST  8.97278545937
    A61_5  SUP61  1
    A61_5  HUB5  1
    A61_6  COST  1.72691783154
    A61_6  SUP61  1
    A61_6  HUB6  1
    A61_8  COST  13.4411292094
    A61_8  SUP61  1
    A61_8  HUB8  1
    A61_10  COST  1.17079702832
    A61_10  SUP61  1
    A61_10  HUB10  1
    A61_11  COST  3.63259522735
    A61_11  SUP61  1
    A61_11  HUB11  1
    A61_12  COST  7.04384249484
    A61_12  SUP61  1
    A61_12  HUB12  1
    A61_16  COST  10.4258549471
    A61_16  SUP61  1
    A61_16  HUB16  1
    A61_18  COST  5.91867784481
    A61_18  SUP61  1
    A61_18  HUB18  1
    A61_19  COST  13.4770564855
    A61_19  SUP61  1
    A61_19  HUB19  1
    A61_22  COST  5.08514428894
    A61_22  SUP61  1
    A61_22  HUB22  1
    A61_23  COST  8.3092352673
    A61_23  SUP61  1
    A61_23  HUB23  1
    A61_24  COST  10.8987121158
    A61_24  SUP61  1
    A61_24  HUB24  1
    A61_31  COST  11.3238315
    A61_31  SUP61  1
    A61_31  HUB31  1
    A61_33  COST  7.56051364735
    A61_33  SUP61  1
    A61_33  HUB33  1
    A61_34  COST  12.2239727771
    A61_34  SUP61  1
    A61_34  HUB34  1
    A61_39  COST  2.87579194419
    A61_39  SUP61  1
    A61_39  HUB39  1
    A62_6  COST  12.8431943434
    A62_6  SUP62  1
    A62_6  HUB6  1
    A62_7  COST  8.36281363587
    A62_7  SUP62  1
    A62_7  HUB7  1
    A62_10  COST  6.10463904299
    A62_10  SUP62  1
    A62_10  HUB10  1
    A62_17  COST  5.60608354274
    A62_17  SUP62  1
    A62_17  HUB17  1
    A62_18  COST  11.8949843371
    A62_18  SUP62  1
    A62_18  HUB18  1
    A62_20  COST  13.8586043194
    A62_20  SUP62  1
    A62_20  HUB20  1
    A62_21  COST  6.39949474806
    A62_21  SUP62  1
    A62_21  HUB21  1
    A62_26  COST  7.08443710114
    A62_26  SUP62  1
    A62_26  HUB26  1
    A62_28  COST  3.31728905413
    A62_28  SUP62  1
    A62_28  HUB28  1
    A62_29  COST  6.62241818863
    A62_29  SUP62  1
    A62_29  HUB29  1
    A62_33  COST  8.33915583768
    A62_33  SUP62  1
    A62_33  HUB33  1
    A62_34  COST  6.10100130071
    A62_34  SUP62  1
    A62_34  HUB34  1
    A62_35  COST  2.17368716645
    A62_35  SUP62  1
    A62_35  HUB35  1
    A62_36  COST  8.20010862761
    A62_36  SUP62  1
    A62_36  HUB36  1
    A62_38  COST  5.00262574407
    A62_38  SUP62  1
    A62_38  HUB38  1
    A62_39  COST  7.37220827868
    A62_39  SUP62  1
    A62_39  HUB39  1
    A63_0  COST  10.4563918694
    A63_0  SUP63  1
    A63_0  HUB0  1
    A63_1  COST  4.87254286876
    A63_1  SUP63  1
    A63_1  HUB1  1
    A63_2  COST  6.8280741924
    A63_2  SUP63  1
    A63_2  HUB2  1
    A63_3  COST  4.24548870437
    A63_3  SUP63  1
    A63_3  HUB3  1
    A63_4  COST  4.18651099417
    A63_4  SUP63  1
    A63_4  HUB4  1
    A63_6  COST  9.86561885748
    A63_6  SUP63  1
    A63_6  HUB6  1
    A63_10  COST  3.60345428248
    A63_10  SUP63  1
    A63_10  HUB10  1
    A63_13  COST  5.09707023393
    A63_13  SUP63  1
    A63_13  HUB13  1
    A63_14  COST  4.42758300242
    A63_14  SUP63  1
    A63_14  HUB14  1
    A63_17  COST  4.36177334936
    A63_17  SUP63  1
    A63_17  HUB17  1
    A63_20  COST  3.85398754138
    A63_20  SUP63  1
    A63_20  HUB20  1
    A63_26  COST  11.0888879459
    A63_26  SUP63  1
    A63_26  HUB26  1
    A63_27  COST  5.37577908944
    A63_27  SUP63  1
    A63_27  HUB27  1
    A63_31  COST  6.4625630282
    A63_31  SUP63  1
    A63_31  HUB31  1
    A63_32  COST  1.56478889112
    A63_32  SUP63  1
    A63_32  HUB32  1
    A63_34  COST  7.55229268559
    A63_34  SUP63  1
    A63_34  HUB34  1
    A63_37  COST  4.03059606309
    A63_37  SUP63  1
    A63_37  HUB37  1
    A63_38  COST  1.32522502947
    A63_38  SUP63  1
    A63_38  HUB38  1
    A63_39  COST  11.0574775001
    A63_39  SUP63  1
    A63_39  HUB39  1
    A64_0  COST  5.60168654178
    A64_0  SUP64  1
    A64_0  HUB0  1
    A64_1  COST  2.4496825229
    A64_1  SUP64  1
    A64_1  HUB1  1
    A64_2  COST  4.64889580428
    A64_2  SUP64  1
    A64_2  HUB2  1
    A64_4  COST  2.64989557028
    A64_4  SUP64  1
    A64_4  HUB4  1
    A64_5  COST  2.73753400125
    A64_5  SUP64  1
    A64_5  HUB5  1
    A64_7  COST  8.21356430957
    A64_7  SUP64  1
    A64_7  HUB7  1
    A64_8  COST  1.89511416978
    A64_8  SUP64  1
    A64_8  HUB8  1
    A64_9  COST  5.90597155066
    A64_9  SUP64  1
    A64_9  HUB9  1
    A64_11  COST  7.93196084305
    A64_11  SUP64  1
    A64_11  HUB11  1
    A64_12  COST  10.831201206
    A64_12  SUP64  1
    A64_12  HUB12  1
    A64_13  COST  11.5864991554
    A64_13  SUP64  1
    A64_13  HUB13  1
    A64_15  COST  10.4442084984
    A64_15  SUP64  1
    A64_15  HUB15  1
    A64_16  COST  9.4184155426
    A64_16  SUP64  1
    A64_16  HUB16  1
    A64_18  COST  3.81620696193
    A64_18  SUP64  1
    A64_18  HUB18  1
    A64_19  COST  7.92279944972
    A64_19  SUP64  1
    A64_19  HUB19  1
    A64_20  COST  10.9411598471
    A64_20  SUP64  1
    A64_20  HUB20  1
    A64_21  COST  9.91738611679
    A64_21  SUP64  1
    A64_21  HUB21  1
    A64_22  COST  5.83301774364
    A64_22  SUP64  1
    A64_22  HUB22  1
    A64_23  COST  4.22106737959
    A64_23  SUP64  1
    A64_23  HUB23  1
    A64_27  COST  8.23545623966
    A64_27  SUP64  1
    A64_27  HUB27  1
    A64_28  COST  12.153244837
    A64_28  SUP64  1
    A64_28  HUB28  1
    A64_30  COST  11.4261223484
    A64_30  SUP64  1
    A64_30  HUB30  1
    A64_31  COST  8.08909537761
    A64_31  SUP64  1
    A64_31  HUB31  1
    A64_32  COST  13.2394561011
    A64_32  SUP64  1
    A64_32  HUB32  1
    A64_34  COST  12.3774553583
    A64_34  SUP64  1
    A64_34  HUB34  1
    A64_36  COST  6.01331050196
    A64_36  SUP64  1
    A64_36  HUB36  1
    A64_37  COST  13.5305544359
    A64_37  SUP64  1
    A64_37  HUB37  1
    A64_38  COST  8.57079666994
    A64_38  SUP64  1
    A64_38  HUB38  1
    A64_39  COST  5.5649220461
    A64_39  SUP64  1
    A64_39  HUB39  1
    A65_2  COST  8.06473197674
    A65_2  SUP65  1
    A65_2  HUB2  1
    A65_4  COST  13.3005158867
    A65_4  SUP65  1
    A65_4  HUB4  1
    A65_7  COST  3.63013686689
    A65_7  SUP65  1
    A65_7  HUB7  1
    A65_8  COST  8.29074588199
    A65_8  SUP65  1
    A65_8  HUB8  1
    A65_9  COST  4.45732833149
    A65_9  SUP65  1
    A65_9  HUB9  1
    A65_11  COST  12.7590540368
    A65_11  SUP65  1
    A65_11  HUB11  1
    A65_13  COST  11.200674489
    A65_13  SUP65  1
    A65_13  HUB13  1
    A65_15  COST  8.28823907254
    A65_15  SUP65  1
    A65_15  HUB15  1
    A65_16  COST  7.73833880039
    A65_16  SUP65  1
    A65_16  HUB16  1
    A65_17  COST  10.1713857964
    A65_17  SUP65  1
    A65_17  HUB17  1
    A65_18  COST  3.17065062949
    A65_18  SUP65  1
    A65_18  HUB18  1
    A65_21  COST  1.55174869846
    A65_21  SUP65  1
    A65_21  HUB21  1
    A65_22  COST  5.96073726286
    A65_22  SUP65  1
    A65_22  HUB22  1
    A65_23  COST  7.47063436269
    A65_23  SUP65  1
    A65_23  HUB23  1
    A65_24  COST  10.8071396538
    A65_24  SUP65  1
    A65_24  HUB24  1
    A65_28  COST  12.1246020815
    A65_28  SUP65  1
    A65_28  HUB28  1
    A65_29  COST  9.50339027625
    A65_29  SUP65  1
    A65_29  HUB29  1
    A65_32  COST  2.47264703588
    A65_32  SUP65  1
    A65_32  HUB32  1
    A65_36  COST  5.18730124386
    A65_36  SUP65  1
    A65_36  HUB36  1
    A65_39  COST  8.79463697486
    A65_39  SUP65  1
    A65_39  HUB39  1
    A66_1  COST  2.11194371377
    A66_1  SUP66  1
    A66_1  HUB1  1
    A66_2  COST  11.9054629658
    A66_2  SUP66  1
    A66_2  HUB2  1
    A66_4  COST  13.5438882439
    A66_4  SUP66  1
    A66_4  HUB4  1
    A66_5  COST  7.58460050572
    A66_5  SUP66  1
    A66_5  HUB5  1
    A66_6  COST  5.38235896566
    A66_6  SUP66  1
    A66_6  HUB6  1
    A66_7  COST  13.8800112633
    A66_7  SUP66  1
    A66_7  HUB7  1
    A66_8  COST  9.87335899204
    A66_8  SUP66  1
    A66_8  HUB8  1
    A66_12  COST  3.11949309741
    A66_12  SUP66  1
    A66_12  HUB12  1
    A66_19  COST  7.77255817173
    A66_19  SUP66  1
    A66_19  HUB19  1
    A66_20  COST  9.01993812206
    A66_20  SUP66  1
    A66_20  HUB20  1
    A66_21  COST  5.10410332139
    A66_21  SUP66  1
    A66_21  HUB21  1
    A66_27  COST  8.66744084795
    A66_27  SUP66  1
    A66_27  HUB27  1
    A66_28  COST  12.2009934983
    A66_28  SUP66  1
    A66_28  HUB28  1
    A66_33  COST  1.08984467247
    A66_33  SUP66  1
    A66_33  HUB33  1
    A66_34  COST  8.064228145
    A66_34  SUP66  1
    A66_34  HUB34  1
    A66_35  COST  1.36748227156
    A66_35  SUP66  1
    A66_35  HUB35  1
    A67_1  COST  13.0527144988
    A67_1  SUP67  1
    A67_1  HUB1  1
    A67_3  COST  13.1365128603
    A67_3  SUP67  1
    A67_3  HUB3  1
    A67_4  COST  10.2376780191
    A67_4  SUP67  1
    A67_4  HUB4  1
    A67_5  COST  9.6139833658
    A67_5  SUP67  1
    A67_5  HUB5  1
    A67_7  COST  7.76625189335
    A67_7  SUP67  1
    A67_7  HUB7  1
    A67_8  COST  1.75403072551
    A67_8  SUP67  1
    A67_8  HUB8  1
    A67_9  COST  5.37256930072
    A67_9  SUP67  1
    A67_9  HUB9  1
    A67_10  COST  7.7596636883
    A67_10  SUP67  1
    A67_10  HUB10  1
    A67_12  COST  8.2746394413
    A67_12  SUP67  1
    A67_12  HUB12  1
    A67_13  COST  13.7656173719
    A67_13  SUP67  1
    A67_13  HUB13  1
    A67_15  COST  2.21772544709
    A67_15  SUP67  1
    A67_15  HUB15  1
    A67_18  COST  1.48329564471
    A67_18  SUP67  1
    A67_18  HUB18  1
    A67_21  COST  7.6459961876
    A67_21  SUP67  1
    A67_21  HUB21  1
    A67_22  COST  9.21644360026
    A67_22  SUP67  1
    A67_22  HUB22  1
    A67_23  COST  1.50688323581
    A67_23  SUP67  1
    A67_23  HUB23  1
    A67_24  COST  4.70180562907
    A67_24  SUP67  1
    A67_24  HUB24  1
    A67_25  COST  8.91388441715
    A67_25  SUP67  1
    A67_25  HUB25  1
    A67_27  COST  9.71969698686
    A67_27  SUP67  1
    A67_27  HUB27  1
    A67_28  COST  12.4886027721
    A67_28  SUP67  1
    A67_28  HUB28  1
    A67_29  COST  11.946347067
    A67_29  SUP67  1
    A67_29  HUB29  1
    A67_30  COST  10.7239288911
    A67_30  SUP67  1
    A67_30  HUB30  1
    A67_31  COST  3.64071947938
    A67_31  SUP67  1
    A67_31  HUB31  1
    A67_33  COST  2.40916943703
    A67_33  SUP67  1
    A67_33  HUB33  1
    A67_34  COST  8.66370732194
    A67_34  SUP67  1
    A67_34  HUB34  1
    A67_35  COST  10.4742476806
    A67_35  SUP67  1
    A67_35  HUB35  1
    A67_37  COST  3.01194167684
    A67_37  SUP67  1
    A67_37  HUB37  1
    A68_3  COST  8.37157841462
    A68_3  SUP68  1
    A68_3  HUB3  1
    A68_4  COST  1.73601074606
    A68_4  SUP68  1
    A68_4  HUB4  1
    A68_6  COST  4.8724197605
    A68_6  SUP68  1
    A68_6  HUB6  1
    A68_10  COST  7.69280756861
    A68_10  SUP68  1
    A68_10  HUB10  1
    A68_11  COST  3.43792465435
    A68_11  SUP68  1
    A68_11  HUB11  1
    A68_12  COST  1.44538228999
    A68_12  SUP68  1
    A68_12  HUB12  1
    A68_15  COST  13.5913504121
    A68_15  SUP68  1
    A68_15  HUB15  1
    A68_17  COST  10.0095548036
    A68_17  SUP68  1
    A68_17  HUB17  1
    A68_18  COST  12.957734076
    A68_18  SUP68  1
    A68_18  HUB18  1
    A68_24  COST  10.264636532
    A68_24  SUP68  1
    A68_24  HUB24  1
    A68_25  COST  4.4615471577
    A68_25  SUP68  1
    A68_25  HUB25  1
    A68_26  COST  3.57130339001
    A68_26  SUP68  1
    A68_26  HUB26  1
    A68_27  COST  12.1174765418
    A68_27  SUP68  1
    A68_27  HUB27  1
    A68_28  COST  11.5694854638
    A68_28  SUP68  1
    A68_28  HUB28  1
    A68_29  COST  6.91228444363
    A68_29  SUP68  1
    A68_29  HUB29  1
    A68_30  COST  4.00898222878
    A68_30  SUP68  1
    A68_30  HUB30  1
    A68_33  COST  5.9145701839
    A68_33  SUP68  1
    A68_33  HUB33  1
    A68_35  COST  4.82242734444
    A68_35  SUP68  1
    A68_35  HUB35  1
    A68_37  COST  8.63438717816
    A68_37  SUP68  1
    A68_37  HUB37  1
    A68_39  COST  3.1402261251
    A68_39  SUP68  1
    A68_39  HUB39  1
    A69_1  COST  10.0728779402
    A69_1  SUP69  1
    A69_1  HUB1  1
    A69_2  COST  3.82748803381
    A69_2  SUP69  1
    A69_2  HUB2  1
    A69_5  COST  8.33781848667
    A69_5  SUP69  1
    A69_5  HUB5  1
    A69_7  COST  6.63018638742
    A69_7  SUP69  1
    A69_7  HUB7  1
    A69_8  COST  11.0986836636
    A69_8  SUP69  1
    A69_8  HUB8  1
    A69_9  COST  9.69480351508
    A69_9  SUP69  1
    A69_9  HUB9  1
    A69_12  COST  4.94013554639
    A69_12  SUP69  1
    A69_12  HUB12  1
    A69_13  COST  8.56784860696
    A69_13  SUP69  1
    A69_13  HUB13  1
    A69_16  COST  3.53965886812
    A69_16  SUP69  1
    A69_16  HUB16  1
    A69_18  COST  11.1542728783
    A69_18  SUP69  1
    A69_18  HUB18  1
    A69_19  COST  5.52970931484
    A69_19  SUP69  1
    A69_19  HUB19  1
    A69_21  COST  10.6126858545
    A69_21  SUP69  1
    A69_21  HUB21  1
    A69_24  COST  5.19521626156
    A69_24  SUP69  1
    A69_24  HUB24  1
    A69_25  COST  11.2932631308
    A69_25  SUP69  1
    A69_25  HUB25  1
    A69_28  COST  12.0901713193
    A69_28  SUP69  1
    A69_28  HUB28  1
    A69_32  COST  6.48123528861
    A69_32  SUP69  1
    A69_32  HUB32  1
    A69_36  COST  11.7305803345
    A69_36  SUP69  1
    A69_36  HUB36  1
    A69_37  COST  12.363674741
    A69_37  SUP69  1
    A69_37  HUB37  1
    A69_38  COST  5.35945201145
    A69_38  SUP69  1
    A69_38  HUB38  1
    A69_39  COST  11.2190310292
    A69_39  SUP69  1
    A69_39  HUB39  1
    B0_2  COST  7.58841395955
    B0_2  HUB0  -1
    B0_2  DEM2  1
    B0_3  COST  3.81849423418
    B0_3  HUB0  -1
    B0_3  DEM3  1
    B0_5  COST  7.93618626153
    B0_5  HUB0  -1
    B0_5  DEM5  1
    B0_7  COST  7.77516104534
    B0_7  HUB0  -1
    B0_7  DEM7  1
    B0_9  COST  4.7941553387
    B0_9  HUB0  -1
    B0_9  DEM9  1
    B0_10  COST  6.33417096145
    B0_10  HUB0  -1
    B0_10  DEM10  1
    B0_15  COST  8.5095930984
    B0_15  HUB0  -1
    B0_15  DEM15  1
    B0_16  COST  6.44781788805
    B0_16  HUB0  -1
    B0_16  DEM16  1
    B0_18  COST  5.36745611933
    B0_18  HUB0  -1
    B0_18  DEM18  1
    B0_19  COST  2.67831954452
    B0_19  HUB0  -1
    B0_19  DEM19  1
    B0_23  COST  2.33470587847
    B0_23  HUB0  -1
    B0_23  DEM23  1
    B0_24  COST  1.59296260019
    B0_24  HUB0  -1
    B0_24  DEM24  1
    B0_29  COST  8.34741575626
    B0_29  HUB0  -1
    B0_29  DEM29  1
    B0_31  COST  4.18582603703
    B0_31  HUB0  -1
    B0_31  DEM31  1
    B0_33  COST  4.74242901236
    B0_33  HUB0  -1
    B0_33  DEM33  1
    B0_34  COST  11.9589537337
    B0_34  HUB0  -1
    B0_34  DEM34  1
    B0_38  COST  10.3664994351
    B0_38  HUB0  -1
    B0_38  DEM38  1
    B0_41  COST  9.79193297764
    B0_41  HUB0  -1
    B0_41  DEM41  1
    B0_44  COST  3.9672246626
    B0_44  HUB0  -1
    B0_44  DEM44  1
    B0_51  COST  11.5948598865
    B0_51  HUB0  -1
    B0_51  DEM51  1
    B0_57  COST  5.13964019206
    B0_57  HUB0  -1
    B0_57  DEM57  1
    B0_59  COST  8.86586171612
    B0_59  HUB0  -1
    B0_59  DEM59  1
    B0_60  COST  5.69796241417
    B0_60  HUB0  -1
    B0_60  DEM60  1
    B0_63  COST  11.9264799462
    B0_63  HUB0  -1
    B0_63  DEM63  1
    B0_67  COST  3.62175843268
    B0_67  HUB0  -1
    B0_67  DEM67  1
    B0_68  COST  6.434837103
    B0_68  HUB0  -1
    B0_68  DEM68  1
    B0_70  COST  9.70167680682
    B0_70  HUB0  -1
    B0_70  DEM70  1
    B0_73  COST  11.8465288575
    B0_73  HUB0  -1
    B0_73  DEM73  1
    B0_80  COST  5.30409870424
    B0_80  HUB0  -1
    B0_80  DEM80  1
    B0_82  COST  11.7864182212
    B0_82  HUB0  -1
    B0_82  DEM82  1
    B0_88  COST  8.93344926732
    B0_88  HUB0  -1
    B0_88  DEM88  1
    B0_89  COST  4.7634706148
    B0_89  HUB0  -1
    B0_89  DEM89  1
    B0_91  COST  1.6083165301
    B0_91  HUB0  -1
    B0_91  DEM91  1
    B0_94  COST  1.35747970225
    B0_94  HUB0  -1
    B0_94  DEM94  1
    B0_95  COST  4.76380156883
    B0_95  HUB0  -1
    B0_95  DEM95  1
    B0_96  COST  8.13935214668
    B0_96  HUB0  -1
    B0_96  DEM96  1
    B0_102  COST  7.13637110318
    B0_102  HUB0  -1
    B0_102  DEM102  1
    B0_105  COST  10.4841110415
    B0_105  HUB0  -1
    B0_105  DEM105  1
    B0_109  COST  8.73233174013
    B0_109  HUB0  -1
    B0_109  DEM109  1
    B1_7  COST  13.0309317557
    B1_7  HUB1  -1
    B1_7  DEM7  1
    B1_8  COST  5.21161568815
    B1_8  HUB1  -1
    B1_8  DEM8  1
    B1_10  COST  5.77719869201
    B1_10  HUB1  -1
    B1_10  DEM10  1
    B1_13  COST  4.08707522073
    B1_13  HUB1  -1
    B1_13  DEM13  1
    B1_16  COST  8.97921747893
    B1_16  HUB1  -1
    B1_16  DEM16  1
    B1_17  COST  10.3921160806
    B1_17  HUB1  -1
    B1_17  DEM17  1
    B1_19  COST  12.899387558
    B1_19  HUB1  -1
    B1_19  DEM19  1
    B1_20  COST  12.2469936697
    B1_20  HUB1  -1
    B1_20  DEM20  1
    B1_21  COST  6.64403263287
    B1_21  HUB1  -1
    B1_21  DEM21  1
    B1_27  COST  8.47709316338
    B1_27  HUB1  -1
    B1_27  DEM27  1
    B1_28  COST  9.98552304683
    B1_28  HUB1  -1
    B1_28  DEM28  1
    B1_30  COST  3.4266223172
    B1_30  HUB1  -1
    B1_30  DEM30  1
    B1_32  COST  5.00604410517
    B1_32  HUB1  -1
    B1_32  DEM32  1
    B1_36  COST  13.1780159526
    B1_36  HUB1  -1
    B1_36  DEM36  1
    B1_37  COST  4.86977486068
    B1_37  HUB1  -1
    B1_37  DEM37  1
    B1_38  COST  8.52651288801
    B1_38  HUB1  -1
    B1_38  DEM38  1
    B1_39  COST  10.0771626518
    B1_39  HUB1  -1
    B1_39  DEM39  1
    B1_40  COST  7.4310260901
    B1_40  HUB1  -1
    B1_40  DEM40  1
    B1_42  COST  2.75530418296
    B1_42  HUB1  -1
    B1_42  DEM42  1
    B1_43  COST  9.94288588555
    B1_43  HUB1  -1
    B1_43  DEM43  1
    B1_48  COST  3.65130969679
    B1_48  HUB1  -1
    B1_48  DEM48  1
    B1_49  COST  4.09827682974
    B1_49  HUB1  -1
    B1_49  DEM49  1
    B1_50  COST  11.8682690399
    B1_50  HUB1  -1
    B1_50  DEM50  1
    B1_54  COST  2.18256407382
    B1_54  HUB1  -1
    B1_54  DEM54  1
    B1_56  COST  3.18155476686
    B1_56  HUB1  -1
    B1_56  DEM56  1
    B1_58  COST  11.5756192276
    B1_58  HUB1  -1
    B1_58  DEM58  1
    B1_61  COST  5.68830445275
    B1_61  HUB1  -1
    B1_61  DEM61  1
    B1_63  COST  5.57688380343
    B1_63  HUB1  -1
    B1_63  DEM63  1
    B1_64  COST  1.67289479453
    B1_64  HUB1  -1
    B1_64  DEM64  1
    B1_65  COST  1.20168430558
    B1_65  HUB1  -1
    B1_65  DEM65  1
    B1_66  COST  13.4552399313
    B1_66  HUB1  -1
    B1_66  DEM66  1
    B1_68  COST  10.3538712858
    B1_68  HUB1  -1
    B1_68  DEM68  1
    B1_74  COST  11.9533368871
    B1_74  HUB1  -1
    B1_74  DEM74  1
    B1_75  COST  3.28948741471
    B1_75  HUB1  -1
    B1_75  DEM75  1
    B1_79  COST  3.40313010824
    B1_79  HUB1  -1
    B1_79  DEM79  1
    B1_80  COST  10.0854220745
    B1_80  HUB1  -1
    B1_80  DEM80  1
    B1_81  COST  4.13452657344
    B1_81  HUB1  -1
    B1_81  DEM81  1
    B1_85  COST  9.51897652068
    B1_85  HUB1  -1
    B1_85  DEM85  1
    B1_87  COST  4.51700610702
    B1_87  HUB1  -1
    B1_87  DEM87  1
    B1_91  COST  13.2402423419
    B1_91  HUB1  -1
    B1_91  DEM91  1
    B1_92  COST  9.71335485945
    B1_92  HUB1  -1
    B1_92  DEM92  1
    B1_94  COST  7.21059694044
    B1_94  HUB1  -1
    B1_94  DEM94  1
    B1_100  COST  3.73824738827
    B1_100  HUB1  -1
    B1_100  DEM100  1
    B1_103  COST  6.20753894606
    B1_103  HUB1  -1
    B1_103  DEM103  1
    B1_104  COST  6.30533363843
    B1_104  HUB1  -1
    B1_104  DEM104  1
    B1_105  COST  9.27959213994
    B1_105  HUB1  -1
    B1_105  DEM105  1
    B1_107  COST  6.38022424604
    B1_107  HUB1  -1
    B1_107  DEM107  1
    B1_109  COST  3.4239921214
    B1_109  HUB1  -1
    B1_109  DEM109  1
    B2_0  COST  9.45829991178
    B2_0  HUB2  -1
    B2_0  DEM0  1
    B2_5  COST  4.29028433875
    B2_5  HUB2  -1
    B2_5  DEM5  1
    B2_6  COST  1.88900942147
    B2_6  HUB2  -1
    B2_6  DEM6  1
    B2_8  COST  7.93226615764
    B2_8  HUB2  -1
    B2_8  DEM8  1
    B2_13  COST  6.58435717931
    B2_13  HUB2  -1
    B2_13  DEM13  1
    B2_15  COST  8.49407076346
    B2_15  HUB2  -1
    B2_15  DEM15  1
    B2_16  COST  11.537409632
    B2_16  HUB2  -1
    B2_16  DEM16  1
    B2_25  COST  2.60602683617
    B2_25  HUB2  -1
    B2_25  DEM25  1
    B2_27  COST  10.4067041048
    B2_27  HUB2  -1
    B2_27  DEM27  1
    B2_32  COST  12.7057480428
    B2_32  HUB2  -1
    B2_32  DEM32  1
    B2_34  COST  4.53790574024
    B2_34  HUB2  -1
    B2_34  DEM34  1
    B2_36  COST  1.75536309227
    B2_36  HUB2  -1
    B2_36  DEM36  1
    B2_40  COST  4.70351213081
    B2_40  HUB2  -1
    B2_40  DEM40  1
    B2_41  COST  2.7329425114
    B2_41  HUB2  -1
    B2_41  DEM41  1
    B2_42  COST  12.3150636744
    B2_42  HUB2  -1
    B2_42  DEM42  1
    B2_43  COST  10.7991972488
    B2_43  HUB2  -1
    B2_43  DEM43  1
    B2_45  COST  13.3159587289
    B2_45  HUB2  -1
    B2_45  DEM45  1
    B2_49  COST  13.1676416709
    B2_49  HUB2  -1
    B2_49  DEM49  1
    B2_50  COST  5.13127271387
    B2_50  HUB2  -1
    B2_50  DEM50  1
    B2_51  COST  13.4904693187
    B2_51  HUB2  -1
    B2_51  DEM51  1
    B2_52  COST  6.53485763683
    B2_52  HUB2  -1
    B2_52  DEM52  1
    B2_53  COST  8.46356181661
    B2_53  HUB2  -1
    B2_53  DEM53  1
    B2_54  COST  1.96984765332
    B2_54  HUB2  -1
    B2_54  DEM54  1
    B2_58  COST  13.3839040621
    B2_58  HUB2  -1
    B2_58  DEM58  1
    B2_59  COST  8.6617995203
    B2_59  HUB2  -1
    B2_59  DEM59  1
    B2_61  COST  10.6192276572
    B2_61  HUB2  -1
    B2_61  DEM61  1
    B2_64  COST  7.22654927592
    B2_64  HUB2  -1
    B2_64  DEM64  1
    B2_69  COST  4.06431367211
    B2_69  HUB2  -1
    B2_69  DEM69  1
    B2_71  COST  6.92287419748
    B2_71  HUB2  -1
    B2_71  DEM71  1
    B2_73  COST  11.110812274
    B2_73  HUB2  -1
    B2_73  DEM73  1
    B2_74  COST  12.2375278712
    B2_74  HUB2  -1
    B2_74  DEM74  1
    B2_76  COST  12.6295213733
    B2_76  HUB2  -1
    B2_76  DEM76  1
    B2_81  COST  3.89241909274
    B2_81  HUB2  -1
    B2_81  DEM81  1
    B2_89  COST  5.77959332924
    B2_89  HUB2  -1
    B2_89  DEM89  1
    B2_91  COST  10.3106845829
    B2_91  HUB2  -1
    B2_91  DEM91  1
    B2_92  COST  7.50315849964
    B2_92  HUB2  -1
    B2_92  DEM92  1
    B2_94  COST  2.32923220821
    B2_94  HUB2  -1
    B2_94  DEM94  1
    B2_97  COST  10.0897898693
    B2_97  HUB2  -1
    B2_97  DEM97  1
    B2_103  COST  10.9355390915
    B2_103  HUB2  -1
    B2_103  DEM103  1
    B2_105  COST  8.51378859395
    B2_105  HUB2  -1
    B2_105  DEM105  1
    B2_106  COST  7.27178484737
    B2_106  HUB2  -1
    B2_106  DEM106  1
    B2_107  COST  7.30897414073
    B2_107  HUB2  -1
    B2_107  DEM107  1
    B2_108  COST  10.1633515683
    B2_108  HUB2  -1
    B2_108  DEM108  1
    B3_0  COST  13.4886854823
    B3_0  HUB3  -1
    B3_0  DEM0  1
    B3_1  COST  8.89078218846
    B3_1  HUB3  -1
    B3_1  DEM1  1
    B3_3  COST  1.150128871
    B3_3  HUB3  -1
    B3_3  DEM3  1
    B3_5  COST  13.6449560487
    B3_5  HUB3  -1
    B3_5  DEM5  1
    B3_7  COST  8.84996723058
    B3_7  HUB3  -1
    B3_7  DEM7  1
    B3_9  COST  13.6534860174
    B3_9  HUB3  -1
    B3_9  DEM9  1
    B3_12  COST  7.24241736083
    B3_12  HUB3  -1
    B3_12  DEM12  1
    B3_14  COST  2.33888370195
    B3_14  HUB3  -1
    B3_14  DEM14  1
    B3_16  COST  6.59509316488
    B3_16  HUB3  -1
    B3_16  DEM16  1
    B3_17  COST  10.5183603928
    B3_17  HUB3  -1
    B3_17  DEM17  1
    B3_18  COST  13.1896455574
    B3_18  HUB3  -1
    B3_18  DEM18  1
    B3_22  COST  11.083311552
    B3_22  HUB3  -1
    B3_22  DEM22  1
    B3_24  COST  11.7138791162
    B3_24  HUB3  -1
    B3_24  DEM24  1
    B3_26  COST  13.142047169
    B3_26  HUB3  -1
    B3_26  DEM26  1
    B3_29  COST  8.26512384472
    B3_29  HUB3  -1
    B3_29  DEM29  1
    B3_32  COST  9.77485623188
    B3_32  HUB3  -1
    B3_32  DEM32  1
    B3_35  COST  5.82866187067
    B3_35  HUB3  -1
    B3_35  DEM35  1
    B3_40  COST  12.7578266553
    B3_40  HUB3  -1
    B3_40  DEM40  1
    B3_43  COST  1.65332896521
    B3_43  HUB3  -1
    B3_43  DEM43  1
    B3_44  COST  3.13131834814
    B3_44  HUB3  -1
    B3_44  DEM44  1
    B3_48  COST  2.57425409514
    B3_48  HUB3  -1
    B3_48  DEM48  1
    B3_50  COST  6.93673033641
    B3_50  HUB3  -1
    B3_50  DEM50  1
    B3_51  COST  12.117264489
    B3_51  HUB3  -1
    B3_51  DEM51  1
    B3_52  COST  3.74875283858
    B3_52  HUB3  -1
    B3_52  DEM52  1
    B3_55  COST  12.7189254355
    B3_55  HUB3  -1
    B3_55  DEM55  1
    B3_56  COST  5.08139091
    B3_56  HUB3  -1
    B3_56  DEM56  1
    B3_57  COST  10.5786603159
    B3_57  HUB3  -1
    B3_57  DEM57  1
    B3_59  COST  9.28437656428
    B3_59  HUB3  -1
    B3_59  DEM59  1
    B3_61  COST  1.37293971603
    B3_61  HUB3  -1
    B3_61  DEM61  1
    B3_64  COST  3.76100722208
    B3_64  HUB3  -1
    B3_64  DEM64  1
    B3_66  COST  12.9049855323
    B3_66  HUB3  -1
    B3_66  DEM66  1
    B3_67  COST  6.75369303991
    B3_67  HUB3  -1
    B3_67  DEM67  1
    B3_68  COST  3.76956755504
    B3_68  HUB3  -1
    B3_68  DEM68  1
    B3_72  COST  7.80452499359
    B3_72  HUB3  -1
    B3_72  DEM72  1
    B3_73  COST  10.4062063462
    B3_73  HUB3  -1
    B3_73  DEM73  1
    B3_74  COST  12.9668877616
    B3_74  HUB3  -1
    B3_74  DEM74  1
    B3_76  COST  6.84898869935
    B3_76  HUB3  -1
    B3_76  DEM76  1
    B3_77  COST  7.20320175668
    B3_77  HUB3  -1
    B3_77  DEM77  1
    B3_78  COST  6.99565109841
    B3_78  HUB3  -1
    B3_78  DEM78  1
    B3_80  COST  10.9362508073
    B3_80  HUB3  -1
    B3_80  DEM80  1
    B3_81  COST  8.26841892096
    B3_81  HUB3  -1
    B3_81  DEM81  1
    B3_82  COST  11.5181896688
    B3_82  HUB3  -1
    B3_82  DEM82  1
    B3_86  COST  12.2420447036
    B3_86  HUB3  -1
    B3_86  DEM86  1
    B3_89  COST  2.17426096354
    B3_89  HUB3  -1
    B3_89  DEM89  1
    B3_93  COST  9.38360685353
    B3_93  HUB3  -1
    B3_93  DEM93  1
    B3_96  COST  2.95028978621
    B3_96  HUB3  -1
    B3_96  DEM96  1
    B3_98  COST  13.7172829107
    B3_98  HUB3  -1
    B3_98  DEM98  1
    B3_99  COST  10.9537360227
    B3_99  HUB3  -1
    B3_99  DEM99  1
    B3_102  COST  7.95560125869
    B3_102  HUB3  -1
    B3_102  DEM102  1
    B3_104  COST  4.96392761313
    B3_104  HUB3  -1
    B3_104  DEM104  1
    B3_107  COST  7.12366357214
    B3_107  HUB3  -1
    B3_107  DEM107  1
    B4_3  COST  7.29360877727
    B4_3  HUB4  -1
    B4_3  DEM3  1
    B4_5  COST  11.2458430029
    B4_5  HUB4  -1
    B4_5  DEM5  1
    B4_11  COST  4.74506895337
    B4_11  HUB4  -1
    B4_11  DEM11  1
    B4_12  COST  10.7295020091
    B4_12  HUB4  -1
    B4_12  DEM12  1
    B4_14  COST  2.37735826106
    B4_14  HUB4  -1
    B4_14  DEM14  1
    B4_15  COST  5.91919384742
    B4_15  HUB4  -1
    B4_15  DEM15  1
    B4_16  COST  13.1410002782
    B4_16  HUB4  -1
    B4_16  DEM16  1
    B4_19  COST  6.65438816451
    B4_19  HUB4  -1
    B4_19  DEM19  1
    B4_20  COST  12.4962119542
    B4_20  HUB4  -1
    B4_20  DEM20  1
    B4_21  COST  9.14622410914
    B4_21  HUB4  -1
    B4_21  DEM21  1
    B4_22  COST  4.86189579402
    B4_22  HUB4  -1
    B4_22  DEM22  1
    B4_23  COST  6.15933530754
    B4_23  HUB4  -1
    B4_23  DEM23  1
    B4_26  COST  8.12017927809
    B4_26  HUB4  -1
    B4_26  DEM26  1
    B4_27  COST  4.339892704
    B4_27  HUB4  -1
    B4_27  DEM27  1
    B4_30  COST  13.8180572224
    B4_30  HUB4  -1
    B4_30  DEM30  1
    B4_32  COST  3.010506396
    B4_32  HUB4  -1
    B4_32  DEM32  1
    B4_34  COST  6.04583902127
    B4_34  HUB4  -1
    B4_34  DEM34  1
    B4_39  COST  3.90610157221
    B4_39  HUB4  -1
    B4_39  DEM39  1
    B4_40  COST  9.22996642189
    B4_40  HUB4  -1
    B4_40  DEM40  1
    B4_43  COST  11.8399597954
    B4_43  HUB4  -1
    B4_43  DEM43  1
    B4_46  COST  6.22419825343
    B4_46  HUB4  -1
    B4_46  DEM46  1
    B4_47  COST  5.31926192971
    B4_47  HUB4  -1
    B4_47  DEM47  1
    B4_48  COST  1.70643240481
    B4_48  HUB4  -1
    B4_48  DEM48  1
    B4_50  COST  12.7208203324
    B4_50  HUB4  -1
    B4_50  DEM50  1
    B4_52  COST  5.3983519089
    B4_52  HUB4  -1
    B4_52  DEM52  1
    B4_55  COST  9.95552611216
    B4_55  HUB4  -1
    B4_55  DEM55  1
    B4_56  COST  10.9742144426
    B4_56  HUB4  -1
    B4_56  DEM56  1
    B4_59  COST  10.676481024
    B4_59  HUB4  -1
    B4_59  DEM59  1
    B4_63  COST  7.55876269618
    B4_63  HUB4  -1
    B4_63  DEM63  1
    B4_68  COST  6.23009263555
    B4_68  HUB4  -1
    B4_68  DEM68  1
    B4_69  COST  12.2408271922
    B4_69  HUB4  -1
    B4_69  DEM69  1
    B4_71  COST  4.67772784397
    B4_71  HUB4  -1
    B4_71  DEM71  1
    B4_72  COST  7.2167751005
    B4_72  HUB4  -1
    B4_72  DEM72  1
    B4_73  COST  11.867489319
    B4_73  HUB4  -1
    B4_73  DEM73  1
    B4_77  COST  4.19477506215
    B4_77  HUB4  -1
    B4_77  DEM77  1
    B4_78  COST  10.8961262735
    B4_78  HUB4  -1
    B4_78  DEM78  1
    B4_79  COST  3.11266189428
    B4_79  HUB4  -1
    B4_79  DEM79  1
    B4_80  COST  7.07084271771
    B4_80  HUB4  -1
    B4_80  DEM80  1
    B4_81  COST  13.3381104105
    B4_81  HUB4  -1
    B4_81  DEM81  1
    B4_82  COST  9.12343082105
    B4_82  HUB4  -1
    B4_82  DEM82  1
    B4_84  COST  5.74124106389
    B4_84  HUB4  -1
    B4_84  DEM84  1
    B4_85  COST  13.05583186
    B4_85  HUB4  -1
    B4_85  DEM85  1
    B4_87  COST  12.7403214258
    B4_87  HUB4  -1
    B4_87  DEM87  1
    B4_89  COST  4.79889129271
    B4_89  HUB4  -1
    B4_89  DEM89  1
    B4_93  COST  2.6080820698
    B4_93  HUB4  -1
    B4_93  DEM93  1
    B4_96  COST  6.89721819384
    B4_96  HUB4  -1
    B4_96  DEM96  1
    B4_97  COST  10.7135560791
    B4_97  HUB4  -1
    B4_97  DEM97  1
    B4_98  COST  1.44371847359
    B4_98  HUB4  -1
    B4_98  DEM98  1
    B4_99  COST  6.97687049389
    B4_99  HUB4  -1
    B4_99  DEM99  1
    B4_100  COST  9.50788111233
    B4_100  HUB4  -1
    B4_100  DEM100  1
    B4_103  COST  6.47075532335
    B4_103  HUB4  -1
    B4_103  DEM103  1
    B4_106  COST  2.26408948869
    B4_106  HUB4  -1
    B4_106  DEM106  1
    B4_107  COST  10.3280558702
    B4_107  HUB4  -1
    B4_107  DEM107  1
    B4_108  COST  1.8018917555
    B4_108  HUB4  -1
    B4_108  DEM108  1
    B5_1  COST  2.38476966925
    B5_1  HUB5  -1
    B5_1  DEM1  1
    B5_3  COST  12.7845179511
    B5_3  HUB5  -1
    B5_3  DEM3  1
    B5_7  COST  13.2024979711
    B5_7  HUB5  -1
    B5_7  DEM7  1
    B5_8  COST  1.77418114999
    B5_8  HUB5  -1
    B5_8  DEM8  1
    B5_9  COST  11.1812492366
    B5_9  HUB5  -1
    B5_9  DEM9  1
    B5_10  COST  1.42054729144
    B5_10  HUB5  -1
    B5_10  DEM10  1
    B5_11  COST  5.37770097125
    B5_11  HUB5  -1
    B5_11  DEM11  1
    B5_13  COST  3.68795701112
    B5_13  HUB5  -1
    B5_13  DEM13  1
    B5_14  COST  5.03532045991
    B5_14  HUB5  -1
    B5_14  DEM14  1
    B5_15  COST  12.6659154062
    B5_15  HUB5  -1
    B5_15  DEM15  1
    B5_17  COST  6.86473634364
    B5_17  HUB5  -1
    B5_17  DEM17  1
    B5_18  COST  4.36770310041
    B5_18  HUB5  -1
    B5_18  DEM18  1
    B5_19  COST  7.53404491543
    B5_19  HUB5  -1
    B5_19  DEM19  1
    B5_26  COST  12.6732300837
    B5_26  HUB5  -1
    B5_26  DEM26  1
    B5_28  COST  13.4484333079
    B5_28  HUB5  -1
    B5_28  DEM28  1
    B5_30  COST  6.32875813547
    B5_30  HUB5  -1
    B5_30  DEM30  1
    B5_31  COST  4.28750039078
    B5_31  HUB5  -1
    B5_31  DEM31  1
    B5_32  COST  12.2525804832
    B5_32  HUB5  -1
    B5_32  DEM32  1
    B5_33  COST  11.6707842687
    B5_33  HUB5  -1
    B5_33  DEM33  1
    B5_36  COST  3.17966135384
    B5_36  HUB5  -1
    B5_36  DEM36  1
    B5_37  COST  5.80551340815
    B5_37  HUB5  -1
    B5_37  DEM37  1
    B5_38  COST  7.85739227609
    B5_38  HUB5  -1
    B5_38  DEM38  1
    B5_39  COST  2.20236151451
    B5_39  HUB5  -1
    B5_39  DEM39  1
    B5_43  COST  4.41382054847
    B5_43  HUB5  -1
    B5_43  DEM43  1
    B5_44  COST  5.06393568776
    B5_44  HUB5  -1
    B5_44  DEM44  1
    B5_52  COST  9.55777059098
    B5_52  HUB5  -1
    B5_52  DEM52  1
    B5_55  COST  8.18928077552
    B5_55  HUB5  -1
    B5_55  DEM55  1
    B5_56  COST  3.84015900107
    B5_56  HUB5  -1
    B5_56  DEM56  1
    B5_59  COST  2.62998630143
    B5_59  HUB5  -1
    B5_59  DEM59  1
    B5_60  COST  3.38729625825
    B5_60  HUB5  -1
    B5_60  DEM60  1
    B5_61  COST  12.3193504502
    B5_61  HUB5  -1
    B5_61  DEM61  1
    B5_65  COST  9.23650067188
    B5_65  HUB5  -1
    B5_65  DEM65  1
    B5_66  COST  2.16154947973
    B5_66  HUB5  -1
    B5_66  DEM66  1
    B5_68  COST  4.39084227123
    B5_68  HUB5  -1
    B5_68  DEM68  1
    B5_71  COST  9.99557138868
    B5_71  HUB5  -1
    B5_71  DEM71  1
    B5_73  COST  9.17034615022
    B5_73  HUB5  -1
    B5_73  DEM73  1
    B5_82  COST  11.4988502398
    B5_82  HUB5  -1
    B5_82  DEM82  1
    B5_84  COST  6.58135266524
    B5_84  HUB5  -1
    B5_84  DEM84  1
    B5_85  COST  2.43525352993
    B5_85  HUB5  -1
    B5_85  DEM85  1
    B5_87  COST  6.77154242949
    B5_87  HUB5  -1
    B5_87  DEM87  1
    B5_90  COST  10.1184890035
    B5_90  HUB5  -1
    B5_90  DEM90  1
    B5_91  COST  3.30104713923
    B5_91  HUB5  -1
    B5_91  DEM91  1
    B5_95  COST  5.251469798
    B5_95  HUB5  -1
    B5_95  DEM95  1
    B5_96  COST  13.2248427021
    B5_96  HUB5  -1
    B5_96  DEM96  1
    B5_98  COST  5.97585940533
    B5_98  HUB5  -1
    B5_98  DEM98  1
    B5_99  COST  6.46057915418
    B5_99  HUB5  -1
    B5_99  DEM99  1
    B5_103  COST  3.31157407567
    B5_103  HUB5  -1
    B5_103  DEM103  1
    B5_104  COST  2.70860134594
    B5_104  HUB5  -1
    B5_104  DEM104  1
    B5_107  COST  9.58681835529
    B5_107  HUB5  -1
    B5_107  DEM107  1
    B5_109  COST  10.0873567206
    B5_109  HUB5  -1
    B5_109  DEM109  1
    B6_1  COST  2.61113601348
    B6_1  HUB6  -1
    B6_1  DEM1  1
    B6_4  COST  8.95067414039
    B6_4  HUB6  -1
    B6_4  DEM4  1
    B6_9  COST  9.78724216889
    B6_9  HUB6  -1
    B6_9  DEM9  1
    B6_11  COST  11.0328417741
    B6_11  HUB6  -1
    B6_11  DEM11  1
    B6_16  COST  1.74959062977
    B6_16  HUB6  -1
    B6_16  DEM16  1
    B6_20  COST  5.19023101256
    B6_20  HUB6  -1
    B6_20  DEM20  1
    B6_23  COST  8.09803674936
    B6_23  HUB6  -1
    B6_23  DEM23  1
    B6_26  COST  11.8910932283
    B6_26  HUB6  -1
    B6_26  DEM26  1
    B6_28  COST  10.8639332345
    B6_28  HUB6  -1
    B6_28  DEM28  1
    B6_29  COST  4.81435161152
    B6_29  HUB6  -1
    B6_29  DEM29  1
    B6_32  COST  2.31042030659
    B6_32  HUB6  -1
    B6_32  DEM32  1
    B6_33  COST  9.12053027463
    B6_33  HUB6  -1
    B6_33  DEM33  1
    B6_38  COST  3.38145785043
    B6_38  HUB6  -1
    B6_38  DEM38  1
    B6_40  COST  1.88723304668
    B6_40  HUB6  -1
    B6_40  DEM40  1
    B6_41  COST  8.67280378568
    B6_41  HUB6  -1
    B6_41  DEM41  1
    B6_42  COST  13.1116397056
    B6_42  HUB6  -1
    B6_42  DEM42  1
    B6_43  COST  8.67181336545
    B6_43  HUB6  -1
    B6_43  DEM43  1
    B6_46  COST  8.60717661338
    B6_46  HUB6  -1
    B6_46  DEM46  1
    B6_53  COST  4.28159754552
    B6_53  HUB6  -1
    B6_53  DEM53  1
    B6_54  COST  12.0879594069
    B6_54  HUB6  -1
    B6_54  DEM54  1
    B6_57  COST  3.30706334002
    B6_57  HUB6  -1
    B6_57  DEM57  1
    B6_70  COST  6.66272190224
    B6_70  HUB6  -1
    B6_70  DEM70  1
    B6_71  COST  3.59500913626
    B6_71  HUB6  -1
    B6_71  DEM71  1
    B6_73  COST  6.78492086904
    B6_73  HUB6  -1
    B6_73  DEM73  1
    B6_78  COST  2.21803294553
    B6_78  HUB6  -1
    B6_78  DEM78  1
    B6_82  COST  11.3099961471
    B6_82  HUB6  -1
    B6_82  DEM82  1
    B6_83  COST  6.47735657052
    B6_83  HUB6  -1
    B6_83  DEM83  1
    B6_84  COST  1.50268594237
    B6_84  HUB6  -1
    B6_84  DEM84  1
    B6_85  COST  7.35813462123
    B6_85  HUB6  -1
    B6_85  DEM85  1
    B6_86  COST  4.15342401612
    B6_86  HUB6  -1
    B6_86  DEM86  1
    B6_88  COST  8.13795134068
    B6_88  HUB6  -1
    B6_88  DEM88  1
    B6_89  COST  3.1427447489
    B6_89  HUB6  -1
    B6_89  DEM89  1
    B6_91  COST  3.0153297896
    B6_91  HUB6  -1
    B6_91  DEM91  1
    B6_94  COST  13.0151241917
    B6_94  HUB6  -1
    B6_94  DEM94  1
    B6_96  COST  3.08138308982
    B6_96  HUB6  -1
    B6_96  DEM96  1
    B6_97  COST  13.7756683077
    B6_97  HUB6  -1
    B6_97  DEM97  1
    B6_98  COST  8.42171669046
    B6_98  HUB6  -1
    B6_98  DEM98  1
    B6_102  COST  9.96504723746
    B6_102  HUB6  -1
    B6_102  DEM102  1
    B6_103  COST  2.78002508907
    B6_103  HUB6  -1
    B6_103  DEM103  1
    B6_104  COST  6.26011538158
    B6_104  HUB6  -1
    B6_104  DEM104  1
    B6_107  COST  5.31657218914
    B6_107  HUB6  -1
    B6_107  DEM107  1
    B7_0  COST  1.1081142803
    B7_0  HUB7  -1
    B7_0  DEM0  1
    B7_4  COST  10.1714632718
    B7_4  HUB7  -1
    B7_4  DEM4  1
    B7_5  COST  1.07963696024
    B7_5  HUB7  -1
    B7_5  DEM5  1
    B7_14  COST  11.2125983053
    B7_14  HUB7  -1
    B7_14  DEM14  1
    B7_15  COST  8.49931646431
    B7_15  HUB7  -1
    B7_15  DEM15  1
    B7_16  COST  10.4185053892
    B7_16  HUB7  -1
    B7_16  DEM16  1
    B7_23  COST  9.77900959021
    B7_23  HUB7  -1
    B7_23  DEM23  1
    B7_24  COST  2.64871778287
    B7_24  HUB7  -1
    B7_24  DEM24  1
    B7_25  COST  12.6937109908
    B7_25  HUB7  -1
    B7_25  DEM25  1
    B7_26  COST  3.48962477572
    B7_26  HUB7  -1
    B7_26  DEM26  1
    B7_27  COST  9.49582821126
    B7_27  HUB7  -1
    B7_27  DEM27  1
    B7_33  COST  8.91938898716
    B7_33  HUB7  -1
    B7_33  DEM33  1
    B7_34  COST  10.0054061362
    B7_34  HUB7  -1
    B7_34  DEM34  1
    B7_35  COST  9.4133907873
    B7_35  HUB7  -1
    B7_35  DEM35  1
    B7_39  COST  7.37982379971
    B7_39  HUB7  -1
    B7_39  DEM39  1
    B7_40  COST  5.49574627506
    B7_40  HUB7  -1
    B7_40  DEM40  1
    B7_42  COST  4.80873197378
    B7_42  HUB7  -1
    B7_42  DEM42  1
    B7_44  COST  4.31374859656
    B7_44  HUB7  -1
    B7_44  DEM44  1
    B7_47  COST  3.906490503
    B7_47  HUB7  -1
    B7_47  DEM47  1
    B7_48  COST  12.6001925131
    B7_48  HUB7  -1
    B7_48  DEM48  1
    B7_49  COST  12.9015392601
    B7_49  HUB7  -1
    B7_49  DEM49  1
    B7_51  COST  5.24125954318
    B7_51  HUB7  -1
    B7_51  DEM51  1
    B7_54  COST  13.3237211937
    B7_54  HUB7  -1
    B7_54  DEM54  1
    B7_56  COST  6.82423181279
    B7_56  HUB7  -1
    B7_56  DEM56  1
    B7_57  COST  7.51879497312
    B7_57  HUB7  -1
    B7_57  DEM57  1
    B7_58  COST  10.7673929929
    B7_58  HUB7  -1
    B7_58  DEM58  1
    B7_62  COST  5.2851767114
    B7_62  HUB7  -1
    B7_62  DEM62  1
    B7_63  COST  4.46680447984
    B7_63  HUB7  -1
    B7_63  DEM63  1
    B7_64  COST  2.67874862863
    B7_64  HUB7  -1
    B7_64  DEM64  1
    B7_68  COST  1.35576790912
    B7_68  HUB7  -1
    B7_68  DEM68  1
    B7_69  COST  13.2315738609
    B7_69  HUB7  -1
    B7_69  DEM69  1
    B7_71  COST  6.811852591
    B7_71  HUB7  -1
    B7_71  DEM71  1
    B7_73  COST  6.14410265089
    B7_73  HUB7  -1
    B7_73  DEM73  1
    B7_75  COST  4.041219892
    B7_75  HUB7  -1
    B7_75  DEM75  1
    B7_76  COST  2.52602583023
    B7_76  HUB7  -1
    B7_76  DEM76  1
    B7_78  COST  12.1904811948
    B7_78  HUB7  -1
    B7_78  DEM78  1
    B7_80  COST  3.2167449369
    B7_80  HUB7  -1
    B7_80  DEM80  1
    B7_81  COST  3.91967572159
    B7_81  HUB7  -1
    B7_81  DEM81  1
    B7_83  COST  5.12295143714
    B7_83  HUB7  -1
    B7_83  DEM83  1
    B7_88  COST  13.0882247889
    B7_88  HUB7  -1
    B7_88  DEM88  1
    B7_89  COST  13.5896491364
    B7_89  HUB7  -1
    B7_89  DEM89  1
    B7_92  COST  9.72573752286
    B7_92  HUB7  -1
    B7_92  DEM92  1
    B7_97  COST  5.38331120357
    B7_97  HUB7  -1
    B7_97  DEM97  1
    B7_98  COST  11.1062373241
    B7_98  HUB7  -1
    B7_98  DEM98  1
    B7_99  COST  11.6044568108
    B7_99  HUB7  -1
    B7_99  DEM99  1
    B7_105  COST  8.39925083078
    B7_105  HUB7  -1
    B7_105  DEM105  1
    B7_106  COST  2.79034456929
    B7_106  HUB7  -1
    B7_106  DEM106  1
    B8_0  COST  2.84390946471
    B8_0  HUB8  -1
    B8_0  DEM0  1
    B8_2  COST  1.77336588671
    B8_2  HUB8  -1
    B8_2  DEM2  1
    B8_4  COST  5.79265327569
    B8_4  HUB8  -1
    B8_4  DEM4  1
    B8_7  COST  2.70970210327
    B8_7  HUB8  -1
    B8_7  DEM7  1
    B8_9  COST  7.61229908391
    B8_9  HUB8  -1
    B8_9  DEM9  1
    B8_10  COST  12.9348177381
    B8_10  HUB8  -1
    B8_10  DEM10  1
    B8_19  COST  11.0921822751
    B8_19  HUB8  -1
    B8_19  DEM19  1
    B8_21  COST  8.54278896668
    B8_21  HUB8  -1
    B8_21  DEM21  1
    B8_25  COST  7.46054859375
    B8_25  HUB8  -1
    B8_25  DEM25  1
    B8_39  COST  13.0214068857
    B8_39  HUB8  -1
    B8_39  DEM39  1
    B8_41  COST  13.5665844583
    B8_41  HUB8  -1
    B8_41  DEM41  1
    B8_44  COST  10.2098246024
    B8_44  HUB8  -1
    B8_44  DEM44  1
    B8_45  COST  3.96524264571
    B8_45  HUB8  -1
    B8_45  DEM45  1
    B8_47  COST  10.2489377458
    B8_47  HUB8  -1
    B8_47  DEM47  1
    B8_50  COST  4.84781139704
    B8_50  HUB8  -1
    B8_50  DEM50  1
    B8_53  COST  9.49169109044
    B8_53  HUB8  -1
    B8_53  DEM53  1
    B8_55  COST  1.38305034769
    B8_55  HUB8  -1
    B8_55  DEM55  1
    B8_56  COST  3.18280030225
    B8_56  HUB8  -1
    B8_56  DEM56  1
    B8_58  COST  5.91075473675
    B8_58  HUB8  -1
    B8_58  DEM58  1
    B8_61  COST  2.53192731139
    B8_61  HUB8  -1
    B8_61  DEM61  1
    B8_62  COST  1.12758245939
    B8_62  HUB8  -1
    B8_62  DEM62  1
    B8_65  COST  12.0890217093
    B8_65  HUB8  -1
    B8_65  DEM65  1
    B8_67  COST  11.2674400908
    B8_67  HUB8  -1
    B8_67  DEM67  1
    B8_70  COST  2.77872213654
    B8_70  HUB8  -1
    B8_70  DEM70  1
    B8_79  COST  4.46360033817
    B8_79  HUB8  -1
    B8_79  DEM79  1
    B8_80  COST  9.604569827
    B8_80  HUB8  -1
    B8_80  DEM80  1
    B8_82  COST  8.93193003909
    B8_82  HUB8  -1
    B8_82  DEM82  1
    B8_83  COST  5.58472000214
    B8_83  HUB8  -1
    B8_83  DEM83  1
    B8_84  COST  11.2402146009
    B8_84  HUB8  -1
    B8_84  DEM84  1
    B8_86  COST  4.12140639964
    B8_86  HUB8  -1
    B8_86  DEM86  1
    B8_88  COST  1.40307892885
    B8_88  HUB8  -1
    B8_88  DEM88  1
    B8_89  COST  8.73289102351
    B8_89  HUB8  -1
    B8_89  DEM89  1
    B8_90  COST  11.8849300255
    B8_90  HUB8  -1
    B8_90  DEM90  1
    B8_91  COST  5.77868784351
    B8_91  HUB8  -1
    B8_91  DEM91  1
    B8_94  COST  1.12791625902
    B8_94  HUB8  -1
    B8_94  DEM94  1
    B8_96  COST  9.549276157
    B8_96  HUB8  -1
    B8_96  DEM96  1
    B8_97  COST  3.65275942509
    B8_97  HUB8  -1
    B8_97  DEM97  1
    B8_103  COST  8.01747779921
    B8_103  HUB8  -1
    B8_103  DEM103  1
    B8_105  COST  13.4812584472
    B8_105  HUB8  -1
    B8_105  DEM105  1
    B8_106  COST  5.18179968174
    B8_106  HUB8  -1
    B8_106  DEM106  1
    B8_107  COST  6.00369920898
    B8_107  HUB8  -1
    B8_107  DEM107  1
    B9_1  COST  5.23865430939
    B9_1  HUB9  -1
    B9_1  DEM1  1
    B9_6  COST  9.43751472458
    B9_6  HUB9  -1
    B9_6  DEM6  1
    B9_7  COST  2.57506216427
    B9_7  HUB9  -1
    B9_7  DEM7  1
    B9_9  COST  7.21115464282
    B9_9  HUB9  -1
    B9_9  DEM9  1
    B9_12  COST  4.93370448405
    B9_12  HUB9  -1
    B9_12  DEM12  1
    B9_14  COST  10.127987211
    B9_14  HUB9  -1
    B9_14  DEM14  1
    B9_16  COST  5.82815180696
    B9_16  HUB9  -1
    B9_16  DEM16  1
    B9_17  COST  10.8872395888
    B9_17  HUB9  -1
    B9_17  DEM17  1
    B9_19  COST  10.2006029426
    B9_19  HUB9  -1
    B9_19  DEM19  1
    B9_22  COST  10.0073377333
    B9_22  HUB9  -1
    B9_22  DEM22  1
    B9_25  COST  3.67123279586
    B9_25  HUB9  -1
    B9_25  DEM25  1
    B9_26  COST  2.03268577506
    B9_26  HUB9  -1
    B9_26  DEM26  1
    B9_27  COST  1.5920914554
    B9_27  HUB9  -1
    B9_27  DEM27  1
    B9_35  COST  5.26750353674
    B9_35  HUB9  -1
    B9_35  DEM35  1
    B9_36  COST  7.82031336783
    B9_36  HUB9  -1
    B9_36  DEM36  1
    B9_39  COST  13.1783169731
    B9_39  HUB9  -1
    B9_39  DEM39  1
    B9_40  COST  8.37814835597
    B9_40  HUB9  -1
    B9_40  DEM40  1
    B9_44  COST  5.06895883015
    B9_44  HUB9  -1
    B9_44  DEM44  1
    B9_46  COST  10.675492564
    B9_46  HUB9  -1
    B9_46  DEM46  1
    B9_47  COST  2.32952444019
    B9_47  HUB9  -1
    B9_47  DEM47  1
    B9_48  COST  11.4679812963
    B9_48  HUB9  -1
    B9_48  DEM48  1
    B9_49  COST  6.51526239115
    B9_49  HUB9  -1
    B9_49  DEM49  1
    B9_50  COST  10.6039387862
    B9_50  HUB9  -1
    B9_50  DEM50  1
    B9_52  COST  9.59394759933
    B9_52  HUB9  -1
    B9_52  DEM52  1
    B9_53  COST  6.10682273592
    B9_53  HUB9  -1
    B9_53  DEM53  1
    B9_55  COST  7.54721347906
    B9_55  HUB9  -1
    B9_55  DEM55  1
    B9_56  COST  7.19537673437
    B9_56  HUB9  -1
    B9_56  DEM56  1
    B9_57  COST  7.18099479672
    B9_57  HUB9  -1
    B9_57  DEM57  1
    B9_59  COST  13.7594745677
    B9_59  HUB9  -1
    B9_59  DEM59  1
    B9_68  COST  1.08362857542
    B9_68  HUB9  -1
    B9_68  DEM68  1
    B9_69  COST  6.09330969102
    B9_69  HUB9  -1
    B9_69  DEM69  1
    B9_74  COST  12.5613605417
    B9_74  HUB9  -1
    B9_74  DEM74  1
    B9_76  COST  1.17589158124
    B9_76  HUB9  -1
    B9_76  DEM76  1
    B9_81  COST  5.78915621854
    B9_81  HUB9  -1
    B9_81  DEM81  1
    B9_83  COST  11.9628638687
    B9_83  HUB9  -1
    B9_83  DEM83  1
    B9_84  COST  13.8523148649
    B9_84  HUB9  -1
    B9_84  DEM84  1
    B9_85  COST  4.04403486074
    B9_85  HUB9  -1
    B9_85  DEM85  1
    B9_86  COST  5.59951416418
    B9_86  HUB9  -1
    B9_86  DEM86  1
    B9_87  COST  8.97005576556
    B9_87  HUB9  -1
    B9_87  DEM87  1
    B9_90  COST  5.43737502448
    B9_90  HUB9  -1
    B9_90  DEM90  1
    B9_93  COST  12.464727522
    B9_93  HUB9  -1
    B9_93  DEM93  1
    B9_94  COST  7.63426712793
    B9_94  HUB9  -1
    B9_94  DEM94  1
    B9_101  COST  1.98642923961
    B9_101  HUB9  -1
    B9_101  DEM101  1
    B9_105  COST  4.71736228067
    B9_105  HUB9  -1
    B9_105  DEM105  1
    B9_107  COST  8.28813011795
    B9_107  HUB9  -1
    B9_107  DEM107  1
    B9_108  COST  3.97933942862
    B9_108  HUB9  -1
    B9_108  DEM108  1
    B10_1  COST  10.720288113
    B10_1  HUB10  -1
    B10_1  DEM1  1
    B10_2  COST  6.39964018027
    B10_2  HUB10  -1
    B10_2  DEM2  1
    B10_4  COST  1.92229044887
    B10_4  HUB10  -1
    B10_4  DEM4  1
    B10_6  COST  8.82032046918
    B10_6  HUB10  -1
    B10_6  DEM6  1
    B10_10  COST  10.4846008182
    B10_10  HUB10  -1
    B10_10  DEM10  1
    B10_11  COST  5.49990558356
    B10_11  HUB10  -1
    B10_11  DEM11  1
    B10_20  COST  3.15393013956
    B10_20  HUB10  -1
    B10_20  DEM20  1
    B10_21  COST  13.9091727387
    B10_21  HUB10  -1
    B10_21  DEM21  1
    B10_22  COST  7.19153356345
    B10_22  HUB10  -1
    B10_22  DEM22  1
    B10_23  COST  6.11158152601
    B10_23  HUB10  -1
    B10_23  DEM23  1
    B10_24  COST  1.03396027726
    B10_24  HUB10  -1
    B10_24  DEM24  1
    B10_28  COST  10.4801111631
    B10_28  HUB10  -1
    B10_28  DEM28  1
    B10_31  COST  3.53247860672
    B10_31  HUB10  -1
    B10_31  DEM31  1
    B10_32  COST  13.4542660899
    B10_32  HUB10  -1
    B10_32  DEM32  1
    B10_39  COST  9.07537653733
    B10_39  HUB10  -1
    B10_39  DEM39  1
    B10_41  COST  12.8125732737
    B10_41  HUB10  -1
    B10_41  DEM41  1
    B10_43  COST  9.6735062408
    B10_43  HUB10  -1
    B10_43  DEM43  1
    B10_45  COST  3.1513316034
    B10_45  HUB10  -1
    B10_45  DEM45  1
    B10_46  COST  13.5567715126
    B10_46  HUB10  -1
    B10_46  DEM46  1
    B10_47  COST  9.05871888962
    B10_47  HUB10  -1
    B10_47  DEM47  1
    B10_48  COST  13.7688887926
    B10_48  HUB10  -1
    B10_48  DEM48  1
    B10_50  COST  3.6329756189
    B10_50  HUB10  -1
    B10_50  DEM50  1
    B10_51  COST  7.6564109254
    B10_51  HUB10  -1
    B10_51  DEM51  1
    B10_52  COST  9.3215200533
    B10_52  HUB10  -1
    B10_52  DEM52  1
    B10_55  COST  12.4637243094
    B10_55  HUB10  -1
    B10_55  DEM55  1
    B10_56  COST  5.35602582655
    B10_56  HUB10  -1
    B10_56  DEM56  1
    B10_58  COST  9.78234356262
    B10_58  HUB10  -1
    B10_58  DEM58  1
    B10_59  COST  11.0797077597
    B10_59  HUB10  -1
    B10_59  DEM59  1
    B10_61  COST  5.37556767516
    B10_61  HUB10  -1
    B10_61  DEM61  1
    B10_63  COST  9.98855058166
    B10_63  HUB10  -1
    B10_63  DEM63  1
    B10_67  COST  6.29263337165
    B10_67  HUB10  -1
    B10_67  DEM67  1
    B10_69  COST  12.1686014434
    B10_69  HUB10  -1
    B10_69  DEM69  1
    B10_70  COST  6.64782868407
    B10_70  HUB10  -1
    B10_70  DEM70  1
    B10_71  COST  3.70610419196
    B10_71  HUB10  -1
    B10_71  DEM71  1
    B10_73  COST  1.74254095799
    B10_73  HUB10  -1
    B10_73  DEM73  1
    B10_75  COST  1.61722295192
    B10_75  HUB10  -1
    B10_75  DEM75  1
    B10_79  COST  1.15109970233
    B10_79  HUB10  -1
    B10_79  DEM79  1
    B10_85  COST  3.71184382914
    B10_85  HUB10  -1
    B10_85  DEM85  1
    B10_89  COST  2.04566180265
    B10_89  HUB10  -1
    B10_89  DEM89  1
    B10_90  COST  13.5549964529
    B10_90  HUB10  -1
    B10_90  DEM90  1
    B10_91  COST  4.57423478697
    B10_91  HUB10  -1
    B10_91  DEM91  1
    B10_92  COST  8.62496858814
    B10_92  HUB10  -1
    B10_92  DEM92  1
    B10_94  COST  12.3360370713
    B10_94  HUB10  -1
    B10_94  DEM94  1
    B10_95  COST  1.22466725333
    B10_95  HUB10  -1
    B10_95  DEM95  1
    B10_99  COST  6.90825536827
    B10_99  HUB10  -1
    B10_99  DEM99  1
    B10_107  COST  12.8873223688
    B10_107  HUB10  -1
    B10_107  DEM107  1
    B10_109  COST  6.15740760965
    B10_109  HUB10  -1
    B10_109  DEM109  1
    B11_1  COST  11.8741298514
    B11_1  HUB11  -1
    B11_1  DEM1  1
    B11_5  COST  13.2028420101
    B11_5  HUB11  -1
    B11_5  DEM5  1
    B11_8  COST  9.79061775117
    B11_8  HUB11  -1
    B11_8  DEM8  1
    B11_10  COST  12.0302874795
    B11_10  HUB11  -1
    B11_10  DEM10  1
    B11_11  COST  1.32539139931
    B11_11  HUB11  -1
    B11_11  DEM11  1
    B11_14  COST  6.56163763793
    B11_14  HUB11  -1
    B11_14  DEM14  1
    B11_15  COST  9.63750538402
    B11_15  HUB11  -1
    B11_15  DEM15  1
    B11_17  COST  5.88276583468
    B11_17  HUB11  -1
    B11_17  DEM17  1
    B11_18  COST  9.40176499477
    B11_18  HUB11  -1
    B11_18  DEM18  1
    B11_20  COST  3.71957699075
    B11_20  HUB11  -1
    B11_20  DEM20  1
    B11_22  COST  1.82224514067
    B11_22  HUB11  -1
    B11_22  DEM22  1
    B11_27  COST  12.2084511264
    B11_27  HUB11  -1
    B11_27  DEM27  1
    B11_28  COST  4.7554929852
    B11_28  HUB11  -1
    B11_28  DEM28  1
    B11_30  COST  7.48052565708
    B11_30  HUB11  -1
    B11_30  DEM30  1
    B11_32  COST  6.51223961787
    B11_32  HUB11  -1
    B11_32  DEM32  1
    B11_33  COST  7.59212599914
    B11_33  HUB11  -1
    B11_33  DEM33  1
    B11_34  COST  9.8603526887
    B11_34  HUB11  -1
    B11_34  DEM34  1
    B11_35  COST  3.87089320904
    B11_35  HUB11  -1
    B11_35  DEM35  1
    B11_37  COST  3.74129614043
    B11_37  HUB11  -1
    B11_37  DEM37  1
    B11_38  COST  7.68894416801
    B11_38  HUB11  -1
    B11_38  DEM38  1
    B11_39  COST  10.9164296777
    B11_39  HUB11  -1
    B11_39  DEM39  1
    B11_41  COST  3.42282865763
    B11_41  HUB11  -1
    B11_41  DEM41  1
    B11_42  COST  2.05218517741
    B11_42  HUB11  -1
    B11_42  DEM42  1
    B11_46  COST  13.4548828071
    B11_46  HUB11  -1
    B11_46  DEM46  1
    B11_47  COST  2.21471378892
    B11_47  HUB11  -1
    B11_47  DEM47  1
    B11_48  COST  2.43797416072
    B11_48  HUB11  -1
    B11_48  DEM48  1
    B11_53  COST  2.64914754747
    B11_53  HUB11  -1
    B11_53  DEM53  1
    B11_54  COST  13.3400061048
    B11_54  HUB11  -1
    B11_54  DEM54  1
    B11_55  COST  13.4254251735
    B11_55  HUB11  -1
    B11_55  DEM55  1
    B11_57  COST  4.98617111461
    B11_57  HUB11  -1
    B11_57  DEM57  1
    B11_58  COST  10.5957085453
    B11_58  HUB11  -1
    B11_58  DEM58  1
    B11_59  COST  10.1389872532
    B11_59  HUB11  -1
    B11_59  DEM59  1
    B11_60  COST  6.1834920959
    B11_60  HUB11  -1
    B11_60  DEM60  1
    B11_61  COST  4.08471703674
    B11_61  HUB11  -1
    B11_61  DEM61  1
    B11_62  COST  8.83523402124
    B11_62  HUB11  -1
    B11_62  DEM62  1
    B11_65  COST  4.08612489538
    B11_65  HUB11  -1
    B11_65  DEM65  1
    B11_69  COST  2.92277845392
    B11_69  HUB11  -1
    B11_69  DEM69  1
    B11_70  COST  8.47315304931
    B11_70  HUB11  -1
    B11_70  DEM70  1
    B11_73  COST  6.66058470838
    B11_73  HUB11  -1
    B11_73  DEM73  1
    B11_77  COST  7.23902686233
    B11_77  HUB11  -1
    B11_77  DEM77  1
    B11_78  COST  7.92510212003
    B11_78  HUB11  -1
    B11_78  DEM78  1
    B11_80  COST  13.0110272564
    B11_80  HUB11  -1
    B11_80  DEM80  1
    B11_83  COST  4.67806517522
    B11_83  HUB11  -1
    B11_83  DEM83  1
    B11_88  COST  6.09670801097
    B11_88  HUB11  -1
    B11_88  DEM88  1
    B11_90  COST  2.66631877544
    B11_90  HUB11  -1
    B11_90  DEM90  1
    B11_92  COST  12.944207868
    B11_92  HUB11  -1
    B11_92  DEM92  1
    B11_97  COST  2.62544410094
    B11_97  HUB11  -1
    B11_97  DEM97  1
    B11_99  COST  8.64422858453
    B11_99  HUB11  -1
    B11_99  DEM99  1
    B11_100  COST  11.8853861368
    B11_100  HUB11  -1
    B11_100  DEM100  1
    B11_101  COST  8.88519315831
    B11_101  HUB11  -1
    B11_101  DEM101  1
    B11_105  COST  8.57130159374
    B11_105  HUB11  -1
    B11_105  DEM105  1
    B11_107  COST  1.09892946215
    B11_107  HUB11  -1
    B11_107  DEM107  1
    B11_108  COST  4.55562963208
    B11_108  HUB11  -1
    B11_108  DEM108  1
    B12_3  COST  4.65438228092
    B12_3  HUB12  -1
    B12_3  DEM3  1
    B12_4  COST  4.55472276667
    B12_4  HUB12  -1
    B12_4  DEM4  1
    B12_7  COST  11.9737939554
    B12_7  HUB12  -1
    B12_7  DEM7  1
    B12_8  COST  4.06144619106
    B12_8  HUB12  -1
    B12_8  DEM8  1
    B12_10  COST  8.7801847836
    B12_10  HUB12  -1
    B12_10  DEM10  1
    B12_14  COST  8.27486924807
    B12_14  HUB12  -1
    B12_14  DEM14  1
    B12_17  COST  7.96423728946
    B12_17  HUB12  -1
    B12_17  DEM17  1
    B12_21  COST  9.40100317118
    B12_21  HUB12  -1
    B12_21  DEM21  1
    B12_22  COST  7.94506665752
    B12_22  HUB12  -1
    B12_22  DEM22  1
    B12_24  COST  13.4437727837
    B12_24  HUB12  -1
    B12_24  DEM24  1
    B12_25  COST  2.440204031
    B12_25  HUB12  -1
    B12_25  DEM25  1
    B12_32  COST  1.12456013589
    B12_32  HUB12  -1
    B12_32  DEM32  1
    B12_33  COST  8.60465225485
    B12_33  HUB12  -1
    B12_33  DEM33  1
    B12_35  COST  10.0283065906
    B12_35  HUB12  -1
    B12_35  DEM35  1
    B12_37  COST  7.47933895437
    B12_37  HUB12  -1
    B12_37  DEM37  1
    B12_40  COST  4.71640022846
    B12_40  HUB12  -1
    B12_40  DEM40  1
    B12_45  COST  8.69607725754
    B12_45  HUB12  -1
    B12_45  DEM45  1
    B12_48  COST  5.46624507521
    B12_48  HUB12  -1
    B12_48  DEM48  1
    B12_49  COST  2.47607922472
    B12_49  HUB12  -1
    B12_49  DEM49  1
    B12_50  COST  11.9199975408
    B12_50  HUB12  -1
    B12_50  DEM50  1
    B12_51  COST  13.9960713317
    B12_51  HUB12  -1
    B12_51  DEM51  1
    B12_54  COST  5.39017427744
    B12_54  HUB12  -1
    B12_54  DEM54  1
    B12_58  COST  6.48302530751
    B12_58  HUB12  -1
    B12_58  DEM58  1
    B12_61  COST  1.52390013301
    B12_61  HUB12  -1
    B12_61  DEM61  1
    B12_62  COST  4.03819583846
    B12_62  HUB12  -1
    B12_62  DEM62  1
    B12_63  COST  2.91748786548
    B12_63  HUB12  -1
    B12_63  DEM63  1
    B12_65  COST  2.26181111459
    B12_65  HUB12  -1
    B12_65  DEM65  1
    B12_66  COST  10.5921747997
    B12_66  HUB12  -1
    B12_66  DEM66  1
    B12_68  COST  5.18680436472
    B12_68  HUB12  -1
    B12_68  DEM68  1
    B12_74  COST  7.52343882491
    B12_74  HUB12  -1
    B12_74  DEM74  1
    B12_78  COST  6.52972377808
    B12_78  HUB12  -1
    B12_78  DEM78  1
    B12_81  COST  10.7841082124
    B12_81  HUB12  -1
    B12_81  DEM81  1
    B12_85  COST  11.6649685865
    B12_85  HUB12  -1
    B12_85  DEM85  1
    B12_89  COST  1.96687827207
    B12_89  HUB12  -1
    B12_89  DEM89  1
    B12_92  COST  1.75506485852
    B12_92  HUB12  -1
    B12_92  DEM92  1
    B12_96  COST  7.47987130805
    B12_96  HUB12  -1
    B12_96  DEM96  1
    B12_97  COST  2.48946202932
    B12_97  HUB12  -1
    B12_97  DEM97  1
    B12_101  COST  2.18562324682
    B12_101  HUB12  -1
    B12_101  DEM101  1
    B12_102  COST  8.09726387741
    B12_102  HUB12  -1
    B12_102  DEM102  1
    B12_104  COST  6.76098156295
    B12_104  HUB12  -1
    B12_104  DEM104  1
    B12_107  COST  2.14171281741
    B12_107  HUB12  -1
    B12_107  DEM107  1
    B12_109  COST  2.01023525573
    B12_109  HUB12  -1
    B12_109  DEM109  1
    B13_0  COST  2.22864739581
    B13_0  HUB13  -1
    B13_0  DEM0  1
    B13_2  COST  4.86837049288
    B13_2  HUB13  -1
    B13_2  DEM2  1
    B13_4  COST  4.71577600992
    B13_4  HUB13  -1
    B13_4  DEM4  1
    B13_5  COST  8.99501258738
    B13_5  HUB13  -1
    B13_5  DEM5  1
    B13_7  COST  4.62642297738
    B13_7  HUB13  -1
    B13_7  DEM7  1
    B13_11  COST  2.67890216178
    B13_11  HUB13  -1
    B13_11  DEM11  1
    B13_12  COST  11.0990138981
    B13_12  HUB13  -1
    B13_12  DEM12  1
    B13_13  COST  11.9107935576
    B13_13  HUB13  -1
    B13_13  DEM13  1
    B13_14  COST  8.36751974096
    B13_14  HUB13  -1
    B13_14  DEM14  1
    B13_20  COST  1.62607784415
    B13_20  HUB13  -1
    B13_20  DEM20  1
    B13_21  COST  5.96684203404
    B13_21  HUB13  -1
    B13_21  DEM21  1
    B13_26  COST  7.00550018989
    B13_26  HUB13  -1
    B13_26  DEM26  1
    B13_27  COST  10.8761961105
    B13_27  HUB13  -1
    B13_27  DEM27  1
    B13_29  COST  10.7279207278
    B13_29  HUB13  -1
    B13_29  DEM29  1
    B13_30  COST  7.03995737154
    B13_30  HUB13  -1
    B13_30  DEM30  1
    B13_31  COST  1.10523770598
    B13_31  HUB13  -1
    B13_31  DEM31  1
    B13_34  COST  11.637805893
    B13_34  HUB13  -1
    B13_34  DEM34  1
    B13_36  COST  2.80535760312
    B13_36  HUB13  -1
    B13_36  DEM36  1
    B13_37  COST  3.2069550736
    B13_37  HUB13  -1
    B13_37  DEM37  1
    B13_40  COST  10.7245771542
    B13_40  HUB13  -1
    B13_40  DEM40  1
    B13_41  COST  3.56526845769
    B13_41  HUB13  -1
    B13_41  DEM41  1
    B13_43  COST  13.3990430661
    B13_43  HUB13  -1
    B13_43  DEM43  1
    B13_47  COST  10.2208415411
    B13_47  HUB13  -1
    B13_47  DEM47  1
    B13_49  COST  4.97439552121
    B13_49  HUB13  -1
    B13_49  DEM49  1
    B13_50  COST  10.5924299534
    B13_50  HUB13  -1
    B13_50  DEM50  1
    B13_52  COST  4.35506579966
    B13_52  HUB13  -1
    B13_52  DEM52  1
    B13_53  COST  10.9845967804
    B13_53  HUB13  -1
    B13_53  DEM53  1
    B13_54  COST  7.68378763031
    B13_54  HUB13  -1
    B13_54  DEM54  1
    B13_55  COST  5.66302310882
    B13_55  HUB13  -1
    B13_55  DEM55  1
    B13_56  COST  7.27320451895
    B13_56  HUB13  -1
    B13_56  DEM56  1
    B13_57  COST  2.48755812575
    B13_57  HUB13  -1
    B13_57  DEM57  1
    B13_58  COST  9.3800389812
    B13_58  HUB13  -1
    B13_58  DEM58  1
    B13_65  COST  2.39466444714
    B13_65  HUB13  -1
    B13_65  DEM65  1
    B13_67  COST  10.1256222578
    B13_67  HUB13  -1
    B13_67  DEM67  1
    B13_69  COST  4.98679132732
    B13_69  HUB13  -1
    B13_69  DEM69  1
    B13_72  COST  3.46646959134
    B13_72  HUB13  -1
    B13_72  DEM72  1
    B13_75  COST  10.4295110871
    B13_75  HUB13  -1
    B13_75  DEM75  1
    B13_76  COST  11.1067533358
    B13_76  HUB13  -1
    B13_76  DEM76  1
    B13_78  COST  4.51245095081
    B13_78  HUB13  -1
    B13_78  DEM78  1
    B13_79  COST  3.57240854411
    B13_79  HUB13  -1
    B13_79  DEM79  1
    B13_82  COST  10.2209744847
    B13_82  HUB13  -1
    B13_82  DEM82  1
    B13_83  COST  13.1629009379
    B13_83  HUB13  -1
    B13_83  DEM83  1
    B13_84  COST  4.78489633101
    B13_84  HUB13  -1
    B13_84  DEM84  1
    B13_87  COST  12.3451835986
    B13_87  HUB13  -1
    B13_87  DEM87  1
    B13_88  COST  5.07758640326
    B13_88  HUB13  -1
    B13_88  DEM88  1
    B13_89  COST  4.0834864818
    B13_89  HUB13  -1
    B13_89  DEM89  1
    B13_91  COST  8.7029057365
    B13_91  HUB13  -1
    B13_91  DEM91  1
    B13_96  COST  2.69986156114
    B13_96  HUB13  -1
    B13_96  DEM96  1
    B13_101  COST  4.36812997949
    B13_101  HUB13  -1
    B13_101  DEM101  1
    B13_105  COST  12.7528370537
    B13_105  HUB13  -1
    B13_105  DEM105  1
    B13_109  COST  12.812824416
    B13_109  HUB13  -1
    B13_109  DEM109  1
    B14_3  COST  4.47398416925
    B14_3  HUB14  -1
    B14_3  DEM3  1
    B14_9  COST  8.41878617655
    B14_9  HUB14  -1
    B14_9  DEM9  1
    B14_11  COST  8.59882250186
    B14_11  HUB14  -1
    B14_11  DEM11  1
    B14_12  COST  12.0857567871
    B14_12  HUB14  -1
    B14_12  DEM12  1
    B14_13  COST  4.42430172013
    B14_13  HUB14  -1
    B14_13  DEM13  1
    B14_14  COST  12.1726686029
    B14_14  HUB14  -1
    B14_14  DEM14  1
    B14_15  COST  7.10992601739
    B14_15  HUB14  -1
    B14_15  DEM15  1
    B14_16  COST  2.34006628192
    B14_16  HUB14  -1
    B14_16  DEM16  1
    B14_20  COST  6.48306623078
    B14_20  HUB14  -1
    B14_20  DEM20  1
    B14_21  COST  3.18262394929
    B14_21  HUB14  -1
    B14_21  DEM21  1
    B14_25  COST  8.86732291716
    B14_25  HUB14  -1
    B14_25  DEM25  1
    B14_26  COST  9.13865616919
    B14_26  HUB14  -1
    B14_26  DEM26  1
    B14_30  COST  11.2927714225
    B14_30  HUB14  -1
    B14_30  DEM30  1
    B14_33  COST  1.17636773243
    B14_33  HUB14  -1
    B14_33  DEM33  1
    B14_35  COST  2.93534638139
    B14_35  HUB14  -1
    B14_35  DEM35  1
    B14_36  COST  13.2548844998
    B14_36  HUB14  -1
    B14_36  DEM36  1
    B14_40  COST  10.960927133
    B14_40  HUB14  -1
    B14_40  DEM40  1
    B14_43  COST  3.09012074738
    B14_43  HUB14  -1
    B14_43  DEM43  1
    B14_44  COST  10.327071314
    B14_44  HUB14  -1
    B14_44  DEM44  1
    B14_45  COST  12.421774693
    B14_45  HUB14  -1
    B14_45  DEM45  1
    B14_50  COST  9.49591687933
    B14_50  HUB14  -1
    B14_50  DEM50  1
    B14_52  COST  12.6046642453
    B14_52  HUB14  -1
    B14_52  DEM52  1
    B14_55  COST  7.56311378793
    B14_55  HUB14  -1
    B14_55  DEM55  1
    B14_58  COST  12.5657723073
    B14_58  HUB14  -1
    B14_58  DEM58  1
    B14_61  COST  2.58155758225
    B14_61  HUB14  -1
    B14_61  DEM61  1
    B14_64  COST  13.8434208358
    B14_64  HUB14  -1
    B14_64  DEM64  1
    B14_65  COST  7.35715145792
    B14_65  HUB14  -1
    B14_65  DEM65  1
    B14_69  COST  8.32689618004
    B14_69  HUB14  -1
    B14_69  DEM69  1
    B14_73  COST  2.25387847259
    B14_73  HUB14  -1
    B14_73  DEM73  1
    B14_75  COST  4.96249813978
    B14_75  HUB14  -1
    B14_75  DEM75  1
    B14_80  COST  4.63769776088
    B14_80  HUB14  -1
    B14_80  DEM80  1
    B14_81  COST  1.99651244996
    B14_81  HUB14  -1
    B14_81  DEM81  1
    B14_82  COST  6.23873568114
    B14_82  HUB14  -1
    B14_82  DEM82  1
    B14_83  COST  12.7057497154
    B14_83  HUB14  -1
    B14_83  DEM83  1
    B14_87  COST  11.0022558485
    B14_87  HUB14  -1
    B14_87  DEM87  1
    B14_88  COST  13.5451431796
    B14_88  HUB14  -1
    B14_88  DEM88  1
    B14_89  COST  9.32558765647
    B14_89  HUB14  -1
    B14_89  DEM89  1
    B14_93  COST  4.10595309383
    B14_93  HUB14  -1
    B14_93  DEM93  1
    B14_97  COST  9.57281657647
    B14_97  HUB14  -1
    B14_97  DEM97  1
    B14_105  COST  11.3448165022
    B14_105  HUB14  -1
    B14_105  DEM105  1
    B14_108  COST  3.98962496105
    B14_108  HUB14  -1
    B14_108  DEM108  1
    B14_109  COST  13.4277080675
    B14_109  HUB14  -1
    B14_109  DEM109  1
    B15_0  COST  3.96924281543
    B15_0  HUB15  -1
    B15_0  DEM0  1
    B15_2  COST  5.61010674096
    B15_2  HUB15  -1
    B15_2  DEM2  1
    B15_4  COST  11.3697204298
    B15_4  HUB15  -1
    B15_4  DEM4  1
    B15_6  COST  6.90799627766
    B15_6  HUB15  -1
    B15_6  DEM6  1
    B15_7  COST  4.32615499215
    B15_7  HUB15  -1
    B15_7  DEM7  1
    B15_9  COST  8.88407390109
    B15_9  HUB15  -1
    B15_9  DEM9  1
    B15_10  COST  1.87804673072
    B15_10  HUB15  -1
    B15_10  DEM10  1
    B15_13  COST  5.72697633968
    B15_13  HUB15  -1
    B15_13  DEM13  1
    B15_16  COST  10.500174168
    B15_16  HUB15  -1
    B15_16  DEM16  1
    B15_18  COST  4.77699073714
    B15_18  HUB15  -1
    B15_18  DEM18  1
    B15_22  COST  7.75509480064
    B15_22  HUB15  -1
    B15_22  DEM22  1
    B15_23  COST  12.3641811816
    B15_23  HUB15  -1
    B15_23  DEM23  1
    B15_26  COST  12.9325153634
    B15_26  HUB15  -1
    B15_26  DEM26  1
    B15_27  COST  5.18684561289
    B15_27  HUB15  -1
    B15_27  DEM27  1
    B15_28  COST  11.3587379135
    B15_28  HUB15  -1
    B15_28  DEM28  1
    B15_29  COST  8.09893439358
    B15_29  HUB15  -1
    B15_29  DEM29  1
    B15_31  COST  5.49891228963
    B15_31  HUB15  -1
    B15_31  DEM31  1
    B15_33  COST  12.2576578762
    B15_33  HUB15  -1
    B15_33  DEM33  1
    B15_34  COST  4.6212200114
    B15_34  HUB15  -1
    B15_34  DEM34  1
    B15_35  COST  1.61988808104
    B15_35  HUB15  -1
    B15_35  DEM35  1
    B15_36  COST  5.91739391462
    B15_36  HUB15  -1
    B15_36  DEM36  1
    B15_39  COST  2.87004949806
    B15_39  HUB15  -1
    B15_39  DEM39  1
    B15_41  COST  1.32701636115
    B15_41  HUB15  -1
    B15_41  DEM41  1
    B15_42  COST  2.60109362204
    B15_42  HUB15  -1
    B15_42  DEM42  1
    B15_45  COST  13.7224966964
    B15_45  HUB15  -1
    B15_45  DEM45  1
    B15_48  COST  4.54109437409
    B15_48  HUB15  -1
    B15_48  DEM48  1
    B15_52  COST  13.4485605904
    B15_52  HUB15  -1
    B15_52  DEM52  1
    B15_53  COST  7.36835317754
    B15_53  HUB15  -1
    B15_53  DEM53  1
    B15_55  COST  5.55349576459
    B15_55  HUB15  -1
    B15_55  DEM55  1
    B15_56  COST  3.09656283126
    B15_56  HUB15  -1
    B15_56  DEM56  1
    B15_64  COST  11.3788183331
    B15_64  HUB15  -1
    B15_64  DEM64  1
    B15_68  COST  9.10988120402
    B15_68  HUB15  -1
    B15_68  DEM68  1
    B15_69  COST  12.4939414924
    B15_69  HUB15  -1
    B15_69  DEM69  1
    B15_73  COST  4.33123197868
    B15_73  HUB15  -1
    B15_73  DEM73  1
    B15_74  COST  11.8598749553
    B15_74  HUB15  -1
    B15_74  DEM74  1
    B15_76  COST  8.51481747784
    B15_76  HUB15  -1
    B15_76  DEM76  1
    B15_79  COST  1.4948279953
    B15_79  HUB15  -1
    B15_79  DEM79  1
    B15_82  COST  5.66053637777
    B15_82  HUB15  -1
    B15_82  DEM82  1
    B15_84  COST  4.63766858769
    B15_84  HUB15  -1
    B15_84  DEM84  1
    B15_85  COST  4.79304302657
    B15_85  HUB15  -1
    B15_85  DEM85  1
    B15_89  COST  12.4445628242
    B15_89  HUB15  -1
    B15_89  DEM89  1
    B15_92  COST  7.18614095146
    B15_92  HUB15  -1
    B15_92  DEM92  1
    B15_93  COST  10.0129801142
    B15_93  HUB15  -1
    B15_93  DEM93  1
    B15_96  COST  11.7242448182
    B15_96  HUB15  -1
    B15_96  DEM96  1
    B15_97  COST  10.2217625152
    B15_97  HUB15  -1
    B15_97  DEM97  1
    B15_98  COST  10.0279599777
    B15_98  HUB15  -1
    B15_98  DEM98  1
    B15_100  COST  5.37543859716
    B15_100  HUB15  -1
    B15_100  DEM100  1
    B15_102  COST  2.52196610962
    B15_102  HUB15  -1
    B15_102  DEM102  1
    B15_104  COST  8.85389355498
    B15_104  HUB15  -1
    B15_104  DEM104  1
    B15_105  COST  9.98863677142
    B15_105  HUB15  -1
    B15_105  DEM105  1
    B15_106  COST  10.5407876425
    B15_106  HUB15  -1
    B15_106  DEM106  1
    B15_107  COST  12.1952457588
    B15_107  HUB15  -1
    B15_107  DEM107  1
    B16_0  COST  8.16615026163
    B16_0  HUB16  -1
    B16_0  DEM0  1
    B16_7  COST  13.0269178291
    B16_7  HUB16  -1
    B16_7  DEM7  1
    B16_8  COST  2.47650751369
    B16_8  HUB16  -1
    B16_8  DEM8  1
    B16_11  COST  1.00732946988
    B16_11  HUB16  -1
    B16_11  DEM11  1
    B16_12  COST  9.39667945499
    B16_12  HUB16  -1
    B16_12  DEM12  1
    B16_13  COST  6.54697326442
    B16_13  HUB16  -1
    B16_13  DEM13  1
    B16_15  COST  12.1652468794
    B16_15  HUB16  -1
    B16_15  DEM15  1
    B16_16  COST  7.27368542951
    B16_16  HUB16  -1
    B16_16  DEM16  1
    B16_20  COST  4.18586291839
    B16_20  HUB16  -1
    B16_20  DEM20  1
    B16_21  COST  11.3130146122
    B16_21  HUB16  -1
    B16_21  DEM21  1
    B16_28  COST  4.24229385186
    B16_28  HUB16  -1
    B16_28  DEM28  1
    B16_30  COST  6.72613151953
    B16_30  HUB16  -1
    B16_30  DEM30  1
    B16_32  COST  3.28724443374
    B16_32  HUB16  -1
    B16_32  DEM32  1
    B16_33  COST  10.041750908
    B16_33  HUB16  -1
    B16_33  DEM33  1
    B16_35  COST  1.68126492798
    B16_35  HUB16  -1
    B16_35  DEM35  1
    B16_37  COST  7.92154693037
    B16_37  HUB16  -1
    B16_37  DEM37  1
    B16_39  COST  13.7478644482
    B16_39  HUB16  -1
    B16_39  DEM39  1
    B16_45  COST  8.79312838588
    B16_45  HUB16  -1
    B16_45  DEM45  1
    B16_48  COST  3.10903442754
    B16_48  HUB16  -1
    B16_48  DEM48  1
    B16_49  COST  1.2519380884
    B16_49  HUB16  -1
    B16_49  DEM49  1
    B16_54  COST  12.4299947913
    B16_54  HUB16  -1
    B16_54  DEM54  1
    B16_55  COST  8.48419055593
    B16_55  HUB16  -1
    B16_55  DEM55  1
    B16_56  COST  12.2850853616
    B16_56  HUB16  -1
    B16_56  DEM56  1
    B16_59  COST  5.7597030337
    B16_59  HUB16  -1
    B16_59  DEM59  1
    B16_62  COST  1.86188306725
    B16_62  HUB16  -1
    B16_62  DEM62  1
    B16_63  COST  12.5461998537
    B16_63  HUB16  -1
    B16_63  DEM63  1
    B16_64  COST  7.57253406157
    B16_64  HUB16  -1
    B16_64  DEM64  1
    B16_66  COST  11.2141274266
    B16_66  HUB16  -1
    B16_66  DEM66  1
    B16_67  COST  11.4727196244
    B16_67  HUB16  -1
    B16_67  DEM67  1
    B16_69  COST  4.77953561441
    B16_69  HUB16  -1
    B16_69  DEM69  1
    B16_70  COST  4.13379563406
    B16_70  HUB16  -1
    B16_70  DEM70  1
    B16_72  COST  7.85195735461
    B16_72  HUB16  -1
    B16_72  DEM72  1
    B16_76  COST  11.4241918197
    B16_76  HUB16  -1
    B16_76  DEM76  1
    B16_80  COST  7.25436686101
    B16_80  HUB16  -1
    B16_80  DEM80  1
    B16_83  COST  12.5248833345
    B16_83  HUB16  -1
    B16_83  DEM83  1
    B16_85  COST  6.26210369682
    B16_85  HUB16  -1
    B16_85  DEM85  1
    B16_87  COST  6.19786462668
    B16_87  HUB16  -1
    B16_87  DEM87  1
    B16_91  COST  12.5992113073
    B16_91  HUB16  -1
    B16_91  DEM91  1
    B16_93  COST  10.9536699986
    B16_93  HUB16  -1
    B16_93  DEM93  1
    B16_95  COST  5.45328883481
    B16_95  HUB16  -1
    B16_95  DEM95  1
    B16_98  COST  13.4271297668
    B16_98  HUB16  -1
    B16_98  DEM98  1
    B16_101  COST  9.63399207859
    B16_101  HUB16  -1
    B16_101  DEM101  1
    B16_102  COST  8.62678907643
    B16_102  HUB16  -1
    B16_102  DEM102  1
    B16_103  COST  4.6982094299
    B16_103  HUB16  -1
    B16_103  DEM103  1
    B16_105  COST  6.78235663613
    B16_105  HUB16  -1
    B16_105  DEM105  1
    B16_106  COST  6.72842697436
    B16_106  HUB16  -1
    B16_106  DEM106  1
    B16_107  COST  12.5699942919
    B16_107  HUB16  -1
    B16_107  DEM107  1
    B16_109  COST  5.75143684513
    B16_109  HUB16  -1
    B16_109  DEM109  1
    B17_0  COST  5.00251506087
    B17_0  HUB17  -1
    B17_0  DEM0  1
    B17_1  COST  3.09695441229
    B17_1  HUB17  -1
    B17_1  DEM1  1
    B17_2  COST  7.18782469481
    B17_2  HUB17  -1
    B17_2  DEM2  1
    B17_4  COST  10.6869244357
    B17_4  HUB17  -1
    B17_4  DEM4  1
    B17_9  COST  9.9519616019
    B17_9  HUB17  -1
    B17_9  DEM9  1
    B17_10  COST  6.2767061779
    B17_10  HUB17  -1
    B17_10  DEM10  1
    B17_11  COST  8.98092003557
    B17_11  HUB17  -1
    B17_11  DEM11  1
    B17_12  COST  12.6800750516
    B17_12  HUB17  -1
    B17_12  DEM12  1
    B17_16  COST  3.83350584041
    B17_16  HUB17  -1
    B17_16  DEM16  1
    B17_17  COST  8.05163467741
    B17_17  HUB17  -1
    B17_17  DEM17  1
    B17_21  COST  6.10907692419
    B17_21  HUB17  -1
    B17_21  DEM21  1
    B17_22  COST  5.56926767262
    B17_22  HUB17  -1
    B17_22  DEM22  1
    B17_23  COST  12.6192184776
    B17_23  HUB17  -1
    B17_23  DEM23  1
    B17_25  COST  7.23831337396
    B17_25  HUB17  -1
    B17_25  DEM25  1
    B17_27  COST  10.4438344002
    B17_27  HUB17  -1
    B17_27  DEM27  1
    B17_32  COST  5.08891608818
    B17_32  HUB17  -1
    B17_32  DEM32  1
    B17_33  COST  5.89638220591
    B17_33  HUB17  -1
    B17_33  DEM33  1
    B17_36  COST  12.1279508284
    B17_36  HUB17  -1
    B17_36  DEM36  1
    B17_37  COST  8.62928404232
    B17_37  HUB17  -1
    B17_37  DEM37  1
    B17_38  COST  4.08338553094
    B17_38  HUB17  -1
    B17_38  DEM38  1
    B17_41  COST  6.89295481145
    B17_41  HUB17  -1
    B17_41  DEM41  1
    B17_48  COST  9.48220836054
    B17_48  HUB17  -1
    B17_48  DEM48  1
    B17_51  COST  10.2409154621
    B17_51  HUB17  -1
    B17_51  DEM51  1
    B17_61  COST  13.621260179
    B17_61  HUB17  -1
    B17_61  DEM61  1
    B17_62  COST  1.3926812628
    B17_62  HUB17  -1
    B17_62  DEM62  1
    B17_65  COST  10.2856942861
    B17_65  HUB17  -1
    B17_65  DEM65  1
    B17_66  COST  2.11828820163
    B17_66  HUB17  -1
    B17_66  DEM66  1
    B17_67  COST  4.05897091768
    B17_67  HUB17  -1
    B17_67  DEM67  1
    B17_68  COST  8.28108698873
    B17_68  HUB17  -1
    B17_68  DEM68  1
    B17_69  COST  5.27262212321
    B17_69  HUB17  -1
    B17_69  DEM69  1
    B17_70  COST  12.5932669732
    B17_70  HUB17  -1
    B17_70  DEM70  1
    B17_71  COST  4.62987034342
    B17_71  HUB17  -1
    B17_71  DEM71  1
    B17_72  COST  4.37104003747
    B17_72  HUB17  -1
    B17_72  DEM72  1
    B17_73  COST  7.04887244738
    B17_73  HUB17  -1
    B17_73  DEM73  1
    B17_80  COST  4.98099852947
    B17_80  HUB17  -1
    B17_80  DEM80  1
    B17_81  COST  5.06217300437
    B17_81  HUB17  -1
    B17_81  DEM81  1
    B17_84  COST  11.398751818
    B17_84  HUB17  -1
    B17_84  DEM84  1
    B17_87  COST  7.17987603797
    B17_87  HUB17  -1
    B17_87  DEM87  1
    B17_92  COST  10.276754593
    B17_92  HUB17  -1
    B17_92  DEM92  1
    B17_93  COST  10.0386882638
    B17_93  HUB17  -1
    B17_93  DEM93  1
    B17_95  COST  13.7941768991
    B17_95  HUB17  -1
    B17_95  DEM95  1
    B17_99  COST  1.16280147383
    B17_99  HUB17  -1
    B17_99  DEM99  1
    B17_100  COST  12.8470177508
    B17_100  HUB17  -1
    B17_100  DEM100  1
    B17_104  COST  8.65426204481
    B17_104  HUB17  -1
    B17_104  DEM104  1
    B17_105  COST  2.81192931652
    B17_105  HUB17  -1
    B17_105  DEM105  1
    B17_106  COST  6.81530094224
    B17_106  HUB17  -1
    B17_106  DEM106  1
    B18_0  COST  6.64884084143
    B18_0  HUB18  -1
    B18_0  DEM0  1
    B18_5  COST  11.219476263
    B18_5  HUB18  -1
    B18_5  DEM5  1
    B18_6  COST  8.53035177361
    B18_6  HUB18  -1
    B18_6  DEM6  1
    B18_8  COST  6.32025940828
    B18_8  HUB18  -1
    B18_8  DEM8  1
    B18_9  COST  9.68506046014
    B18_9  HUB18  -1
    B18_9  DEM9  1
    B18_10  COST  11.6911169287
    B18_10  HUB18  -1
    B18_10  DEM10  1
    B18_11  COST  6.31374262047
    B18_11  HUB18  -1
    B18_11  DEM11  1
    B18_15  COST  8.96421484308
    B18_15  HUB18  -1
    B18_15  DEM15  1
    B18_16  COST  7.5265420838
    B18_16  HUB18  -1
    B18_16  DEM16  1
    B18_19  COST  1.40591149718
    B18_19  HUB18  -1
    B18_19  DEM19  1
    B18_21  COST  12.1832563055
    B18_21  HUB18  -1
    B18_21  DEM21  1
    B18_25  COST  11.5799417206
    B18_25  HUB18  -1
    B18_25  DEM25  1
    B18_26  COST  2.67952484884
    B18_26  HUB18  -1
    B18_26  DEM26  1
    B18_27  COST  11.8238012479
    B18_27  HUB18  -1
    B18_27  DEM27  1
    B18_28  COST  1.81299385259
    B18_28  HUB18  -1
    B18_28  DEM28  1
    B18_29  COST  10.7408995663
    B18_29  HUB18  -1
    B18_29  DEM29  1
    B18_30  COST  11.1065862556
    B18_30  HUB18  -1
    B18_30  DEM30  1
    B18_31  COST  8.5864703255
    B18_31  HUB18  -1
    B18_31  DEM31  1
    B18_32  COST  5.88657466606
    B18_32  HUB18  -1
    B18_32  DEM32  1
    B18_33  COST  4.90467323223
    B18_33  HUB18  -1
    B18_33  DEM33  1
    B18_34  COST  12.8033303922
    B18_34  HUB18  -1
    B18_34  DEM34  1
    B18_35  COST  1.4203746256
    B18_35  HUB18  -1
    B18_35  DEM35  1
    B18_40  COST  6.24201976874
    B18_40  HUB18  -1
    B18_40  DEM40  1
    B18_42  COST  1.18728395936
    B18_42  HUB18  -1
    B18_42  DEM42  1
    B18_44  COST  9.22052457754
    B18_44  HUB18  -1
    B18_44  DEM44  1
    B18_45  COST  3.5186488389
    B18_45  HUB18  -1
    B18_45  DEM45  1
    B18_51  COST  6.50295834536
    B18_51  HUB18  -1
    B18_51  DEM51  1
    B18_52  COST  8.28190912864
    B18_52  HUB18  -1
    B18_52  DEM52  1
    B18_53  COST  1.52234054836
    B18_53  HUB18  -1
    B18_53  DEM53  1
    B18_55  COST  7.07035428475
    B18_55  HUB18  -1
    B18_55  DEM55  1
    B18_56  COST  13.0840395555
    B18_56  HUB18  -1
    B18_56  DEM56  1
    B18_57  COST  8.63740209397
    B18_57  HUB18  -1
    B18_57  DEM57  1
    B18_59  COST  2.09597785562
    B18_59  HUB18  -1
    B18_59  DEM59  1
    B18_65  COST  4.32186342504
    B18_65  HUB18  -1
    B18_65  DEM65  1
    B18_67  COST  3.34929257675
    B18_67  HUB18  -1
    B18_67  DEM67  1
    B18_68  COST  8.5214476979
    B18_68  HUB18  -1
    B18_68  DEM68  1
    B18_69  COST  8.36223099547
    B18_69  HUB18  -1
    B18_69  DEM69  1
    B18_70  COST  7.87056552379
    B18_70  HUB18  -1
    B18_70  DEM70  1
    B18_71  COST  7.03260496706
    B18_71  HUB18  -1
    B18_71  DEM71  1
    B18_72  COST  3.78505269494
    B18_72  HUB18  -1
    B18_72  DEM72  1
    B18_74  COST  10.3703195009
    B18_74  HUB18  -1
    B18_74  DEM74  1
    B18_75  COST  7.82749587022
    B18_75  HUB18  -1
    B18_75  DEM75  1
    B18_76  COST  4.67103213286
    B18_76  HUB18  -1
    B18_76  DEM76  1
    B18_79  COST  9.73818409862
    B18_79  HUB18  -1
    B18_79  DEM79  1
    B18_80  COST  7.09293641878
    B18_80  HUB18  -1
    B18_80  DEM80  1
    B18_84  COST  12.0185633685
    B18_84  HUB18  -1
    B18_84  DEM84  1
    B18_87  COST  10.5647144471
    B18_87  HUB18  -1
    B18_87  DEM87  1
    B18_88  COST  7.93081468523
    B18_88  HUB18  -1
    B18_88  DEM88  1
    B18_89  COST  10.3211316566
    B18_89  HUB18  -1
    B18_89  DEM89  1
    B18_93  COST  5.53947010358
    B18_93  HUB18  -1
    B18_93  DEM93  1
    B18_96  COST  13.8476464277
    B18_96  HUB18  -1
    B18_96  DEM96  1
    B18_99  COST  12.5635563506
    B18_99  HUB18  -1
    B18_99  DEM99  1
    B18_100  COST  10.3202248331
    B18_100  HUB18  -1
    B18_100  DEM100  1
    B18_102  COST  7.94641864187
    B18_102  HUB18  -1
    B18_102  DEM102  1
    B18_104  COST  2.28225177981
    B18_104  HUB18  -1
    B18_104  DEM104  1
    B18_106  COST  3.65605071416
    B18_106  HUB18  -1
    B18_106  DEM106  1
    B19_3  COST  6.09287654483
    B19_3  HUB19  -1
    B19_3  DEM3  1
    B19_4  COST  11.8219681753
    B19_4  HUB19  -1
    B19_4  DEM4  1
    B19_10  COST  7.42191256999
    B19_10  HUB19  -1
    B19_10  DEM10  1
    B19_14  COST  1.83201917754
    B19_14  HUB19  -1
    B19_14  DEM14  1
    B19_15  COST  12.4903172904
    B19_15  HUB19  -1
    B19_15  DEM15  1
    B19_16  COST  10.3626356984
    B19_16  HUB19  -1
    B19_16  DEM16  1
    B19_17  COST  8.32318670782
    B19_17  HUB19  -1
    B19_17  DEM17  1
    B19_18  COST  2.20115670875
    B19_18  HUB19  -1
    B19_18  DEM18  1
    B19_25  COST  3.27569206043
    B19_25  HUB19  -1
    B19_25  DEM25  1
    B19_27  COST  3.65169682714
    B19_27  HUB19  -1
    B19_27  DEM27  1
    B19_29  COST  13.0116013109
    B19_29  HUB19  -1
    B19_29  DEM29  1
    B19_32  COST  3.65987061277
    B19_32  HUB19  -1
    B19_32  DEM32  1
    B19_33  COST  1.85016914207
    B19_33  HUB19  -1
    B19_33  DEM33  1
    B19_34  COST  8.85496843335
    B19_34  HUB19  -1
    B19_34  DEM34  1
    B19_35  COST  11.9954605001
    B19_35  HUB19  -1
    B19_35  DEM35  1
    B19_37  COST  7.78499873089
    B19_37  HUB19  -1
    B19_37  DEM37  1
    B19_41  COST  6.90191394681
    B19_41  HUB19  -1
    B19_41  DEM41  1
    B19_43  COST  8.14325391058
    B19_43  HUB19  -1
    B19_43  DEM43  1
    B19_45  COST  9.9860729017
    B19_45  HUB19  -1
    B19_45  DEM45  1
    B19_46  COST  1.1134698019
    B19_46  HUB19  -1
    B19_46  DEM46  1
    B19_48  COST  2.12456060792
    B19_48  HUB19  -1
    B19_48  DEM48  1
    B19_49  COST  4.91320928857
    B19_49  HUB19  -1
    B19_49  DEM49  1
    B19_50  COST  8.97952663518
    B19_50  HUB19  -1
    B19_50  DEM50  1
    B19_52  COST  8.68639279291
    B19_52  HUB19  -1
    B19_52  DEM52  1
    B19_53  COST  12.2148797076
    B19_53  HUB19  -1
    B19_53  DEM53  1
    B19_54  COST  5.7073770886
    B19_54  HUB19  -1
    B19_54  DEM54  1
    B19_55  COST  2.52541057335
    B19_55  HUB19  -1
    B19_55  DEM55  1
    B19_57  COST  13.294525659
    B19_57  HUB19  -1
    B19_57  DEM57  1
    B19_58  COST  13.1351705116
    B19_58  HUB19  -1
    B19_58  DEM58  1
    B19_60  COST  11.7453047402
    B19_60  HUB19  -1
    B19_60  DEM60  1
    B19_65  COST  7.3982823194
    B19_65  HUB19  -1
    B19_65  DEM65  1
    B19_67  COST  1.74873828829
    B19_67  HUB19  -1
    B19_67  DEM67  1
    B19_68  COST  11.1442079694
    B19_68  HUB19  -1
    B19_68  DEM68  1
    B19_69  COST  1.18872531816
    B19_69  HUB19  -1
    B19_69  DEM69  1
    B19_70  COST  4.38042190742
    B19_70  HUB19  -1
    B19_70  DEM70  1
    B19_71  COST  9.83517147711
    B19_71  HUB19  -1
    B19_71  DEM71  1
    B19_72  COST  1.96065729788
    B19_72  HUB19  -1
    B19_72  DEM72  1
    B19_74  COST  8.94769139236
    B19_74  HUB19  -1
    B19_74  DEM74  1
    B19_75  COST  12.0044842654
    B19_75  HUB19  -1
    B19_75  DEM75  1
    B19_76  COST  2.93991513374
    B19_76  HUB19  -1
    B19_76  DEM76  1
    B19_77  COST  7.79126209059
    B19_77  HUB19  -1
    B19_77  DEM77  1
    B19_81  COST  7.70322955915
    B19_81  HUB19  -1
    B19_81  DEM81  1
    B19_82  COST  4.31512185533
    B19_82  HUB19  -1
    B19_82  DEM82  1
    B19_83  COST  9.28603770449
    B19_83  HUB19  -1
    B19_83  DEM83  1
    B19_85  COST  8.32652292582
    B19_85  HUB19  -1
    B19_85  DEM85  1
    B19_86  COST  8.88581133007
    B19_86  HUB19  -1
    B19_86  DEM86  1
    B19_87  COST  2.5252929713
    B19_87  HUB19  -1
    B19_87  DEM87  1
    B19_89  COST  2.34879351086
    B19_89  HUB19  -1
    B19_89  DEM89  1
    B19_93  COST  1.06232924052
    B19_93  HUB19  -1
    B19_93  DEM93  1
    B19_94  COST  3.08690635817
    B19_94  HUB19  -1
    B19_94  DEM94  1
    B19_95  COST  12.9221012287
    B19_95  HUB19  -1
    B19_95  DEM95  1
    B19_98  COST  4.39239364963
    B19_98  HUB19  -1
    B19_98  DEM98  1
    B19_99  COST  10.5699630097
    B19_99  HUB19  -1
    B19_99  DEM99  1
    B19_100  COST  11.4145403404
    B19_100  HUB19  -1
    B19_100  DEM100  1
    B19_101  COST  9.90222844614
    B19_101  HUB19  -1
    B19_101  DEM101  1
    B19_103  COST  12.2436474039
    B19_103  HUB19  -1
    B19_103  DEM103  1
    B19_104  COST  1.9211665755
    B19_104  HUB19  -1
    B19_104  DEM104  1
    B19_105  COST  8.83523521745
    B19_105  HUB19  -1
    B19_105  DEM105  1
    B20_1  COST  7.30741189668
    B20_1  HUB20  -1
    B20_1  DEM1  1
    B20_5  COST  11.4041441444
    B20_5  HUB20  -1
    B20_5  DEM5  1
    B20_6  COST  2.68270545713
    B20_6  HUB20  -1
    B20_6  DEM6  1
    B20_9  COST  12.7513764979
    B20_9  HUB20  -1
    B20_9  DEM9  1
    B20_14  COST  5.85631968294
    B20_14  HUB20  -1
    B20_14  DEM14  1
    B20_16  COST  11.1507550453
    B20_16  HUB20  -1
    B20_16  DEM16  1
    B20_17  COST  3.87187431174
    B20_17  HUB20  -1
    B20_17  DEM17  1
    B20_21  COST  2.67150765448
    B20_21  HUB20  -1
    B20_21  DEM21  1
    B20_22  COST  8.15503290699
    B20_22  HUB20  -1
    B20_22  DEM22  1
    B20_23  COST  9.44061999585
    B20_23  HUB20  -1
    B20_23  DEM23  1
    B20_24  COST  11.1623817307
    B20_24  HUB20  -1
    B20_24  DEM24  1
    B20_30  COST  11.3434598561
    B20_30  HUB20  -1
    B20_30  DEM30  1
    B20_31  COST  5.78498972829
    B20_31  HUB20  -1
    B20_31  DEM31  1
    B20_35  COST  12.4263799225
    B20_35  HUB20  -1
    B20_35  DEM35  1
    B20_39  COST  6.28357409988
    B20_39  HUB20  -1
    B20_39  DEM39  1
    B20_41  COST  12.7541303963
    B20_41  HUB20  -1
    B20_41  DEM41  1
    B20_45  COST  4.48942307189
    B20_45  HUB20  -1
    B20_45  DEM45  1
    B20_47  COST  13.9838351195
    B20_47  HUB20  -1
    B20_47  DEM47  1
    B20_48  COST  4.33145349936
    B20_48  HUB20  -1
    B20_48  DEM48  1
    B20_49  COST  11.71408071
    B20_49  HUB20  -1
    B20_49  DEM49  1
    B20_52  COST  7.9756636528
    B20_52  HUB20  -1
    B20_52  DEM52  1
    B20_58  COST  8.32119469703
    B20_58  HUB20  -1
    B20_58  DEM58  1
    B20_59  COST  10.5981517667
    B20_59  HUB20  -1
    B20_59  DEM59  1
    B20_60  COST  2.4509729352
    B20_60  HUB20  -1
    B20_60  DEM60  1
    B20_61  COST  3.92345525479
    B20_61  HUB20  -1
    B20_61  DEM61  1
    B20_66  COST  3.71755831628
    B20_66  HUB20  -1
    B20_66  DEM66  1
    B20_67  COST  9.30190920534
    B20_67  HUB20  -1
    B20_67  DEM67  1
    B20_71  COST  9.85974382909
    B20_71  HUB20  -1
    B20_71  DEM71  1
    B20_73  COST  4.5695500763
    B20_73  HUB20  -1
    B20_73  DEM73  1
    B20_74  COST  7.56123069696
    B20_74  HUB20  -1
    B20_74  DEM74  1
    B20_75  COST  3.34772443665
    B20_75  HUB20  -1
    B20_75  DEM75  1
    B20_79  COST  7.36758161885
    B20_79  HUB20  -1
    B20_79  DEM79  1
    B20_80  COST  2.1218974818
    B20_80  HUB20  -1
    B20_80  DEM80  1
    B20_81  COST  6.55275979156
    B20_81  HUB20  -1
    B20_81  DEM81  1
    B20_85  COST  13.924527271
    B20_85  HUB20  -1
    B20_85  DEM85  1
    B20_86  COST  3.4998635263
    B20_86  HUB20  -1
    B20_86  DEM86  1
    B20_87  COST  12.7882283988
    B20_87  HUB20  -1
    B20_87  DEM87  1
    B20_88  COST  2.22152483384
    B20_88  HUB20  -1
    B20_88  DEM88  1
    B20_90  COST  3.98496730717
    B20_90  HUB20  -1
    B20_90  DEM90  1
    B20_91  COST  12.5679397932
    B20_91  HUB20  -1
    B20_91  DEM91  1
    B20_93  COST  13.4089282117
    B20_93  HUB20  -1
    B20_93  DEM93  1
    B20_96  COST  13.9477076722
    B20_96  HUB20  -1
    B20_96  DEM96  1
    B20_97  COST  3.45955486404
    B20_97  HUB20  -1
    B20_97  DEM97  1
    B20_104  COST  1.63091713869
    B20_104  HUB20  -1
    B20_104  DEM104  1
    B20_105  COST  9.97683065111
    B20_105  HUB20  -1
    B20_105  DEM105  1
    B20_106  COST  12.3412988684
    B20_106  HUB20  -1
    B20_106  DEM106  1
    B20_109  COST  12.2463097534
    B20_109  HUB20  -1
    B20_109  DEM109  1
    B21_0  COST  3.69924099322
    B21_0  HUB21  -1
    B21_0  DEM0  1
    B21_1  COST  5.34909049664
    B21_1  HUB21  -1
    B21_1  DEM1  1
    B21_3  COST  8.88432281981
    B21_3  HUB21  -1
    B21_3  DEM3  1
    B21_5  COST  11.5725205141
    B21_5  HUB21  -1
    B21_5  DEM5  1
    B21_8  COST  2.65934089756
    B21_8  HUB21  -1
    B21_8  DEM8  1
    B21_11  COST  4.96848094735
    B21_11  HUB21  -1
    B21_11  DEM11  1
    B21_13  COST  1.94325969412
    B21_13  HUB21  -1
    B21_13  DEM13  1
    B21_18  COST  3.51058691361
    B21_18  HUB21  -1
    B21_18  DEM18  1
    B21_19  COST  10.9090910492
    B21_19  HUB21  -1
    B21_19  DEM19  1
    B21_24  COST  3.83929018484
    B21_24  HUB21  -1
    B21_24  DEM24  1
    B21_25  COST  5.54789731287
    B21_25  HUB21  -1
    B21_25  DEM25  1
    B21_31  COST  11.4933094464
    B21_31  HUB21  -1
    B21_31  DEM31  1
    B21_33  COST  4.13119720789
    B21_33  HUB21  -1
    B21_33  DEM33  1
    B21_37  COST  11.7462938124
    B21_37  HUB21  -1
    B21_37  DEM37  1
    B21_38  COST  4.83016015501
    B21_38  HUB21  -1
    B21_38  DEM38  1
    B21_41  COST  8.60906058549
    B21_41  HUB21  -1
    B21_41  DEM41  1
    B21_44  COST  1.98818245775
    B21_44  HUB21  -1
    B21_44  DEM44  1
    B21_45  COST  13.5620051757
    B21_45  HUB21  -1
    B21_45  DEM45  1
    B21_49  COST  13.0634576025
    B21_49  HUB21  -1
    B21_49  DEM49  1
    B21_50  COST  4.01748435873
    B21_50  HUB21  -1
    B21_50  DEM50  1
    B21_51  COST  13.6683284497
    B21_51  HUB21  -1
    B21_51  DEM51  1
    B21_54  COST  11.1316196066
    B21_54  HUB21  -1
    B21_54  DEM54  1
    B21_55  COST  4.84808890991
    B21_55  HUB21  -1
    B21_55  DEM55  1
    B21_56  COST  4.67317436043
    B21_56  HUB21  -1
    B21_56  DEM56  1
    B21_57  COST  9.95082975645
    B21_57  HUB21  -1
    B21_57  DEM57  1
    B21_60  COST  5.98210925869
    B21_60  HUB21  -1
    B21_60  DEM60  1
    B21_63  COST  1.35143778059
    B21_63  HUB21  -1
    B21_63  DEM63  1
    B21_64  COST  12.3224389862
    B21_64  HUB21  -1
    B21_64  DEM64  1
    B21_66  COST  1.59243118592
    B21_66  HUB21  -1
    B21_66  DEM66  1
    B21_68  COST  8.25814843139
    B21_68  HUB21  -1
    B21_68  DEM68  1
    B21_69  COST  9.12603567933
    B21_69  HUB21  -1
    B21_69  DEM69  1
    B21_71  COST  11.6308467743
    B21_71  HUB21  -1
    B21_71  DEM71  1
    B21_74  COST  13.5498710709
    B21_74  HUB21  -1
    B21_74  DEM74  1
    B21_75  COST  9.82335476932
    B21_75  HUB21  -1
    B21_75  DEM75  1
    B21_77  COST  5.59647786597
    B21_77  HUB21  -1
    B21_77  DEM77  1
    B21_78  COST  9.85797681557
    B21_78  HUB21  -1
    B21_78  DEM78  1
    B21_79  COST  5.43857723355
    B21_79  HUB21  -1
    B21_79  DEM79  1
    B21_80  COST  2.99877687937
    B21_80  HUB21  -1
    B21_80  DEM80  1
    B21_81  COST  8.92010134786
    B21_81  HUB21  -1
    B21_81  DEM81  1
    B21_83  COST  4.1294639708
    B21_83  HUB21  -1
    B21_83  DEM83  1
    B21_84  COST  13.7917305517
    B21_84  HUB21  -1
    B21_84  DEM84  1
    B21_85  COST  6.87810017223
    B21_85  HUB21  -1
    B21_85  DEM85  1
    B21_86  COST  6.35845419888
    B21_86  HUB21  -1
    B21_86  DEM86  1
    B21_87  COST  10.2267755551
    B21_87  HUB21  -1
    B21_87  DEM87  1
    B21_90  COST  1.39694110789
    B21_90  HUB21  -1
    B21_90  DEM90  1
    B21_92  COST  10.782108545
    B21_92  HUB21  -1
    B21_92  DEM92  1
    B21_93  COST  2.71825459728
    B21_93  HUB21  -1
    B21_93  DEM93  1
    B21_96  COST  12.1563749694
    B21_96  HUB21  -1
    B21_96  DEM96  1
    B21_97  COST  4.31509879133
    B21_97  HUB21  -1
    B21_97  DEM97  1
    B21_102  COST  1.48540058858
    B21_102  HUB21  -1
    B21_102  DEM102  1
    B21_104  COST  10.8537495206
    B21_104  HUB21  -1
    B21_104  DEM104  1
    B21_105  COST  4.34142389111
    B21_105  HUB21  -1
    B21_105  DEM105  1
    B21_106  COST  1.38832027079
    B21_106  HUB21  -1
    B21_106  DEM106  1
    B21_107  COST  1.45975659048
    B21_107  HUB21  -1
    B21_107  DEM107  1
    B21_109  COST  2.19656428776
    B21_109  HUB21  -1
    B21_109  DEM109  1
    B22_0  COST  13.0781720219
    B22_0  HUB22  -1
    B22_0  DEM0  1
    B22_3  COST  10.417128467
    B22_3  HUB22  -1
    B22_3  DEM3  1
    B22_6  COST  6.14741610025
    B22_6  HUB22  -1
    B22_6  DEM6  1
    B22_9  COST  3.54471735308
    B22_9  HUB22  -1
    B22_9  DEM9  1
    B22_11  COST  12.9668442002
    B22_11  HUB22  -1
    B22_11  DEM11  1
    B22_13  COST  8.82963479679
    B22_13  HUB22  -1
    B22_13  DEM13  1
    B22_14  COST  8.59677551775
    B22_14  HUB22  -1
    B22_14  DEM14  1
    B22_16  COST  7.91687078145
    B22_16  HUB22  -1
    B22_16  DEM16  1
    B22_19  COST  1.74368244465
    B22_19  HUB22  -1
    B22_19  DEM19  1
    B22_21  COST  1.8016306454
    B22_21  HUB22  -1
    B22_21  DEM21  1
    B22_23  COST  5.25856878578
    B22_23  HUB22  -1
    B22_23  DEM23  1
    B22_25  COST  1.14429800149
    B22_25  HUB22  -1
    B22_25  DEM25  1
    B22_26  COST  7.49768105783
    B22_26  HUB22  -1
    B22_26  DEM26  1
    B22_35  COST  5.96331802974
    B22_35  HUB22  -1
    B22_35  DEM35  1
    B22_36  COST  10.9126130888
    B22_36  HUB22  -1
    B22_36  DEM36  1
    B22_42  COST  8.95877423766
    B22_42  HUB22  -1
    B22_42  DEM42  1
    B22_43  COST  7.96339411052
    B22_43  HUB22  -1
    B22_43  DEM43  1
    B22_46  COST  2.74173084299
    B22_46  HUB22  -1
    B22_46  DEM46  1
    B22_48  COST  8.11886982926
    B22_48  HUB22  -1
    B22_48  DEM48  1
    B22_50  COST  13.2479942785
    B22_50  HUB22  -1
    B22_50  DEM50  1
    B22_51  COST  7.60901013828
    B22_51  HUB22  -1
    B22_51  DEM51  1
    B22_55  COST  2.50744306469
    B22_55  HUB22  -1
    B22_55  DEM55  1
    B22_57  COST  7.79237212271
    B22_57  HUB22  -1
    B22_57  DEM57  1
    B22_58  COST  13.5004295563
    B22_58  HUB22  -1
    B22_58  DEM58  1
    B22_60  COST  9.00114909553
    B22_60  HUB22  -1
    B22_60  DEM60  1
    B22_61  COST  7.75413430451
    B22_61  HUB22  -1
    B22_61  DEM61  1
    B22_62  COST  8.55364837242
    B22_62  HUB22  -1
    B22_62  DEM62  1
    B22_63  COST  9.31304473354
    B22_63  HUB22  -1
    B22_63  DEM63  1
    B22_68  COST  6.27220273009
    B22_68  HUB22  -1
    B22_68  DEM68  1
    B22_70  COST  7.08385763761
    B22_70  HUB22  -1
    B22_70  DEM70  1
    B22_71  COST  8.68237637153
    B22_71  HUB22  -1
    B22_71  DEM71  1
    B22_72  COST  7.33649575473
    B22_72  HUB22  -1
    B22_72  DEM72  1
    B22_73  COST  7.76659219092
    B22_73  HUB22  -1
    B22_73  DEM73  1
    B22_78  COST  12.7370626864
    B22_78  HUB22  -1
    B22_78  DEM78  1
    B22_79  COST  4.60057608641
    B22_79  HUB22  -1
    B22_79  DEM79  1
    B22_80  COST  3.89589270806
    B22_80  HUB22  -1
    B22_80  DEM80  1
    B22_81  COST  13.1900853961
    B22_81  HUB22  -1
    B22_81  DEM81  1
    B22_82  COST  5.93867724321
    B22_82  HUB22  -1
    B22_82  DEM82  1
    B22_84  COST  3.92410971365
    B22_84  HUB22  -1
    B22_84  DEM84  1
    B22_85  COST  3.10428990193
    B22_85  HUB22  -1
    B22_85  DEM85  1
    B22_91  COST  10.3169795734
    B22_91  HUB22  -1
    B22_91  DEM91  1
    B22_92  COST  10.3360845066
    B22_92  HUB22  -1
    B22_92  DEM92  1
    B22_95  COST  6.93141504831
    B22_95  HUB22  -1
    B22_95  DEM95  1
    B22_96  COST  1.46708722443
    B22_96  HUB22  -1
    B22_96  DEM96  1
    B22_103  COST  6.83991297839
    B22_103  HUB22  -1
    B22_103  DEM103  1
    B22_107  COST  12.2546386785
    B22_107  HUB22  -1
    B22_107  DEM107  1
    B23_0  COST  12.449873905
    B23_0  HUB23  -1
    B23_0  DEM0  1
    B23_1  COST  10.8156318905
    B23_1  HUB23  -1
    B23_1  DEM1  1
    B23_4  COST  8.22291474002
    B23_4  HUB23  -1
    B23_4  DEM4  1
    B23_8  COST  7.73653968932
    B23_8  HUB23  -1
    B23_8  DEM8  1
    B23_10  COST  3.57062191011
    B23_10  HUB23  -1
    B23_10  DEM10  1
    B23_14  COST  6.09468143559
    B23_14  HUB23  -1
    B23_14  DEM14  1
    B23_16  COST  8.59820739071
    B23_16  HUB23  -1
    B23_16  DEM16  1
    B23_18  COST  4.07170852295
    B23_18  HUB23  -1
    B23_18  DEM18  1
    B23_19  COST  8.33140147864
    B23_19  HUB23  -1
    B23_19  DEM19  1
    B23_21  COST  2.3915495583
    B23_21  HUB23  -1
    B23_21  DEM21  1
    B23_23  COST  10.0503702171
    B23_23  HUB23  -1
    B23_23  DEM23  1
    B23_25  COST  7.26880585035
    B23_25  HUB23  -1
    B23_25  DEM25  1
    B23_32  COST  5.66388736278
    B23_32  HUB23  -1
    B23_32  DEM32  1
    B23_33  COST  13.2272700748
    B23_33  HUB23  -1
    B23_33  DEM33  1
    B23_34  COST  13.3297109677
    B23_34  HUB23  -1
    B23_34  DEM34  1
    B23_35  COST  5.55053536397
    B23_35  HUB23  -1
    B23_35  DEM35  1
    B23_36  COST  3.96255981025
    B23_36  HUB23  -1
    B23_36  DEM36  1
    B23_37  COST  11.9571239619
    B23_37  HUB23  -1
    B23_37  DEM37  1
    B23_38  COST  9.20957915615
    B23_38  HUB23  -1
    B23_38  DEM38  1
    B23_39  COST  10.5683585608
    B23_39  HUB23  -1
    B23_39  DEM39  1
    B23_47  COST  7.41546516887
    B23_47  HUB23  -1
    B23_47  DEM47  1
    B23_48  COST  11.12635158
    B23_48  HUB23  -1
    B23_48  DEM48  1
    B23_49  COST  7.18544197862
    B23_49  HUB23  -1
    B23_49  DEM49  1
    B23_55  COST  3.63136127596
    B23_55  HUB23  -1
    B23_55  DEM55  1
    B23_58  COST  5.30126567748
    B23_58  HUB23  -1
    B23_58  DEM58  1
    B23_59  COST  9.29608224529
    B23_59  HUB23  -1
    B23_59  DEM59  1
    B23_61  COST  11.621082566
    B23_61  HUB23  -1
    B23_61  DEM61  1
    B23_62  COST  4.75597796581
    B23_62  HUB23  -1
    B23_62  DEM62  1
    B23_63  COST  6.8095327228
    B23_63  HUB23  -1
    B23_63  DEM63  1
    B23_65  COST  3.13984820285
    B23_65  HUB23  -1
    B23_65  DEM65  1
    B23_68  COST  6.09269117693
    B23_68  HUB23  -1
    B23_68  DEM68  1
    B23_70  COST  7.49483681389
    B23_70  HUB23  -1
    B23_70  DEM70  1
    B23_72  COST  6.85030267408
    B23_72  HUB23  -1
    B23_72  DEM72  1
    B23_73  COST  11.8511343494
    B23_73  HUB23  -1
    B23_73  DEM73  1
    B23_74  COST  5.04142621971
    B23_74  HUB23  -1
    B23_74  DEM74  1
    B23_78  COST  7.15856683885
    B23_78  HUB23  -1
    B23_78  DEM78  1
    B23_80  COST  1.24623897089
    B23_80  HUB23  -1
    B23_80  DEM80  1
    B23_86  COST  2.64629253117
    B23_86  HUB23  -1
    B23_86  DEM86  1
    B23_87  COST  4.4033198687
    B23_87  HUB23  -1
    B23_87  DEM87  1
    B23_88  COST  8.22954892362
    B23_88  HUB23  -1
    B23_88  DEM88  1
    B23_89  COST  13.1009395065
    B23_89  HUB23  -1
    B23_89  DEM89  1
    B23_92  COST  13.9284130569
    B23_92  HUB23  -1
    B23_92  DEM92  1
    B23_94  COST  8.06805228562
    B23_94  HUB23  -1
    B23_94  DEM94  1
    B23_98  COST  3.37380523514
    B23_98  HUB23  -1
    B23_98  DEM98  1
    B23_100  COST  9.00139911816
    B23_100  HUB23  -1
    B23_100  DEM100  1
    B23_103  COST  13.5378718301
    B23_103  HUB23  -1
    B23_103  DEM103  1
    B23_106  COST  1.06028061972
    B23_106  HUB23  -1
    B23_106  DEM106  1
    B23_107  COST  7.45634822367
    B23_107  HUB23  -1
    B23_107  DEM107  1
    B23_108  COST  4.74142167779
    B23_108  HUB23  -1
    B23_108  DEM108  1
    B24_6  COST  11.0533532042
    B24_6  HUB24  -1
    B24_6  DEM6  1
    B24_9  COST  5.40190788871
    B24_9  HUB24  -1
    B24_9  DEM9  1
    B24_11  COST  9.14955935086
    B24_11  HUB24  -1
    B24_11  DEM11  1
    B24_12  COST  13.7710318616
    B24_12  HUB24  -1
    B24_12  DEM12  1
    B24_16  COST  13.6405772226
    B24_16  HUB24  -1
    B24_16  DEM16  1
    B24_20  COST  3.29757895981
    B24_20  HUB24  -1
    B24_20  DEM20  1
    B24_21  COST  7.76041001909
    B24_21  HUB24  -1
    B24_21  DEM21  1
    B24_22  COST  4.78107984739
    B24_22  HUB24  -1
    B24_22  DEM22  1
    B24_25  COST  4.30922531567
    B24_25  HUB24  -1
    B24_25  DEM25  1
    B24_26  COST  12.0349612956
    B24_26  HUB24  -1
    B24_26  DEM26  1
    B24_28  COST  2.54839357149
    B24_28  HUB24  -1
    B24_28  DEM28  1
    B24_29  COST  12.155050413
    B24_29  HUB24  -1
    B24_29  DEM29  1
    B24_30  COST  8.03086644088
    B24_30  HUB24  -1
    B24_30  DEM30  1
    B24_32  COST  2.75638344755
    B24_32  HUB24  -1
    B24_32  DEM32  1
    B24_38  COST  7.85651780809
    B24_38  HUB24  -1
    B24_38  DEM38  1
    B24_42  COST  13.7777485497
    B24_42  HUB24  -1
    B24_42  DEM42  1
    B24_44  COST  6.32697595307
    B24_44  HUB24  -1
    B24_44  DEM44  1
    B24_47  COST  11.1681747378
    B24_47  HUB24  -1
    B24_47  DEM47  1
    B24_51  COST  13.7650668836
    B24_51  HUB24  -1
    B24_51  DEM51  1
    B24_52  COST  1.09357076069
    B24_52  HUB24  -1
    B24_52  DEM52  1
    B24_55  COST  4.56530172969
    B24_55  HUB24  -1
    B24_55  DEM55  1
    B24_56  COST  3.60031255765
    B24_56  HUB24  -1
    B24_56  DEM56  1
    B24_57  COST  7.37300386467
    B24_57  HUB24  -1
    B24_57  DEM57  1
    B24_58  COST  2.9913692331
    B24_58  HUB24  -1
    B24_58  DEM58  1
    B24_60  COST  9.17177948257
    B24_60  HUB24  -1
    B24_60  DEM60  1
    B24_61  COST  8.99809485738
    B24_61  HUB24  -1
    B24_61  DEM61  1
    B24_62  COST  11.4079533044
    B24_62  HUB24  -1
    B24_62  DEM62  1
    B24_64  COST  13.557865473
    B24_64  HUB24  -1
    B24_64  DEM64  1
    B24_68  COST  13.3488288417
    B24_68  HUB24  -1
    B24_68  DEM68  1
    B24_69  COST  9.12337209526
    B24_69  HUB24  -1
    B24_69  DEM69  1
    B24_73  COST  4.90096797508
    B24_73  HUB24  -1
    B24_73  DEM73  1
    B24_76  COST  7.44539041121
    B24_76  HUB24  -1
    B24_76  DEM76  1
    B24_77  COST  8.90852731512
    B24_77  HUB24  -1
    B24_77  DEM77  1
    B24_78  COST  5.85578969894
    B24_78  HUB24  -1
    B24_78  DEM78  1
    B24_79  COST  1.23687122982
    B24_79  HUB24  -1
    B24_79  DEM79  1
    B24_80  COST  8.38727743031
    B24_80  HUB24  -1
    B24_80  DEM80  1
    B24_86  COST  6.83357759577
    B24_86  HUB24  -1
    B24_86  DEM86  1
    B24_87  COST  12.7051198775
    B24_87  HUB24  -1
    B24_87  DEM87  1
    B24_90  COST  10.2635992115
    B24_90  HUB24  -1
    B24_90  DEM90  1
    B24_91  COST  12.4681636695
    B24_91  HUB24  -1
    B24_91  DEM91  1
    B24_99  COST  11.7597731052
    B24_99  HUB24  -1
    B24_99  DEM99  1
    B24_106  COST  9.91150607848
    B24_106  HUB24  -1
    B24_106  DEM106  1
    B24_109  COST  11.8273467851
    B24_109  HUB24  -1
    B24_109  DEM109  1
    B25_0  COST  9.33089632523
    B25_0  HUB25  -1
    B25_0  DEM0  1
    B25_2  COST  1.56059981813
    B25_2  HUB25  -1
    B25_2  DEM2  1
    B25_7  COST  9.64827444397
    B25_7  HUB25  -1
    B25_7  DEM7  1
    B25_8  COST  5.05284817609
    B25_8  HUB25  -1
    B25_8  DEM8  1
    B25_11  COST  9.04628120073
    B25_11  HUB25  -1
    B25_11  DEM11  1
    B25_12  COST  10.0967250881
    B25_12  HUB25  -1
    B25_12  DEM12  1
    B25_17  COST  8.30206165783
    B25_17  HUB25  -1
    B25_17  DEM17  1
    B25_18  COST  6.93796822164
    B25_18  HUB25  -1
    B25_18  DEM18  1
    B25_19  COST  8.42050534422
    B25_19  HUB25  -1
    B25_19  DEM19  1
    B25_20  COST  9.33514109328
    B25_20  HUB25  -1
    B25_20  DEM20  1
    B25_21  COST  13.8901575848
    B25_21  HUB25  -1
    B25_21  DEM21  1
    B25_22  COST  9.56707010977
    B25_22  HUB25  -1
    B25_22  DEM22  1
    B25_23  COST  12.6194796717
    B25_23  HUB25  -1
    B25_23  DEM23  1
    B25_25  COST  12.2023728975
    B25_25  HUB25  -1
    B25_25  DEM25  1
    B25_26  COST  12.1182436969
    B25_26  HUB25  -1
    B25_26  DEM26  1
    B25_27  COST  4.81232849541
    B25_27  HUB25  -1
    B25_27  DEM27  1
    B25_29  COST  1.14176400907
    B25_29  HUB25  -1
    B25_29  DEM29  1
    B25_31  COST  8.66783992381
    B25_31  HUB25  -1
    B25_31  DEM31  1
    B25_33  COST  11.0425117172
    B25_33  HUB25  -1
    B25_33  DEM33  1
    B25_34  COST  5.49103249214
    B25_34  HUB25  -1
    B25_34  DEM34  1
    B25_35  COST  5.82309910282
    B25_35  HUB25  -1
    B25_35  DEM35  1
    B25_37  COST  3.51877141806
    B25_37  HUB25  -1
    B25_37  DEM37  1
    B25_39  COST  3.65363579448
    B25_39  HUB25  -1
    B25_39  DEM39  1
    B25_41  COST  13.5986123838
    B25_41  HUB25  -1
    B25_41  DEM41  1
    B25_42  COST  5.83495968383
    B25_42  HUB25  -1
    B25_42  DEM42  1
    B25_45  COST  6.22835478246
    B25_45  HUB25  -1
    B25_45  DEM45  1
    B25_46  COST  9.3509756107
    B25_46  HUB25  -1
    B25_46  DEM46  1
    B25_47  COST  8.75492668905
    B25_47  HUB25  -1
    B25_47  DEM47  1
    B25_56  COST  7.72124599578
    B25_56  HUB25  -1
    B25_56  DEM56  1
    B25_57  COST  6.10897921027
    B25_57  HUB25  -1
    B25_57  DEM57  1
    B25_58  COST  11.5125992276
    B25_58  HUB25  -1
    B25_58  DEM58  1
    B25_61  COST  2.97089868236
    B25_61  HUB25  -1
    B25_61  DEM61  1
    B25_63  COST  12.7851989681
    B25_63  HUB25  -1
    B25_63  DEM63  1
    B25_70  COST  9.10075989078
    B25_70  HUB25  -1
    B25_70  DEM70  1
    B25_71  COST  5.98882737135
    B25_71  HUB25  -1
    B25_71  DEM71  1
    B25_73  COST  3.32304202493
    B25_73  HUB25  -1
    B25_73  DEM73  1
    B25_74  COST  7.24403763198
    B25_74  HUB25  -1
    B25_74  DEM74  1
    B25_75  COST  6.14442233005
    B25_75  HUB25  -1
    B25_75  DEM75  1
    B25_78  COST  2.61933847186
    B25_78  HUB25  -1
    B25_78  DEM78  1
    B25_79  COST  10.3149935097
    B25_79  HUB25  -1
    B25_79  DEM79  1
    B25_82  COST  5.73746673931
    B25_82  HUB25  -1
    B25_82  DEM82  1
    B25_84  COST  7.46907754512
    B25_84  HUB25  -1
    B25_84  DEM84  1
    B25_87  COST  9.03994996853
    B25_87  HUB25  -1
    B25_87  DEM87  1
    B25_88  COST  5.28297585527
    B25_88  HUB25  -1
    B25_88  DEM88  1
    B25_90  COST  5.61323141197
    B25_90  HUB25  -1
    B25_90  DEM90  1
    B25_93  COST  9.99748377297
    B25_93  HUB25  -1
    B25_93  DEM93  1
    B25_104  COST  5.4112671111
    B25_104  HUB25  -1
    B25_104  DEM104  1
    B25_106  COST  1.13339754667
    B25_106  HUB25  -1
    B25_106  DEM106  1
    B25_108  COST  13.8070139575
    B25_108  HUB25  -1
    B25_108  DEM108  1
    B25_109  COST  2.54505713536
    B25_109  HUB25  -1
    B25_109  DEM109  1
    B26_0  COST  5.86221890096
    B26_0  HUB26  -1
    B26_0  DEM0  1
    B26_1  COST  11.6236237018
    B26_1  HUB26  -1
    B26_1  DEM1  1
    B26_2  COST  4.13648873957
    B26_2  HUB26  -1
    B26_2  DEM2  1
    B26_4  COST  13.9841266055
    B26_4  HUB26  -1
    B26_4  DEM4  1
    B26_7  COST  4.08693569888
    B26_7  HUB26  -1
    B26_7  DEM7  1
    B26_9  COST  8.62785355389
    B26_9  HUB26  -1
    B26_9  DEM9  1
    B26_12  COST  12.7451632163
    B26_12  HUB26  -1
    B26_12  DEM12  1
    B26_15  COST  9.9840473544
    B26_15  HUB26  -1
    B26_15  DEM15  1
    B26_17  COST  6.79490881037
    B26_17  HUB26  -1
    B26_17  DEM17  1
    B26_18  COST  13.8698605074
    B26_18  HUB26  -1
    B26_18  DEM18  1
    B26_19  COST  10.8328644057
    B26_19  HUB26  -1
    B26_19  DEM19  1
    B26_21  COST  12.8157963805
    B26_21  HUB26  -1
    B26_21  DEM21  1
    B26_22  COST  3.84801300882
    B26_22  HUB26  -1
    B26_22  DEM22  1
    B26_24  COST  8.7925501204
    B26_24  HUB26  -1
    B26_24  DEM24  1
    B26_28  COST  2.36385121265
    B26_28  HUB26  -1
    B26_28  DEM28  1
    B26_34  COST  3.71052988568
    B26_34  HUB26  -1
    B26_34  DEM34  1
    B26_36  COST  6.33331113385
    B26_36  HUB26  -1
    B26_36  DEM36  1
    B26_37  COST  8.24183075778
    B26_37  HUB26  -1
    B26_37  DEM37  1
    B26_38  COST  11.9528727806
    B26_38  HUB26  -1
    B26_38  DEM38  1
    B26_40  COST  9.09942832806
    B26_40  HUB26  -1
    B26_40  DEM40  1
    B26_46  COST  13.9596990107
    B26_46  HUB26  -1
    B26_46  DEM46  1
    B26_47  COST  8.85199339322
    B26_47  HUB26  -1
    B26_47  DEM47  1
    B26_57  COST  12.4898517976
    B26_57  HUB26  -1
    B26_57  DEM57  1
    B26_58  COST  4.8544954229
    B26_58  HUB26  -1
    B26_58  DEM58  1
    B26_59  COST  4.63185476636
    B26_59  HUB26  -1
    B26_59  DEM59  1
    B26_61  COST  3.65256662183
    B26_61  HUB26  -1
    B26_61  DEM61  1
    B26_62  COST  6.18109757273
    B26_62  HUB26  -1
    B26_62  DEM62  1
    B26_64  COST  5.75369439418
    B26_64  HUB26  -1
    B26_64  DEM64  1
    B26_65  COST  12.6340102326
    B26_65  HUB26  -1
    B26_65  DEM65  1
    B26_67  COST  3.02096383356
    B26_67  HUB26  -1
    B26_67  DEM67  1
    B26_68  COST  12.0620045176
    B26_68  HUB26  -1
    B26_68  DEM68  1
    B26_69  COST  3.46023547596
    B26_69  HUB26  -1
    B26_69  DEM69  1
    B26_71  COST  11.3226015427
    B26_71  HUB26  -1
    B26_71  DEM71  1
    B26_73  COST  10.636840982
    B26_73  HUB26  -1
    B26_73  DEM73  1
    B26_77  COST  6.04636402392
    B26_77  HUB26  -1
    B26_77  DEM77  1
    B26_80  COST  6.80624527953
    B26_80  HUB26  -1
    B26_80  DEM80  1
    B26_81  COST  5.328382523
    B26_81  HUB26  -1
    B26_81  DEM81  1
    B26_83  COST  1.35023923676
    B26_83  HUB26  -1
    B26_83  DEM83  1
    B26_85  COST  6.51012067435
    B26_85  HUB26  -1
    B26_85  DEM85  1
    B26_90  COST  3.12313070803
    B26_90  HUB26  -1
    B26_90  DEM90  1
    B26_91  COST  12.2161360737
    B26_91  HUB26  -1
    B26_91  DEM91  1
    B26_95  COST  1.30411603778
    B26_95  HUB26  -1
    B26_95  DEM95  1
    B26_102  COST  12.0294762171
    B26_102  HUB26  -1
    B26_102  DEM102  1
    B26_105  COST  13.9647547397
    B26_105  HUB26  -1
    B26_105  DEM105  1
    B26_106  COST  8.74532616407
    B26_106  HUB26  -1
    B26_106  DEM106  1
    B26_107  COST  2.23006070207
    B26_107  HUB26  -1
    B26_107  DEM107  1
    B26_108  COST  7.91071164963
    B26_108  HUB26  -1
    B26_108  DEM108  1
    B27_0  COST  6.5665032699
    B27_0  HUB27  -1
    B27_0  DEM0  1
    B27_4  COST  7.20365590271
    B27_4  HUB27  -1
    B27_4  DEM4  1
    B27_5  COST  2.77570216111
    B27_5  HUB27  -1
    B27_5  DEM5  1
    B27_8  COST  5.94203170213
    B27_8  HUB27  -1
    B27_8  DEM8  1
    B27_9  COST  8.32473648707
    B27_9  HUB27  -1
    B27_9  DEM9  1
    B27_10  COST  9.64648550524
    B27_10  HUB27  -1
    B27_10  DEM10  1
    B27_11  COST  11.7534691834
    B27_11  HUB27  -1
    B27_11  DEM11  1
    B27_12  COST  1.83188389797
    B27_12  HUB27  -1
    B27_12  DEM12  1
    B27_15  COST  11.5996149271
    B27_15  HUB27  -1
    B27_15  DEM15  1
    B27_16  COST  4.50639160725
    B27_16  HUB27  -1
    B27_16  DEM16  1
    B27_17  COST  12.1430365961
    B27_17  HUB27  -1
    B27_17  DEM17  1
    B27_20  COST  7.2466272926
    B27_20  HUB27  -1
    B27_20  DEM20  1
    B27_21  COST  8.34183011939
    B27_21  HUB27  -1
    B27_21  DEM21  1
    B27_22  COST  4.48389050218
    B27_22  HUB27  -1
    B27_22  DEM22  1
    B27_29  COST  12.4320485528
    B27_29  HUB27  -1
    B27_29  DEM29  1
    B27_31  COST  11.5686271655
    B27_31  HUB27  -1
    B27_31  DEM31  1
    B27_33  COST  11.6979684555
    B27_33  HUB27  -1
    B27_33  DEM33  1
    B27_34  COST  2.23642243384
    B27_34  HUB27  -1
    B27_34  DEM34  1
    B27_35  COST  11.9225628862
    B27_35  HUB27  -1
    B27_35  DEM35  1
    B27_36  COST  7.06526928437
    B27_36  HUB27  -1
    B27_36  DEM36  1
    B27_37  COST  9.90948542189
    B27_37  HUB27  -1
    B27_37  DEM37  1
    B27_38  COST  13.8287227136
    B27_38  HUB27  -1
    B27_38  DEM38  1
    B27_39  COST  1.46959943896
    B27_39  HUB27  -1
    B27_39  DEM39  1
    B27_40  COST  3.28217232215
    B27_40  HUB27  -1
    B27_40  DEM40  1
    B27_46  COST  1.3119068624
    B27_46  HUB27  -1
    B27_46  DEM46  1
    B27_48  COST  2.28470280071
    B27_48  HUB27  -1
    B27_48  DEM48  1
    B27_51  COST  1.93703145155
    B27_51  HUB27  -1
    B27_51  DEM51  1
    B27_53  COST  10.2494087349
    B27_53  HUB27  -1
    B27_53  DEM53  1
    B27_55  COST  2.91632058691
    B27_55  HUB27  -1
    B27_55  DEM55  1
    B27_57  COST  8.75292294622
    B27_57  HUB27  -1
    B27_57  DEM57  1
    B27_58  COST  12.8828588871
    B27_58  HUB27  -1
    B27_58  DEM58  1
    B27_60  COST  5.55654580011
    B27_60  HUB27  -1
    B27_60  DEM60  1
    B27_62  COST  8.39094994984
    B27_62  HUB27  -1
    B27_62  DEM62  1
    B27_63  COST  11.5412390479
    B27_63  HUB27  -1
    B27_63  DEM63  1
    B27_65  COST  4.72982252367
    B27_65  HUB27  -1
    B27_65  DEM65  1
    B27_66  COST  7.12004768405
    B27_66  HUB27  -1
    B27_66  DEM66  1
    B27_67  COST  1.61420748462
    B27_67  HUB27  -1
    B27_67  DEM67  1
    B27_70  COST  10.6111330297
    B27_70  HUB27  -1
    B27_70  DEM70  1
    B27_71  COST  1.3531012799
    B27_71  HUB27  -1
    B27_71  DEM71  1
    B27_72  COST  3.22918519425
    B27_72  HUB27  -1
    B27_72  DEM72  1
    B27_79  COST  5.35629925384
    B27_79  HUB27  -1
    B27_79  DEM79  1
    B27_88  COST  4.08653453623
    B27_88  HUB27  -1
    B27_88  DEM88  1
    B27_90  COST  3.89046558438
    B27_90  HUB27  -1
    B27_90  DEM90  1
    B27_92  COST  9.25894594561
    B27_92  HUB27  -1
    B27_92  DEM92  1
    B27_95  COST  12.4048517412
    B27_95  HUB27  -1
    B27_95  DEM95  1
    B27_96  COST  4.67533453249
    B27_96  HUB27  -1
    B27_96  DEM96  1
    B27_98  COST  6.35854561949
    B27_98  HUB27  -1
    B27_98  DEM98  1
    B27_99  COST  13.4540350328
    B27_99  HUB27  -1
    B27_99  DEM99  1
    B27_101  COST  2.80516056748
    B27_101  HUB27  -1
    B27_101  DEM101  1
    B27_102  COST  2.10172769561
    B27_102  HUB27  -1
    B27_102  DEM102  1
    B27_104  COST  12.335118471
    B27_104  HUB27  -1
    B27_104  DEM104  1
    B27_105  COST  1.95068056179
    B27_105  HUB27  -1
    B27_105  DEM105  1
    B27_106  COST  9.41311975957
    B27_106  HUB27  -1
    B27_106  DEM106  1
    B28_1  COST  12.5310535874
    B28_1  HUB28  -1
    B28_1  DEM1  1
    B28_3  COST  7.66999529282
    B28_3  HUB28  -1
    B28_3  DEM3  1
    B28_4  COST  12.1901438091
    B28_4  HUB28  -1
    B28_4  DEM4  1
    B28_7  COST  13.1221041622
    B28_7  HUB28  -1
    B28_7  DEM7  1
    B28_13  COST  10.2236348885
    B28_13  HUB28  -1
    B28_13  DEM13  1
    B28_17  COST  12.3837644222
    B28_17  HUB28  -1
    B28_17  DEM17  1
    B28_20  COST  8.34851011507
    B28_20  HUB28  -1
    B28_20  DEM20  1
    B28_21  COST  4.59077766452
    B28_21  HUB28  -1
    B28_21  DEM21  1
    B28_22  COST  5.19227543284
    B28_22  HUB28  -1
    B28_22  DEM22  1
    B28_23  COST  12.7702867019
    B28_23  HUB28  -1
    B28_23  DEM23  1
    B28_24  COST  12.3045824155
    B28_24  HUB28  -1
    B28_24  DEM24  1
    B28_25  COST  8.90141815339
    B28_25  HUB28  -1
    B28_25  DEM25  1
    B28_30  COST  10.2109725592
    B28_30  HUB28  -1
    B28_30  DEM30  1
    B28_31  COST  12.1073384257
    B28_31  HUB28  -1
    B28_31  DEM31  1
    B28_32  COST  3.42066403525
    B28_32  HUB28  -1
    B28_32  DEM32  1
    B28_33  COST  12.1627819596
    B28_33  HUB28  -1
    B28_33  DEM33  1
    B28_34  COST  1.08004016001
    B28_34  HUB28  -1
    B28_34  DEM34  1
    B28_37  COST  10.0760515392
    B28_37  HUB28  -1
    B28_37  DEM37  1
    B28_38  COST  13.7283007802
    B28_38  HUB28  -1
    B28_38  DEM38  1
    B28_39  COST  12.1773570597
    B28_39  HUB28  -1
    B28_39  DEM39  1
    B28_41  COST  1.34536047456
    B28_41  HUB28  -1
    B28_41  DEM41  1
    B28_43  COST  3.09929368721
    B28_43  HUB28  -1
    B28_43  DEM43  1
    B28_44  COST  13.0014301051
    B28_44  HUB28  -1
    B28_44  DEM44  1
    B28_50  COST  4.25403836742
    B28_50  HUB28  -1
    B28_50  DEM50  1
    B28_51  COST  3.32680313477
    B28_51  HUB28  -1
    B28_51  DEM51  1
    B28_52  COST  1.30775387172
    B28_52  HUB28  -1
    B28_52  DEM52  1
    B28_59  COST  10.9726708623
    B28_59  HUB28  -1
    B28_59  DEM59  1
    B28_63  COST  6.80255632446
    B28_63  HUB28  -1
    B28_63  DEM63  1
    B28_64  COST  13.5532163679
    B28_64  HUB28  -1
    B28_64  DEM64  1
    B28_66  COST  2.7373703949
    B28_66  HUB28  -1
    B28_66  DEM66  1
    B28_67  COST  3.99349998249
    B28_67  HUB28  -1
    B28_67  DEM67  1
    B28_70  COST  3.95068045491
    B28_70  HUB28  -1
    B28_70  DEM70  1
    B28_76  COST  12.0545125489
    B28_76  HUB28  -1
    B28_76  DEM76  1
    B28_77  COST  11.1567375989
    B28_77  HUB28  -1
    B28_77  DEM77  1
    B28_80  COST  2.90009234421
    B28_80  HUB28  -1
    B28_80  DEM80  1
    B28_82  COST  6.4493457896
    B28_82  HUB28  -1
    B28_82  DEM82  1
    B28_84  COST  6.55106345266
    B28_84  HUB28  -1
    B28_84  DEM84  1
    B28_85  COST  13.03711292
    B28_85  HUB28  -1
    B28_85  DEM85  1
    B28_86  COST  8.90233713944
    B28_86  HUB28  -1
    B28_86  DEM86  1
    B28_87  COST  12.9660902642
    B28_87  HUB28  -1
    B28_87  DEM87  1
    B28_89  COST  1.09452451945
    B28_89  HUB28  -1
    B28_89  DEM89  1
    B28_90  COST  10.6948186007
    B28_90  HUB28  -1
    B28_90  DEM90  1
    B28_94  COST  6.97110589684
    B28_94  HUB28  -1
    B28_94  DEM94  1
    B28_96  COST  13.1269439377
    B28_96  HUB28  -1
    B28_96  DEM96  1
    B28_97  COST  12.6836952783
    B28_97  HUB28  -1
    B28_97  DEM97  1
    B28_102  COST  3.49212587421
    B28_102  HUB28  -1
    B28_102  DEM102  1
    B28_105  COST  2.81233364839
    B28_105  HUB28  -1
    B28_105  DEM105  1
    B28_108  COST  10.6523079216
    B28_108  HUB28  -1
    B28_108  DEM108  1
    B29_2  COST  4.5167520015
    B29_2  HUB29  -1
    B29_2  DEM2  1
    B29_3  COST  4.11462833342
    B29_3  HUB29  -1
    B29_3  DEM3  1
    B29_6  COST  1.77257970373
    B29_6  HUB29  -1
    B29_6  DEM6  1
    B29_10  COST  4.62662379988
    B29_10  HUB29  -1
    B29_10  DEM10  1
    B29_13  COST  12.2663566241
    B29_13  HUB29  -1
    B29_13  DEM13  1
    B29_14  COST  7.59111193322
    B29_14  HUB29  -1
    B29_14  DEM14  1
    B29_16  COST  5.87911441826
    B29_16  HUB29  -1
    B29_16  DEM16  1
    B29_17  COST  13.4267812033
    B29_17  HUB29  -1
    B29_17  DEM17  1
    B29_19  COST  13.7155353524
    B29_19  HUB29  -1
    B29_19  DEM19  1
    B29_20  COST  6.90384422378
    B29_20  HUB29  -1
    B29_20  DEM20  1
    B29_21  COST  12.6810823801
    B29_21  HUB29  -1
    B29_21  DEM21  1
    B29_22  COST  5.57915126184
    B29_22  HUB29  -1
    B29_22  DEM22  1
    B29_24  COST  13.6808226742
    B29_24  HUB29  -1
    B29_24  DEM24  1
    B29_26  COST  10.3972522258
    B29_26  HUB29  -1
    B29_26  DEM26  1
    B29_27  COST  3.96318709263
    B29_27  HUB29  -1
    B29_27  DEM27  1
    B29_29  COST  11.7857189197
    B29_29  HUB29  -1
    B29_29  DEM29  1
    B29_30  COST  3.3555999469
    B29_30  HUB29  -1
    B29_30  DEM30  1
    B29_31  COST  2.49950390183
    B29_31  HUB29  -1
    B29_31  DEM31  1
    B29_38  COST  4.3707355137
    B29_38  HUB29  -1
    B29_38  DEM38  1
    B29_39  COST  1.43464302668
    B29_39  HUB29  -1
    B29_39  DEM39  1
    B29_43  COST  13.2717559817
    B29_43  HUB29  -1
    B29_43  DEM43  1
    B29_46  COST  5.39186579763
    B29_46  HUB29  -1
    B29_46  DEM46  1
    B29_51  COST  2.08251251946
    B29_51  HUB29  -1
    B29_51  DEM51  1
    B29_53  COST  2.30941161231
    B29_53  HUB29  -1
    B29_53  DEM53  1
    B29_54  COST  7.26650997787
    B29_54  HUB29  -1
    B29_54  DEM54  1
    B29_55  COST  6.02538426162
    B29_55  HUB29  -1
    B29_55  DEM55  1
    B29_57  COST  6.49514023907
    B29_57  HUB29  -1
    B29_57  DEM57  1
    B29_58  COST  3.35153221542
    B29_58  HUB29  -1
    B29_58  DEM58  1
    B29_61  COST  6.43151758054
    B29_61  HUB29  -1
    B29_61  DEM61  1
    B29_64  COST  5.47487391689
    B29_64  HUB29  -1
    B29_64  DEM64  1
    B29_65  COST  12.9960819872
    B29_65  HUB29  -1
    B29_65  DEM65  1
    B29_67  COST  13.372151245
    B29_67  HUB29  -1
    B29_67  DEM67  1
    B29_68  COST  5.28877274084
    B29_68  HUB29  -1
    B29_68  DEM68  1
    B29_69  COST  7.12849509316
    B29_69  HUB29  -1
    B29_69  DEM69  1
    B29_72  COST  10.4497918776
    B29_72  HUB29  -1
    B29_72  DEM72  1
    B29_73  COST  13.6449651805
    B29_73  HUB29  -1
    B29_73  DEM73  1
    B29_74  COST  12.3581876348
    B29_74  HUB29  -1
    B29_74  DEM74  1
    B29_75  COST  3.74292850406
    B29_75  HUB29  -1
    B29_75  DEM75  1
    B29_77  COST  5.49186441413
    B29_77  HUB29  -1
    B29_77  DEM77  1
    B29_80  COST  1.96906787537
    B29_80  HUB29  -1
    B29_80  DEM80  1
    B29_83  COST  12.0529287186
    B29_83  HUB29  -1
    B29_83  DEM83  1
    B29_84  COST  1.03194383522
    B29_84  HUB29  -1
    B29_84  DEM84  1
    B29_85  COST  7.5249105331
    B29_85  HUB29  -1
    B29_85  DEM85  1
    B29_87  COST  12.5863020743
    B29_87  HUB29  -1
    B29_87  DEM87  1
    B29_90  COST  11.3821135563
    B29_90  HUB29  -1
    B29_90  DEM90  1
    B29_91  COST  3.68403502235
    B29_91  HUB29  -1
    B29_91  DEM91  1
    B29_93  COST  11.5436721556
    B29_93  HUB29  -1
    B29_93  DEM93  1
    B29_95  COST  9.46300385496
    B29_95  HUB29  -1
    B29_95  DEM95  1
    B29_98  COST  1.13986134919
    B29_98  HUB29  -1
    B29_98  DEM98  1
    B29_105  COST  10.3719471878
    B29_105  HUB29  -1
    B29_105  DEM105  1
    B29_106  COST  6.52164958638
    B29_106  HUB29  -1
    B29_106  DEM106  1
    B29_107  COST  12.0318726265
    B29_107  HUB29  -1
    B29_107  DEM107  1
    B29_108  COST  3.4314079422
    B29_108  HUB29  -1
    B29_108  DEM108  1
    B30_3  COST  8.834381405
    B30_3  HUB30  -1
    B30_3  DEM3  1
    B30_4  COST  4.83216589203
    B30_4  HUB30  -1
    B30_4  DEM4  1
    B30_5  COST  5.84020676261
    B30_5  HUB30  -1
    B30_5  DEM5  1
    B30_9  COST  4.59940889267
    B30_9  HUB30  -1
    B30_9  DEM9  1
    B30_11  COST  2.22208927387
    B30_11  HUB30  -1
    B30_11  DEM11  1
    B30_13  COST  7.66012082196
    B30_13  HUB30  -1
    B30_13  DEM13  1
    B30_14  COST  5.60071460009
    B30_14  HUB30  -1
    B30_14  DEM14  1
    B30_15  COST  13.3629386111
    B30_15  HUB30  -1
    B30_15  DEM15  1
    B30_18  COST  12.4963231621
    B30_18  HUB30  -1
    B30_18  DEM18  1
    B30_19  COST  13.6562388548
    B30_19  HUB30  -1
    B30_19  DEM19  1
    B30_20  COST  10.2985231275
    B30_20  HUB30  -1
    B30_20  DEM20  1
    B30_23  COST  6.80711497543
    B30_23  HUB30  -1
    B30_23  DEM23  1
    B30_26  COST  1.71916440775
    B30_26  HUB30  -1
    B30_26  DEM26  1
    B30_28  COST  8.92870607393
    B30_28  HUB30  -1
    B30_28  DEM28  1
    B30_38  COST  9.83014316777
    B30_38  HUB30  -1
    B30_38  DEM38  1
    B30_39  COST  4.11004905342
    B30_39  HUB30  -1
    B30_39  DEM39  1
    B30_41  COST  2.18424580397
    B30_41  HUB30  -1
    B30_41  DEM41  1
    B30_44  COST  7.06362445263
    B30_44  HUB30  -1
    B30_44  DEM44  1
    B30_46  COST  6.02269029727
    B30_46  HUB30  -1
    B30_46  DEM46  1
    B30_53  COST  8.28116273732
    B30_53  HUB30  -1
    B30_53  DEM53  1
    B30_57  COST  8.72117478749
    B30_57  HUB30  -1
    B30_57  DEM57  1
    B30_58  COST  3.42656457334
    B30_58  HUB30  -1
    B30_58  DEM58  1
    B30_59  COST  2.57838619589
    B30_59  HUB30  -1
    B30_59  DEM59  1
    B30_60  COST  8.68939138439
    B30_60  HUB30  -1
    B30_60  DEM60  1
    B30_62  COST  4.88784203781
    B30_62  HUB30  -1
    B30_62  DEM62  1
    B30_63  COST  13.1672448797
    B30_63  HUB30  -1
    B30_63  DEM63  1
    B30_64  COST  6.2186088086
    B30_64  HUB30  -1
    B30_64  DEM64  1
    B30_65  COST  13.914881275
    B30_65  HUB30  -1
    B30_65  DEM65  1
    B30_66  COST  3.84016897592
    B30_66  HUB30  -1
    B30_66  DEM66  1
    B30_69  COST  10.8100647196
    B30_69  HUB30  -1
    B30_69  DEM69  1
    B30_71  COST  7.72658445245
    B30_71  HUB30  -1
    B30_71  DEM71  1
    B30_72  COST  11.4389739455
    B30_72  HUB30  -1
    B30_72  DEM72  1
    B30_78  COST  12.5673773301
    B30_78  HUB30  -1
    B30_78  DEM78  1
    B30_81  COST  8.1322329463
    B30_81  HUB30  -1
    B30_81  DEM81  1
    B30_84  COST  6.12770244265
    B30_84  HUB30  -1
    B30_84  DEM84  1
    B30_85  COST  2.88677581971
    B30_85  HUB30  -1
    B30_85  DEM85  1
    B30_90  COST  3.15317687821
    B30_90  HUB30  -1
    B30_90  DEM90  1
    B30_91  COST  10.5320733431
    B30_91  HUB30  -1
    B30_91  DEM91  1
    B30_92  COST  3.25586949568
    B30_92  HUB30  -1
    B30_92  DEM92  1
    B30_98  COST  8.61139661983
    B30_98  HUB30  -1
    B30_98  DEM98  1
    B30_99  COST  1.60624931854
    B30_99  HUB30  -1
    B30_99  DEM99  1
    B30_100  COST  13.905331386
    B30_100  HUB30  -1
    B30_100  DEM100  1
    B30_102  COST  8.56236378234
    B30_102  HUB30  -1
    B30_102  DEM102  1
    B30_104  COST  2.23988037286
    B30_104  HUB30  -1
    B30_104  DEM104  1
    B30_108  COST  3.11679675953
    B30_108  HUB30  -1
    B30_108  DEM108  1
    B31_0  COST  7.36759312109
    B31_0  HUB31  -1
    B31_0  DEM0  1
    B31_3  COST  13.8546356092
    B31_3  HUB31  -1
    B31_3  DEM3  1
    B31_4  COST  6.25361851428
    B31_4  HUB31  -1
    B31_4  DEM4  1
    B31_7  COST  2.3895741394
    B31_7  HUB31  -1
    B31_7  DEM7  1
    B31_9  COST  11.8791929754
    B31_9  HUB31  -1
    B31_9  DEM9  1
    B31_10  COST  11.8580594605
    B31_10  HUB31  -1
    B31_10  DEM10  1
    B31_13  COST  12.1828446439
    B31_13  HUB31  -1
    B31_13  DEM13  1
    B31_16  COST  13.2027381161
    B31_16  HUB31  -1
    B31_16  DEM16  1
    B31_18  COST  8.53805847428
    B31_18  HUB31  -1
    B31_18  DEM18  1
    B31_20  COST  3.68496686911
    B31_20  HUB31  -1
    B31_20  DEM20  1
    B31_21  COST  13.4754586116
    B31_21  HUB31  -1
    B31_21  DEM21  1
    B31_25  COST  12.4549834087
    B31_25  HUB31  -1
    B31_25  DEM25  1
    B31_26  COST  2.55816646427
    B31_26  HUB31  -1
    B31_26  DEM26  1
    B31_27  COST  11.3277145625
    B31_27  HUB31  -1
    B31_27  DEM27  1
    B31_32  COST  6.87189009265
    B31_32  HUB31  -1
    B31_32  DEM32  1
    B31_35  COST  7.03545327757
    B31_35  HUB31  -1
    B31_35  DEM35  1
    B31_36  COST  6.40366507385
    B31_36  HUB31  -1
    B31_36  DEM36  1
    B31_37  COST  12.0934894976
    B31_37  HUB31  -1
    B31_37  DEM37  1
    B31_43  COST  10.6262581183
    B31_43  HUB31  -1
    B31_43  DEM43  1
    B31_45  COST  3.9275158828
    B31_45  HUB31  -1
    B31_45  DEM45  1
    B31_46  COST  7.88960084
    B31_46  HUB31  -1
    B31_46  DEM46  1
    B31_49  COST  7.87506669067
    B31_49  HUB31  -1
    B31_49  DEM49  1
    B31_51  COST  3.82655741133
    B31_51  HUB31  -1
    B31_51  DEM51  1
    B31_52  COST  13.3439581145
    B31_52  HUB31  -1
    B31_52  DEM52  1
    B31_54  COST  4.03528791697
    B31_54  HUB31  -1
    B31_54  DEM54  1
    B31_60  COST  3.60916494355
    B31_60  HUB31  -1
    B31_60  DEM60  1
    B31_64  COST  4.67289662311
    B31_64  HUB31  -1
    B31_64  DEM64  1
    B31_65  COST  3.00226233175
    B31_65  HUB31  -1
    B31_65  DEM65  1
    B31_66  COST  7.16558262662
    B31_66  HUB31  -1
    B31_66  DEM66  1
    B31_68  COST  13.0661201911
    B31_68  HUB31  -1
    B31_68  DEM68  1
    B31_69  COST  11.0648463
    B31_69  HUB31  -1
    B31_69  DEM69  1
    B31_71  COST  6.67960183389
    B31_71  HUB31  -1
    B31_71  DEM71  1
    B31_73  COST  2.77554992679
    B31_73  HUB31  -1
    B31_73  DEM73  1
    B31_75  COST  3.26836199998
    B31_75  HUB31  -1
    B31_75  DEM75  1
    B31_76  COST  4.60542313866
    B31_76  HUB31  -1
    B31_76  DEM76  1
    B31_77  COST  8.63313655561
    B31_77  HUB31  -1
    B31_77  DEM77  1
    B31_78  COST  13.6385478706
    B31_78  HUB31  -1
    B31_78  DEM78  1
    B31_81  COST  6.58827770607
    B31_81  HUB31  -1
    B31_81  DEM81  1
    B31_84  COST  6.3591014949
    B31_84  HUB31  -1
    B31_84  DEM84  1
    B31_86  COST  4.67260622679
    B31_86  HUB31  -1
    B31_86  DEM86  1
    B31_87  COST  6.42710646394
    B31_87  HUB31  -1
    B31_87  DEM87  1
    B31_90  COST  13.4294270394
    B31_90  HUB31  -1
    B31_90  DEM90  1
    B31_91  COST  11.2621399878
    B31_91  HUB31  -1
    B31_91  DEM91  1
    B31_93  COST  13.7524740197
    B31_93  HUB31  -1
    B31_93  DEM93  1
    B31_94  COST  5.06939253471
    B31_94  HUB31  -1
    B31_94  DEM94  1
    B31_95  COST  10.5327069286
    B31_95  HUB31  -1
    B31_95  DEM95  1
    B31_96  COST  10.6608722263
    B31_96  HUB31  -1
    B31_96  DEM96  1
    B31_98  COST  10.4381849884
    B31_98  HUB31  -1
    B31_98  DEM98  1
    B31_99  COST  12.9901319803
    B31_99  HUB31  -1
    B31_99  DEM99  1
    B31_100  COST  1.86550509683
    B31_100  HUB31  -1
    B31_100  DEM100  1
    B31_104  COST  1.90457787438
    B31_104  HUB31  -1
    B31_104  DEM104  1
    B32_1  COST  6.4676713994
    B32_1  HUB32  -1
    B32_1  DEM1  1
    B32_4  COST  12.1522531442
    B32_4  HUB32  -1
    B32_4  DEM4  1
    B32_9  COST  12.7930783307
    B32_9  HUB32  -1
    B32_9  DEM9  1
    B32_10  COST  2.70056568094
    B32_10  HUB32  -1
    B32_10  DEM10  1
    B32_11  COST  2.9750723079
    B32_11  HUB32  -1
    B32_11  DEM11  1
    B32_12  COST  4.47896118144
    B32_12  HUB32  -1
    B32_12  DEM12  1
    B32_14  COST  5.13074534862
    B32_14  HUB32  -1
    B32_14  DEM14  1
    B32_15  COST  12.4828014895
    B32_15  HUB32  -1
    B32_15  DEM15  1
    B32_16  COST  10.2299700531
    B32_16  HUB32  -1
    B32_16  DEM16  1
    B32_18  COST  12.7019964602
    B32_18  HUB32  -1
    B32_18  DEM18  1
    B32_20  COST  12.6214823087
    B32_20  HUB32  -1
    B32_20  DEM20  1
    B32_21  COST  1.40434150121
    B32_21  HUB32  -1
    B32_21  DEM21  1
    B32_25  COST  10.2936483717
    B32_25  HUB32  -1
    B32_25  DEM25  1
    B32_27  COST  1.42067543576
    B32_27  HUB32  -1
    B32_27  DEM27  1
    B32_29  COST  6.09712317484
    B32_29  HUB32  -1
    B32_29  DEM29  1
    B32_34  COST  3.06363268155
    B32_34  HUB32  -1
    B32_34  DEM34  1
    B32_36  COST  8.12322985706
    B32_36  HUB32  -1
    B32_36  DEM36  1
    B32_37  COST  11.4699455675
    B32_37  HUB32  -1
    B32_37  DEM37  1
    B32_39  COST  7.62954547625
    B32_39  HUB32  -1
    B32_39  DEM39  1
    B32_43  COST  5.27807584798
    B32_43  HUB32  -1
    B32_43  DEM43  1
    B32_49  COST  6.24517137193
    B32_49  HUB32  -1
    B32_49  DEM49  1
    B32_50  COST  7.68580429726
    B32_50  HUB32  -1
    B32_50  DEM50  1
    B32_52  COST  11.9201207936
    B32_52  HUB32  -1
    B32_52  DEM52  1
    B32_53  COST  5.89441992826
    B32_53  HUB32  -1
    B32_53  DEM53  1
    B32_54  COST  13.3235943742
    B32_54  HUB32  -1
    B32_54  DEM54  1
    B32_55  COST  13.542269415
    B32_55  HUB32  -1
    B32_55  DEM55  1
    B32_57  COST  5.07912594139
    B32_57  HUB32  -1
    B32_57  DEM57  1
    B32_58  COST  11.7548088425
    B32_58  HUB32  -1
    B32_58  DEM58  1
    B32_59  COST  9.83252756388
    B32_59  HUB32  -1
    B32_59  DEM59  1
    B32_60  COST  7.53196405985
    B32_60  HUB32  -1
    B32_60  DEM60  1
    B32_61  COST  11.5845087463
    B32_61  HUB32  -1
    B32_61  DEM61  1
    B32_72  COST  10.4815830852
    B32_72  HUB32  -1
    B32_72  DEM72  1
    B32_75  COST  2.66939801372
    B32_75  HUB32  -1
    B32_75  DEM75  1
    B32_79  COST  3.40948887388
    B32_79  HUB32  -1
    B32_79  DEM79  1
    B32_82  COST  7.21383379668
    B32_82  HUB32  -1
    B32_82  DEM82  1
    B32_88  COST  7.38641098591
    B32_88  HUB32  -1
    B32_88  DEM88  1
    B32_89  COST  9.87314445509
    B32_89  HUB32  -1
    B32_89  DEM89  1
    B32_91  COST  4.76051522256
    B32_91  HUB32  -1
    B32_91  DEM91  1
    B32_94  COST  4.61034072268
    B32_94  HUB32  -1
    B32_94  DEM94  1
    B32_97  COST  1.57172850577
    B32_97  HUB32  -1
    B32_97  DEM97  1
    B32_101  COST  10.5530839379
    B32_101  HUB32  -1
    B32_101  DEM101  1
    B32_103  COST  4.17714015191
    B32_103  HUB32  -1
    B32_103  DEM103  1
    B32_104  COST  13.7102275393
    B32_104  HUB32  -1
    B32_104  DEM104  1
    B32_105  COST  7.96896386159
    B32_105  HUB32  -1
    B32_105  DEM105  1
    B32_106  COST  5.9709288541
    B32_106  HUB32  -1
    B32_106  DEM106  1
    B32_108  COST  6.67465422587
    B32_108  HUB32  -1
    B32_108  DEM108  1
    B33_5  COST  8.31511896785
    B33_5  HUB33  -1
    B33_5  DEM5  1
    B33_6  COST  12.3054360349
    B33_6  HUB33  -1
    B33_6  DEM6  1
    B33_8  COST  1.37877969551
    B33_8  HUB33  -1
    B33_8  DEM8  1
    B33_10  COST  11.4600093711
    B33_10  HUB33  -1
    B33_10  DEM10  1
    B33_12  COST  6.72242338442
    B33_12  HUB33  -1
    B33_12  DEM12  1
    B33_15  COST  5.39050705539
    B33_15  HUB33  -1
    B33_15  DEM15  1
    B33_17  COST  12.7114568265
    B33_17  HUB33  -1
    B33_17  DEM17  1
    B33_18  COST  2.33298334761
    B33_18  HUB33  -1
    B33_18  DEM18  1
    B33_19  COST  11.7184776938
    B33_19  HUB33  -1
    B33_19  DEM19  1
    B33_20  COST  13.8248409561
    B33_20  HUB33  -1
    B33_20  DEM20  1
    B33_23  COST  10.0951549873
    B33_23  HUB33  -1
    B33_23  DEM23  1
    B33_24  COST  6.76365683764
    B33_24  HUB33  -1
    B33_24  DEM24  1
    B33_26  COST  13.7056752656
    B33_26  HUB33  -1
    B33_26  DEM26  1
    B33_27  COST  9.41116879351
    B33_27  HUB33  -1
    B33_27  DEM27  1
    B33_28  COST  7.08530364978
    B33_28  HUB33  -1
    B33_28  DEM28  1
    B33_30  COST  11.1398655565
    B33_30  HUB33  -1
    B33_30  DEM30  1
    B33_35  COST  3.00440956064
    B33_35  HUB33  -1
    B33_35  DEM35  1
    B33_37  COST  8.04136254192
    B33_37  HUB33  -1
    B33_37  DEM37  1
    B33_39  COST  7.41758506073
    B33_39  HUB33  -1
    B33_39  DEM39  1
    B33_41  COST  13.8487346988
    B33_41  HUB33  -1
    B33_41  DEM41  1
    B33_42  COST  6.85994689846
    B33_42  HUB33  -1
    B33_42  DEM42  1
    B33_47  COST  3.3720301308
    B33_47  HUB33  -1
    B33_47  DEM47  1
    B33_48  COST  9.86290236388
    B33_48  HUB33  -1
    B33_48  DEM48  1
    B33_50  COST  11.8190547726
    B33_50  HUB33  -1
    B33_50  DEM50  1
    B33_51  COST  6.78587386495
    B33_51  HUB33  -1
    B33_51  DEM51  1
    B33_52  COST  6.88754593025
    B33_52  HUB33  -1
    B33_52  DEM52  1
    B33_53  COST  13.1696130417
    B33_53  HUB33  -1
    B33_53  DEM53  1
    B33_54  COST  3.7136873645
    B33_54  HUB33  -1
    B33_54  DEM54  1
    B33_55  COST  13.6710991338
    B33_55  HUB33  -1
    B33_55  DEM55  1
    B33_57  COST  10.9412218904
    B33_57  HUB33  -1
    B33_57  DEM57  1
    B33_59  COST  3.8439691084
    B33_59  HUB33  -1
    B33_59  DEM59  1
    B33_61  COST  11.7579774011
    B33_61  HUB33  -1
    B33_61  DEM61  1
    B33_63  COST  1.00099206068
    B33_63  HUB33  -1
    B33_63  DEM63  1
    B33_66  COST  10.0334495604
    B33_66  HUB33  -1
    B33_66  DEM66  1
    B33_70  COST  1.40090497776
    B33_70  HUB33  -1
    B33_70  DEM70  1
    B33_71  COST  2.90214095286
    B33_71  HUB33  -1
    B33_71  DEM71  1
    B33_72  COST  7.08998163936
    B33_72  HUB33  -1
    B33_72  DEM72  1
    B33_77  COST  4.06068948937
    B33_77  HUB33  -1
    B33_77  DEM77  1
    B33_80  COST  4.90667162484
    B33_80  HUB33  -1
    B33_80  DEM80  1
    B33_81  COST  10.0544765395
    B33_81  HUB33  -1
    B33_81  DEM81  1
    B33_82  COST  13.7884996631
    B33_82  HUB33  -1
    B33_82  DEM82  1
    B33_83  COST  13.6017721601
    B33_83  HUB33  -1
    B33_83  DEM83  1
    B33_84  COST  1.58002718406
    B33_84  HUB33  -1
    B33_84  DEM84  1
    B33_86  COST  5.50764997912
    B33_86  HUB33  -1
    B33_86  DEM86  1
    B33_90  COST  1.49418952811
    B33_90  HUB33  -1
    B33_90  DEM90  1
    B33_92  COST  12.2175644929
    B33_92  HUB33  -1
    B33_92  DEM92  1
    B33_93  COST  12.0448672344
    B33_93  HUB33  -1
    B33_93  DEM93  1
    B33_94  COST  6.60167432179
    B33_94  HUB33  -1
    B33_94  DEM94  1
    B33_97  COST  1.94371870542
    B33_97  HUB33  -1
    B33_97  DEM97  1
    B33_108  COST  3.77700855527
    B33_108  HUB33  -1
    B33_108  DEM108  1
    B34_1  COST  2.40258826332
    B34_1  HUB34  -1
    B34_1  DEM1  1
    B34_3  COST  10.4479141533
    B34_3  HUB34  -1
    B34_3  DEM3  1
    B34_4  COST  7.4858071056
    B34_4  HUB34  -1
    B34_4  DEM4  1
    B34_5  COST  7.20045024697
    B34_5  HUB34  -1
    B34_5  DEM5  1
    B34_6  COST  12.1401458545
    B34_6  HUB34  -1
    B34_6  DEM6  1
    B34_7  COST  12.0033210721
    B34_7  HUB34  -1
    B34_7  DEM7  1
    B34_11  COST  8.55693214985
    B34_11  HUB34  -1
    B34_11  DEM11  1
    B34_13  COST  12.1286409814
    B34_13  HUB34  -1
    B34_13  DEM13  1
    B34_14  COST  8.36737750623
    B34_14  HUB34  -1
    B34_14  DEM14  1
    B34_16  COST  4.57370993891
    B34_16  HUB34  -1
    B34_16  DEM16  1
    B34_18  COST  13.5068331913
    B34_18  HUB34  -1
    B34_18  DEM18  1
    B34_21  COST  3.00818030617
    B34_21  HUB34  -1
    B34_21  DEM21  1
    B34_22  COST  13.015324857
    B34_22  HUB34  -1
    B34_22  DEM22  1
    B34_23  COST  5.69707092592
    B34_23  HUB34  -1
    B34_23  DEM23  1
    B34_26  COST  1.71266289666
    B34_26  HUB34  -1
    B34_26  DEM26  1
    B34_27  COST  7.90996721255
    B34_27  HUB34  -1
    B34_27  DEM27  1
    B34_29  COST  13.9302773105
    B34_29  HUB34  -1
    B34_29  DEM29  1
    B34_30  COST  7.44258085585
    B34_30  HUB34  -1
    B34_30  DEM30  1
    B34_33  COST  10.5093233321
    B34_33  HUB34  -1
    B34_33  DEM33  1
    B34_34  COST  1.10110542539
    B34_34  HUB34  -1
    B34_34  DEM34  1
    B34_35  COST  11.7865435378
    B34_35  HUB34  -1
    B34_35  DEM35  1
    B34_36  COST  4.02442096954
    B34_36  HUB34  -1
    B34_36  DEM36  1
    B34_38  COST  2.34090092604
    B34_38  HUB34  -1
    B34_38  DEM38  1
    B34_39  COST  2.11254785896
    B34_39  HUB34  -1
    B34_39  DEM39  1
    B34_40  COST  7.40255210943
    B34_40  HUB34  -1
    B34_40  DEM40  1
    B34_41  COST  7.16328907288
    B34_41  HUB34  -1
    B34_41  DEM41  1
    B34_51  COST  9.91413641137
    B34_51  HUB34  -1
    B34_51  DEM51  1
    B34_53  COST  7.00889405637
    B34_53  HUB34  -1
    B34_53  DEM53  1
    B34_55  COST  4.07673808489
    B34_55  HUB34  -1
    B34_55  DEM55  1
    B34_60  COST  8.41424169258
    B34_60  HUB34  -1
    B34_60  DEM60  1
    B34_61  COST  12.3549394972
    B34_61  HUB34  -1
    B34_61  DEM61  1
    B34_62  COST  9.19155251731
    B34_62  HUB34  -1
    B34_62  DEM62  1
    B34_63  COST  13.3493244284
    B34_63  HUB34  -1
    B34_63  DEM63  1
    B34_66  COST  7.24335993029
    B34_66  HUB34  -1
    B34_66  DEM66  1
    B34_68  COST  13.033042592
    B34_68  HUB34  -1
    B34_68  DEM68  1
    B34_69  COST  8.60685620269
    B34_69  HUB34  -1
    B34_69  DEM69  1
    B34_71  COST  10.4718679299
    B34_71  HUB34  -1
    B34_71  DEM71  1
    B34_74  COST  1.28625026718
    B34_74  HUB34  -1
    B34_74  DEM74  1
    B34_76  COST  11.6843366142
    B34_76  HUB34  -1
    B34_76  DEM76  1
    B34_77  COST  2.67596506824
    B34_77  HUB34  -1
    B34_77  DEM77  1
    B34_78  COST  12.0212684498
    B34_78  HUB34  -1
    B34_78  DEM78  1
    B34_83  COST  7.76297323867
    B34_83  HUB34  -1
    B34_83  DEM83  1
    B34_85  COST  13.7209139939
    B34_85  HUB34  -1
    B34_85  DEM85  1
    B34_88  COST  2.76087976583
    B34_88  HUB34  -1
    B34_88  DEM88  1
    B34_90  COST  12.9752046281
    B34_90  HUB34  -1
    B34_90  DEM90  1
    B34_91  COST  9.91265060227
    B34_91  HUB34  -1
    B34_91  DEM91  1
    B34_94  COST  10.9495606857
    B34_94  HUB34  -1
    B34_94  DEM94  1
    B34_96  COST  13.0475222689
    B34_96  HUB34  -1
    B34_96  DEM96  1
    B34_97  COST  9.03173217952
    B34_97  HUB34  -1
    B34_97  DEM97  1
    B34_98  COST  4.21845290608
    B34_98  HUB34  -1
    B34_98  DEM98  1
    B34_100  COST  8.1588823222
    B34_100  HUB34  -1
    B34_100  DEM100  1
    B34_103  COST  3.98123863996
    B34_103  HUB34  -1
    B34_103  DEM103  1
    B34_104  COST  8.8695055702
    B34_104  HUB34  -1
    B34_104  DEM104  1
    B34_108  COST  6.63971558828
    B34_108  HUB34  -1
    B34_108  DEM108  1
    B35_1  COST  12.7756631514
    B35_1  HUB35  -1
    B35_1  DEM1  1
    B35_3  COST  6.76162900562
    B35_3  HUB35  -1
    B35_3  DEM3  1
    B35_8  COST  10.3798291432
    B35_8  HUB35  -1
    B35_8  DEM8  1
    B35_11  COST  12.2281744338
    B35_11  HUB35  -1
    B35_11  DEM11  1
    B35_12  COST  7.28578470779
    B35_12  HUB35  -1
    B35_12  DEM12  1
    B35_13  COST  2.06346957648
    B35_13  HUB35  -1
    B35_13  DEM13  1
    B35_14  COST  7.35970971728
    B35_14  HUB35  -1
    B35_14  DEM14  1
    B35_16  COST  5.73589906156
    B35_16  HUB35  -1
    B35_16  DEM16  1
    B35_17  COST  3.66194923814
    B35_17  HUB35  -1
    B35_17  DEM17  1
    B35_18  COST  3.57715400218
    B35_18  HUB35  -1
    B35_18  DEM18  1
    B35_19  COST  6.84919137137
    B35_19  HUB35  -1
    B35_19  DEM19  1
    B35_20  COST  2.44845888786
    B35_20  HUB35  -1
    B35_20  DEM20  1
    B35_23  COST  13.9610524876
    B35_23  HUB35  -1
    B35_23  DEM23  1
    B35_27  COST  5.72721489631
    B35_27  HUB35  -1
    B35_27  DEM27  1
    B35_28  COST  11.4908376945
    B35_28  HUB35  -1
    B35_28  DEM28  1
    B35_29  COST  1.86519510194
    B35_29  HUB35  -1
    B35_29  DEM29  1
    B35_31  COST  2.96462657648
    B35_31  HUB35  -1
    B35_31  DEM31  1
    B35_32  COST  8.71959131163
    B35_32  HUB35  -1
    B35_32  DEM32  1
    B35_34  COST  1.09964497071
    B35_34  HUB35  -1
    B35_34  DEM34  1
    B35_36  COST  7.21686790003
    B35_36  HUB35  -1
    B35_36  DEM36  1
    B35_42  COST  13.7092733165
    B35_42  HUB35  -1
    B35_42  DEM42  1
    B35_43  COST  5.19676849383
    B35_43  HUB35  -1
    B35_43  DEM43  1
    B35_46  COST  12.2989514983
    B35_46  HUB35  -1
    B35_46  DEM46  1
    B35_50  COST  2.61227608273
    B35_50  HUB35  -1
    B35_50  DEM50  1
    B35_53  COST  10.3050612596
    B35_53  HUB35  -1
    B35_53  DEM53  1
    B35_57  COST  6.74416224781
    B35_57  HUB35  -1
    B35_57  DEM57  1
    B35_65  COST  6.80856771462
    B35_65  HUB35  -1
    B35_65  DEM65  1
    B35_70  COST  3.55383504239
    B35_70  HUB35  -1
    B35_70  DEM70  1
    B35_72  COST  1.72782487716
    B35_72  HUB35  -1
    B35_72  DEM72  1
    B35_75  COST  10.9475800247
    B35_75  HUB35  -1
    B35_75  DEM75  1
    B35_76  COST  6.91001033503
    B35_76  HUB35  -1
    B35_76  DEM76  1
    B35_77  COST  2.92992501018
    B35_77  HUB35  -1
    B35_77  DEM77  1
    B35_79  COST  5.57021868587
    B35_79  HUB35  -1
    B35_79  DEM79  1
    B35_80  COST  6.91774567365
    B35_80  HUB35  -1
    B35_80  DEM80  1
    B35_82  COST  7.12514262066
    B35_82  HUB35  -1
    B35_82  DEM82  1
    B35_85  COST  8.67148706627
    B35_85  HUB35  -1
    B35_85  DEM85  1
    B35_86  COST  4.22518287531
    B35_86  HUB35  -1
    B35_86  DEM86  1
    B35_88  COST  1.03369051276
    B35_88  HUB35  -1
    B35_88  DEM88  1
    B35_89  COST  4.78606654608
    B35_89  HUB35  -1
    B35_89  DEM89  1
    B35_91  COST  8.65204148092
    B35_91  HUB35  -1
    B35_91  DEM91  1
    B35_93  COST  8.47692263973
    B35_93  HUB35  -1
    B35_93  DEM93  1
    B35_95  COST  11.9178474301
    B35_95  HUB35  -1
    B35_95  DEM95  1
    B35_96  COST  12.3028554084
    B35_96  HUB35  -1
    B35_96  DEM96  1
    B35_99  COST  13.7073811468
    B35_99  HUB35  -1
    B35_99  DEM99  1
    B35_103  COST  13.5633265199
    B35_103  HUB35  -1
    B35_103  DEM103  1
    B35_107  COST  6.48755350339
    B35_107  HUB35  -1
    B35_107  DEM107  1
    B35_108  COST  6.99066049248
    B35_108  HUB35  -1
    B35_108  DEM108  1
    B35_109  COST  8.1850539938
    B35_109  HUB35  -1
    B35_109  DEM109  1
    B36_0  COST  10.8482386776
    B36_0  HUB36  -1
    B36_0  DEM0  1
    B36_1  COST  13.8337526999
    B36_1  HUB36  -1
    B36_1  DEM1  1
    B36_2  COST  1.41833766072
    B36_2  HUB36  -1
    B36_2  DEM2  1
    B36_5  COST  1.89433443242
    B36_5  HUB36  -1
    B36_5  DEM5  1
    B36_6  COST  8.33788265854
    B36_6  HUB36  -1
    B36_6  DEM6  1
    B36_9  COST  9.10591605828
    B36_9  HUB36  -1
    B36_9  DEM9  1
    B36_13  COST  5.88632828734
    B36_13  HUB36  -1
    B36_13  DEM13  1
    B36_17  COST  6.52421680481
    B36_17  HUB36  -1
    B36_17  DEM17  1
    B36_19  COST  7.4270917247
    B36_19  HUB36  -1
    B36_19  DEM19  1
    B36_21  COST  6.78803311176
    B36_21  HUB36  -1
    B36_21  DEM21  1
    B36_27  COST  9.55215015347
    B36_27  HUB36  -1
    B36_27  DEM27  1
    B36_28  COST  10.6670168677
    B36_28  HUB36  -1
    B36_28  DEM28  1
    B36_30  COST  3.55516645305
    B36_30  HUB36  -1
    B36_30  DEM30  1
    B36_33  COST  13.3190266899
    B36_33  HUB36  -1
    B36_33  DEM33  1
    B36_34  COST  13.2551222791
    B36_34  HUB36  -1
    B36_34  DEM34  1
    B36_36  COST  10.5242926039
    B36_36  HUB36  -1
    B36_36  DEM36  1
    B36_38  COST  9.56148009596
    B36_38  HUB36  -1
    B36_38  DEM38  1
    B36_39  COST  12.3224853022
    B36_39  HUB36  -1
    B36_39  DEM39  1
    B36_41  COST  13.7593733717
    B36_41  HUB36  -1
    B36_41  DEM41  1
    B36_42  COST  6.27924618224
    B36_42  HUB36  -1
    B36_42  DEM42  1
    B36_43  COST  11.3462022598
    B36_43  HUB36  -1
    B36_43  DEM43  1
    B36_45  COST  13.8323158429
    B36_45  HUB36  -1
    B36_45  DEM45  1
    B36_46  COST  4.31248950638
    B36_46  HUB36  -1
    B36_46  DEM46  1
    B36_48  COST  10.6538574985
    B36_48  HUB36  -1
    B36_48  DEM48  1
    B36_51  COST  9.34011130503
    B36_51  HUB36  -1
    B36_51  DEM51  1
    B36_53  COST  2.91237218594
    B36_53  HUB36  -1
    B36_53  DEM53  1
    B36_55  COST  3.86739988202
    B36_55  HUB36  -1
    B36_55  DEM55  1
    B36_58  COST  1.99750686038
    B36_58  HUB36  -1
    B36_58  DEM58  1
    B36_59  COST  2.12724959226
    B36_59  HUB36  -1
    B36_59  DEM59  1
    B36_62  COST  6.89890919142
    B36_62  HUB36  -1
    B36_62  DEM62  1
    B36_64  COST  6.17201277772
    B36_64  HUB36  -1
    B36_64  DEM64  1
    B36_67  COST  6.77495641103
    B36_67  HUB36  -1
    B36_67  DEM67  1
    B36_71  COST  12.1577103434
    B36_71  HUB36  -1
    B36_71  DEM71  1
    B36_72  COST  5.53692908583
    B36_72  HUB36  -1
    B36_72  DEM72  1
    B36_73  COST  5.54476400818
    B36_73  HUB36  -1
    B36_73  DEM73  1
    B36_75  COST  9.78791299839
    B36_75  HUB36  -1
    B36_75  DEM75  1
    B36_78  COST  10.1367065005
    B36_78  HUB36  -1
    B36_78  DEM78  1
    B36_79  COST  12.5721627905
    B36_79  HUB36  -1
    B36_79  DEM79  1
    B36_80  COST  13.7360080508
    B36_80  HUB36  -1
    B36_80  DEM80  1
    B36_82  COST  13.6846213842
    B36_82  HUB36  -1
    B36_82  DEM82  1
    B36_85  COST  6.19406045239
    B36_85  HUB36  -1
    B36_85  DEM85  1
    B36_88  COST  5.58576575806
    B36_88  HUB36  -1
    B36_88  DEM88  1
    B36_90  COST  10.2985196035
    B36_90  HUB36  -1
    B36_90  DEM90  1
    B36_91  COST  13.5705878249
    B36_91  HUB36  -1
    B36_91  DEM91  1
    B36_102  COST  4.32705346794
    B36_102  HUB36  -1
    B36_102  DEM102  1
    B36_104  COST  2.81079209157
    B36_104  HUB36  -1
    B36_104  DEM104  1
    B36_107  COST  7.52325699905
    B36_107  HUB36  -1
    B36_107  DEM107  1
    B36_108  COST  13.1252811963
    B36_108  HUB36  -1
    B36_108  DEM108  1
    B37_0  COST  6.5055434153
    B37_0  HUB37  -1
    B37_0  DEM0  1
    B37_1  COST  5.80700637094
    B37_1  HUB37  -1
    B37_1  DEM1  1
    B37_2  COST  1.26598758155
    B37_2  HUB37  -1
    B37_2  DEM2  1
    B37_3  COST  5.88519734238
    B37_3  HUB37  -1
    B37_3  DEM3  1
    B37_4  COST  9.45835219702
    B37_4  HUB37  -1
    B37_4  DEM4  1
    B37_7  COST  4.50739622571
    B37_7  HUB37  -1
    B37_7  DEM7  1
    B37_10  COST  7.5394181808
    B37_10  HUB37  -1
    B37_10  DEM10  1
    B37_12  COST  10.3271231311
    B37_12  HUB37  -1
    B37_12  DEM12  1
    B37_14  COST  4.23575481112
    B37_14  HUB37  -1
    B37_14  DEM14  1
    B37_15  COST  12.0851904614
    B37_15  HUB37  -1
    B37_15  DEM15  1
    B37_16  COST  6.95962677245
    B37_16  HUB37  -1
    B37_16  DEM16  1
    B37_17  COST  11.8257989763
    B37_17  HUB37  -1
    B37_17  DEM17  1
    B37_20  COST  9.86562647834
    B37_20  HUB37  -1
    B37_20  DEM20  1
    B37_27  COST  5.0426982063
    B37_27  HUB37  -1
    B37_27  DEM27  1
    B37_28  COST  2.1070739593
    B37_28  HUB37  -1
    B37_28  DEM28  1
    B37_29  COST  9.69815038047
    B37_29  HUB37  -1
    B37_29  DEM29  1
    B37_36  COST  4.34030943415
    B37_36  HUB37  -1
    B37_36  DEM36  1
    B37_37  COST  13.033073011
    B37_37  HUB37  -1
    B37_37  DEM37  1
    B37_41  COST  5.57851801329
    B37_41  HUB37  -1
    B37_41  DEM41  1
    B37_43  COST  2.77962813718
    B37_43  HUB37  -1
    B37_43  DEM43  1
    B37_46  COST  12.7073701237
    B37_46  HUB37  -1
    B37_46  DEM46  1
    B37_48  COST  3.06658488566
    B37_48  HUB37  -1
    B37_48  DEM48  1
    B37_49  COST  8.26084463684
    B37_49  HUB37  -1
    B37_49  DEM49  1
    B37_51  COST  12.8014273767
    B37_51  HUB37  -1
    B37_51  DEM51  1
    B37_53  COST  3.00772662496
    B37_53  HUB37  -1
    B37_53  DEM53  1
    B37_54  COST  11.1796822604
    B37_54  HUB37  -1
    B37_54  DEM54  1
    B37_56  COST  13.8725532517
    B37_56  HUB37  -1
    B37_56  DEM56  1
    B37_58  COST  12.3275117279
    B37_58  HUB37  -1
    B37_58  DEM58  1
    B37_65  COST  12.522390929
    B37_65  HUB37  -1
    B37_65  DEM65  1
    B37_71  COST  4.65349832535
    B37_71  HUB37  -1
    B37_71  DEM71  1
    B37_72  COST  6.87137449488
    B37_72  HUB37  -1
    B37_72  DEM72  1
    B37_73  COST  11.6031541635
    B37_73  HUB37  -1
    B37_73  DEM73  1
    B37_75  COST  2.72006198397
    B37_75  HUB37  -1
    B37_75  DEM75  1
    B37_76  COST  10.4647576122
    B37_76  HUB37  -1
    B37_76  DEM76  1
    B37_80  COST  11.0464719944
    B37_80  HUB37  -1
    B37_80  DEM80  1
    B37_87  COST  12.0408285408
    B37_87  HUB37  -1
    B37_87  DEM87  1
    B37_89  COST  5.05926253734
    B37_89  HUB37  -1
    B37_89  DEM89  1
    B37_92  COST  5.30902163267
    B37_92  HUB37  -1
    B37_92  DEM92  1
    B37_93  COST  11.8873813811
    B37_93  HUB37  -1
    B37_93  DEM93  1
    B37_94  COST  9.60338304671
    B37_94  HUB37  -1
    B37_94  DEM94  1
    B37_95  COST  10.7219844282
    B37_95  HUB37  -1
    B37_95  DEM95  1
    B37_97  COST  6.72070219987
    B37_97  HUB37  -1
    B37_97  DEM97  1
    B37_99  COST  13.2461694491
    B37_99  HUB37  -1
    B37_99  DEM99  1
    B37_100  COST  13.3063252355
    B37_100  HUB37  -1
    B37_100  DEM100  1
    B37_101  COST  10.5969356278
    B37_101  HUB37  -1
    B37_101  DEM101  1
    B37_102  COST  11.5477875147
    B37_102  HUB37  -1
    B37_102  DEM102  1
    B37_103  COST  1.71222786254
    B37_103  HUB37  -1
    B37_103  DEM103  1
    B37_105  COST  11.8544376262
    B37_105  HUB37  -1
    B37_105  DEM105  1
    B37_106  COST  1.00985333807
    B37_106  HUB37  -1
    B37_106  DEM106  1
    B37_109  COST  4.6275347046
    B37_109  HUB37  -1
    B37_109  DEM109  1
    B38_0  COST  3.18099422355
    B38_0  HUB38  -1
    B38_0  DEM0  1
    B38_3  COST  2.36691838427
    B38_3  HUB38  -1
    B38_3  DEM3  1
    B38_9  COST  12.7272145607
    B38_9  HUB38  -1
    B38_9  DEM9  1
    B38_11  COST  5.29321326738
    B38_11  HUB38  -1
    B38_11  DEM11  1
    B38_13  COST  5.89333584048
    B38_13  HUB38  -1
    B38_13  DEM13  1
    B38_14  COST  4.09897704005
    B38_14  HUB38  -1
    B38_14  DEM14  1
    B38_16  COST  1.07885233164
    B38_16  HUB38  -1
    B38_16  DEM16  1
    B38_19  COST  10.6450802673
    B38_19  HUB38  -1
    B38_19  DEM19  1
    B38_21  COST  4.06462189737
    B38_21  HUB38  -1
    B38_21  DEM21  1
    B38_22  COST  10.4644290438
    B38_22  HUB38  -1
    B38_22  DEM22  1
    B38_24  COST  11.5281014828
    B38_24  HUB38  -1
    B38_24  DEM24  1
    B38_25  COST  5.23962301203
    B38_25  HUB38  -1
    B38_25  DEM25  1
    B38_26  COST  12.3405928641
    B38_26  HUB38  -1
    B38_26  DEM26  1
    B38_28  COST  12.5621231207
    B38_28  HUB38  -1
    B38_28  DEM28  1
    B38_30  COST  1.73240268852
    B38_30  HUB38  -1
    B38_30  DEM30  1
    B38_34  COST  11.3729663022
    B38_34  HUB38  -1
    B38_34  DEM34  1
    B38_36  COST  3.85218252323
    B38_36  HUB38  -1
    B38_36  DEM36  1
    B38_38  COST  9.57615800576
    B38_38  HUB38  -1
    B38_38  DEM38  1
    B38_39  COST  6.58333899241
    B38_39  HUB38  -1
    B38_39  DEM39  1
    B38_43  COST  8.34819715016
    B38_43  HUB38  -1
    B38_43  DEM43  1
    B38_46  COST  8.29634043767
    B38_46  HUB38  -1
    B38_46  DEM46  1
    B38_48  COST  4.54185325186
    B38_48  HUB38  -1
    B38_48  DEM48  1
    B38_49  COST  13.3845669275
    B38_49  HUB38  -1
    B38_49  DEM49  1
    B38_52  COST  7.45052894725
    B38_52  HUB38  -1
    B38_52  DEM52  1
    B38_54  COST  7.99801268457
    B38_54  HUB38  -1
    B38_54  DEM54  1
    B38_55  COST  8.0265940644
    B38_55  HUB38  -1
    B38_55  DEM55  1
    B38_62  COST  5.64984063067
    B38_62  HUB38  -1
    B38_62  DEM62  1
    B38_64  COST  2.12542396799
    B38_64  HUB38  -1
    B38_64  DEM64  1
    B38_65  COST  5.83945477103
    B38_65  HUB38  -1
    B38_65  DEM65  1
    B38_66  COST  10.2341661294
    B38_66  HUB38  -1
    B38_66  DEM66  1
    B38_67  COST  6.25535466221
    B38_67  HUB38  -1
    B38_67  DEM67  1
    B38_68  COST  9.78870095661
    B38_68  HUB38  -1
    B38_68  DEM68  1
    B38_71  COST  6.60061675466
    B38_71  HUB38  -1
    B38_71  DEM71  1
    B38_72  COST  3.53341126291
    B38_72  HUB38  -1
    B38_72  DEM72  1
    B38_74  COST  2.91162060187
    B38_74  HUB38  -1
    B38_74  DEM74  1
    B38_75  COST  13.5706298653
    B38_75  HUB38  -1
    B38_75  DEM75  1
    B38_76  COST  9.56918345574
    B38_76  HUB38  -1
    B38_76  DEM76  1
    B38_78  COST  3.64597772702
    B38_78  HUB38  -1
    B38_78  DEM78  1
    B38_79  COST  2.07869203988
    B38_79  HUB38  -1
    B38_79  DEM79  1
    B38_81  COST  1.30923306104
    B38_81  HUB38  -1
    B38_81  DEM81  1
    B38_82  COST  4.80012790699
    B38_82  HUB38  -1
    B38_82  DEM82  1
    B38_87  COST  9.11625305777
    B38_87  HUB38  -1
    B38_87  DEM87  1
    B38_90  COST  3.45283693484
    B38_90  HUB38  -1
    B38_90  DEM90  1
    B38_91  COST  9.77326401037
    B38_91  HUB38  -1
    B38_91  DEM91  1
    B38_94  COST  12.4618663717
    B38_94  HUB38  -1
    B38_94  DEM94  1
    B38_97  COST  7.3463655437
    B38_97  HUB38  -1
    B38_97  DEM97  1
    B38_98  COST  12.6022763917
    B38_98  HUB38  -1
    B38_98  DEM98  1
    B38_99  COST  3.67531163232
    B38_99  HUB38  -1
    B38_99  DEM99  1
    B38_100  COST  7.9548402461
    B38_100  HUB38  -1
    B38_100  DEM100  1
    B38_101  COST  12.9278613491
    B38_101  HUB38  -1
    B38_101  DEM101  1
    B38_102  COST  10.9685076305
    B38_102  HUB38  -1
    B38_102  DEM102  1
    B38_105  COST  4.41118360084
    B38_105  HUB38  -1
    B38_105  DEM105  1
    B39_0  COST  4.70266402903
    B39_0  HUB39  -1
    B39_0  DEM0  1
    B39_2  COST  9.33670304611
    B39_2  HUB39  -1
    B39_2  DEM2  1
    B39_3  COST  13.7610442273
    B39_3  HUB39  -1
    B39_3  DEM3  1
    B39_10  COST  8.10307038217
    B39_10  HUB39  -1
    B39_10  DEM10  1
    B39_13  COST  9.24268997323
    B39_13  HUB39  -1
    B39_13  DEM13  1
    B39_14  COST  6.47299396564
    B39_14  HUB39  -1
    B39_14  DEM14  1
    B39_15  COST  13.9068591446
    B39_15  HUB39  -1
    B39_15  DEM15  1
    B39_16  COST  11.0347218642
    B39_16  HUB39  -1
    B39_16  DEM16  1
    B39_21  COST  7.1142662751
    B39_21  HUB39  -1
    B39_21  DEM21  1
    B39_23  COST  12.48858819
    B39_23  HUB39  -1
    B39_23  DEM23  1
    B39_27  COST  2.22211286018
    B39_27  HUB39  -1
    B39_27  DEM27  1
    B39_28  COST  9.00592588588
    B39_28  HUB39  -1
    B39_28  DEM28  1
    B39_31  COST  3.02817805672
    B39_31  HUB39  -1
    B39_31  DEM31  1
    B39_34  COST  4.9442201133
    B39_34  HUB39  -1
    B39_34  DEM34  1
    B39_35  COST  6.56535263486
    B39_35  HUB39  -1
    B39_35  DEM35  1
    B39_36  COST  2.90205575789
    B39_36  HUB39  -1
    B39_36  DEM36  1
    B39_38  COST  6.0435795307
    B39_38  HUB39  -1
    B39_38  DEM38  1
    B39_39  COST  4.58791782254
    B39_39  HUB39  -1
    B39_39  DEM39  1
    B39_44  COST  3.88417414656
    B39_44  HUB39  -1
    B39_44  DEM44  1
    B39_49  COST  12.6666401668
    B39_49  HUB39  -1
    B39_49  DEM49  1
    B39_51  COST  11.5003756811
    B39_51  HUB39  -1
    B39_51  DEM51  1
    B39_55  COST  6.27303631298
    B39_55  HUB39  -1
    B39_55  DEM55  1
    B39_57  COST  5.08340815503
    B39_57  HUB39  -1
    B39_57  DEM57  1
    B39_59  COST  12.8959666248
    B39_59  HUB39  -1
    B39_59  DEM59  1
    B39_60  COST  11.1093625176
    B39_60  HUB39  -1
    B39_60  DEM60  1
    B39_61  COST  4.45426917774
    B39_61  HUB39  -1
    B39_61  DEM61  1
    B39_65  COST  6.16864009064
    B39_65  HUB39  -1
    B39_65  DEM65  1
    B39_68  COST  7.60456258864
    B39_68  HUB39  -1
    B39_68  DEM68  1
    B39_69  COST  2.62416598647
    B39_69  HUB39  -1
    B39_69  DEM69  1
    B39_70  COST  12.9253157943
    B39_70  HUB39  -1
    B39_70  DEM70  1
    B39_73  COST  3.9169418767
    B39_73  HUB39  -1
    B39_73  DEM73  1
    B39_75  COST  9.92845071481
    B39_75  HUB39  -1
    B39_75  DEM75  1
    B39_77  COST  9.8395103206
    B39_77  HUB39  -1
    B39_77  DEM77  1
    B39_79  COST  10.936375299
    B39_79  HUB39  -1
    B39_79  DEM79  1
    B39_83  COST  4.54013401807
    B39_83  HUB39  -1
    B39_83  DEM83  1
    B39_85  COST  12.223816664
    B39_85  HUB39  -1
    B39_85  DEM85  1
    B39_86  COST  8.8075750888
    B39_86  HUB39  -1
    B39_86  DEM86  1
    B39_95  COST  11.5948479908
    B39_95  HUB39  -1
    B39_95  DEM95  1
    B39_96  COST  13.1596729065
    B39_96  HUB39  -1
    B39_96  DEM96  1
    B39_98  COST  1.39192669124
    B39_98  HUB39  -1
    B39_98  DEM98  1
    B39_99  COST  3.62302921872
    B39_99  HUB39  -1
    B39_99  DEM99  1
    B39_100  COST  11.2913200476
    B39_100  HUB39  -1
    B39_100  DEM100  1
    B39_102  COST  7.99149703534
    B39_102  HUB39  -1
    B39_102  DEM102  1
    B39_103  COST  3.19289365052
    B39_103  HUB39  -1
    B39_103  DEM103  1
    B39_104  COST  12.8262056544
    B39_104  HUB39  -1
    B39_104  DEM104  1
    B39_105  COST  7.71465015627
    B39_105  HUB39  -1
    B39_105  DEM105  1
    B39_106  COST  10.146373139
    B39_106  HUB39  -1
    B39_106  DEM106  1
RHS
    RHS  SUP0  279.613694508
    RHS  SUP1  73.4289137048
    RHS  SUP2  277.356115851
    RHS  SUP3  66.8457474955
    RHS  SUP4  209.470097659
    RHS  SUP5  173.364149642
    RHS  SUP6  297.975885428
    RHS  SUP7  107.15744912
    RHS  SUP8  179.719382624
    RHS  SUP9  201.76467391
    RHS  SUP10  59.4549847732
    RHS  SUP11  173.942685098
    RHS  SUP12  158.17110259
    RHS  SUP13  183.284279285
    RHS  SUP14  101.188900327
    RHS  SUP15  85.6993603778
    RHS  SUP16  275.167975183
    RHS  SUP17  58.0304885088
    RHS  SUP18  166.836889152
    RHS  SUP19  197.863458962
    RHS  SUP20  124.298446153
    RHS  SUP21  238.398001985
    RHS  SUP22  265.111539907
    RHS  SUP23  178.372615917
    RHS  SUP24  253.245211264
    RHS  SUP25  275.133471234
    RHS  SUP26  61.7408724996
    RHS  SUP27  283.406285537
    RHS  SUP28  265.138864868
    RHS  SUP29  68.32765281
    RHS  SUP30  71.5624005871
    RHS  SUP31  199.238512605
    RHS  SUP32  216.266296236
    RHS  SUP33  213.289879706
    RHS  SUP34  82.2334776671
    RHS  SUP35  145.659664949
    RHS  SUP36  248.358260885
    RHS  SUP37  55.9498503719
    RHS  SUP38  107.521029269
    RHS  SUP39  99.8805005005
    RHS  SUP40  260.224609703
    RHS  SUP41  167.655308755
    RHS  SUP42  186.738921465
    RHS  SUP43  112.929334346
    RHS  SUP44  220.15189084
    RHS  SUP45  116.839664281
    RHS  SUP46  81.6290376517
    RHS  SUP47  299.463390519
    RHS  SUP48  194.83641824
    RHS  SUP49  138.916274982
    RHS  SUP50  172.804694548
    RHS  SUP51  208.635143032
    RHS  SUP52  218.086743948
    RHS  SUP53  223.326737354
    RHS  SUP54  179.36111427
    RHS  SUP55  192.178543935
    RHS  SUP56  117.820523921
    RHS  SUP57  103.559268298
    RHS  SUP58  225.113731388
    RHS  SUP59  51.8674282317
    RHS  SUP60  163.588467344
    RHS  SUP61  177.330182628
    RHS  SUP62  151.429388305
    RHS  SUP63  204.702244716
    RHS  SUP64  79.9644879095
    RHS  SUP65  285.415829471
    RHS  SUP66  163.32504729
    RHS  SUP67  97.568882469
    RHS  SUP68  260.895886417
    RHS  SUP69  268.356383604
    RHS  HUB0  0
    RHS  HUB1  0
    RHS  HUB2  0
    RHS  HUB3  0
    RHS  HUB4  0
    RHS  HUB5  0
    RHS  HUB6  0
    RHS  HUB7  0
    RHS  HUB8  0
    RHS  HUB9  0
    RHS  HUB10  0
    RHS  HUB11  0
    RHS  HUB12  0
    RHS  HUB13  0
    RHS  HUB14  0
    RHS  HUB15  0
    RHS  HUB16  0
    RHS  HUB17  0
    RHS  HUB18  0
    RHS  HUB19  0
    RHS  HUB20  0
    RHS  HUB21  0
    RHS  HUB22  0
    RHS  HUB23  0
    RHS  HUB24  0
    RHS  HUB25  0
    RHS  HUB26  0
    RHS  HUB27  0
    RHS  HUB28  0
    RHS  HUB29  0
    RHS  HUB30  0
    RHS  HUB31  0
    RHS  HUB32  0
    RHS  HUB33  0
    RHS  HUB34  0
    RHS  HUB35  0
    RHS  HUB36  0
    RHS  HUB37  0
    RHS  HUB38  0
    RHS  HUB39  0
    RHS  DEM0  60.3649850018
    RHS  DEM1  132.915505194
    RHS  DEM2  108.518223533
    RHS  DEM3  142.547236398
    RHS  DEM4  145.599277256
    RHS  DEM5  46.1739914283
    RHS  DEM6  123.664225658
    RHS  DEM7  68.0474512648
    RHS  DEM8  119.550920344
    RHS  DEM9  143.299819864
    RHS  DEM10  131.297091989
    RHS  DEM11  57.8019514334
    RHS  DEM12  74.7837235573
    RHS  DEM13  139.122454031
    RHS  DEM14  64.1004754619
    RHS  DEM15  85.0971717924
    RHS  DEM16  39.5519813182
    RHS  DEM17  55.8723549951
    RHS  DEM18  149.815730978
    RHS  DEM19  148.278563487
    RHS  DEM20  65.5482690929
    RHS  DEM21  76.2570427908
    RHS  DEM22  37.308653838
    RHS  DEM23  150.321447884
    RHS  DEM24  109.779454272
    RHS  DEM25  32.9709129428
    RHS  DEM26  65.0844788019
    RHS  DEM27  101.430768595
    RHS  DEM28  43.5659069762
    RHS  DEM29  87.3813527088
    RHS  DEM30  59.7159353516
    RHS  DEM31  38.1460845003
    RHS  DEM32  136.846567058
    RHS  DEM33  106.718957138
    RHS  DEM34  70.9762461898
    RHS  DEM35  102.165783083
    RHS  DEM36  87.0713657955
    RHS  DEM37  28.828274662
    RHS  DEM38  138.208861399
    RHS  DEM39  140.667129132
    RHS  DEM40  118.635887607
    RHS  DEM41  146.448766238
    RHS  DEM42  82.9617903771
    RHS  DEM43  145.423893544
    RHS  DEM44  93.3930650781
    RHS  DEM45  99.0711760605
    RHS  DEM46  37.7400065245
    RHS  DEM47  64.9687592119
    RHS  DEM48  120.016834156
    RHS  DEM49  46.4033304665
    RHS  DEM50  39.1118251377
    RHS  DEM51  39.629323514
    RHS  DEM52  102.703058467
    RHS  DEM53  39.6823868296
    RHS  DEM54  102.729871344
    RHS  DEM55  152.028954584
    RHS  DEM56  108.230774337
    RHS  DEM57  64.7115854291
    RHS  DEM58  104.852496587
    RHS  DEM59  121.248709355
    RHS  DEM60  84.1192874584
    RHS  DEM61  26.7227030751
    RHS  DEM62  33.4194005803
    RHS  DEM63  122.458902619
    RHS  DEM64  55.4283372699
    RHS  DEM65  104.93812541
    RHS  DEM66  25.4522111399
    RHS  DEM67  122.997316836
    RHS  DEM68  34.9006712362
    RHS  DEM69  37.8201856244
    RHS  DEM70  55.3462849996
    RHS  DEM71  105.491171638
    RHS  DEM72  89.8699543389
    RHS  DEM73  110.721803583
    RHS  DEM74  52.6041144274
    RHS  DEM75  69.7995715804
    RHS  DEM76  102.605497223
    RHS  DEM77  35.9973226344
    RHS  DEM78  45.0732328551
    RHS  DEM79  116.747820887
    RHS  DEM80  80.3805888989
    RHS  DEM81  90.5556790078
    RHS  DEM82  91.1155094139
    RHS  DEM83  149.764877703
    RHS  DEM84  113.852798712
    RHS  DEM85  30.5164831393
    RHS  DEM86  87.2991032252
    RHS  DEM87  145.337339068
    RHS  DEM88  58.6407895435
    RHS  DEM89  83.6346572507
    RHS  DEM90  38.2888411556
    RHS  DEM91  129.695253859
    RHS  DEM92  38.5637613864
    RHS  DEM93  109.542079219
    RHS  DEM94  111.08766226
    RHS  DEM95  100.437140214
    RHS  DEM96  112.06650684
    RHS  DEM97  103.173554684
    RHS  DEM98  66.2779229546
    RHS  DEM99  33.4513881985
    RHS  DEM100  87.3800271869
    RHS  DEM101  99.7003127535
    RHS  DEM102  71.3458263687
    RHS  DEM103  129.652677603
    RHS  DEM104  127.684364719
    RHS  DEM105  57.5777099636
    RHS  DEM106  142.064008759
    RHS  DEM107  40.5666857155
    RHS  DEM108  83.4673236035
    RHS  DEM109  92.3238083432
RANGES
BOUNDS
ENDATA
