NAME          DEG0
ROWS
 N  COST
 E  S0
 E  S1
 E  S2
 E  S3
 E  S4
 E  S5
 E  S6
 E  S7
 E  S8
 E  S9
 E  S10
 E  S11
 E  S12
 E  S13
 E  S14
 E  S15
 E  S16
 E  S17
 E  S18
 E  S19
 E  S20
 E  S21
 E  S22
 E  S23
 E  S24
 E  S25
 E  S26
 E  S27
 E  S28
 E  S29
 E  D0
 E  D1
 E  D2
 E  D3
 E  D4
 E  D5
 E  D6
 E  D7
 E  D8
 E  D9
 E  D10
 E  D11
 E  D12
 E  D13
 E  D14
 E  D15
 E  D16
 E  D17
 E  D18
 E  D19
 E  D20
 E  D21
 E  D22
 E  D23
 E  D24
 E  D25
 E  D26
 E  D27
 E  D28
 E  D29
COLUMNS
    X0_0  COST  3
    X0_0  S0  1
    X0_0  D0  1
    X0_1  COST  4
    X0_1  S0  1
    X0_1  D1  1
    X0_2  COST  1
    X0_2  S0  1
    X0_2  D2  1
    X0_3  COST  4
    X0_3  S0  1
    X0_3  D3  1
    X0_4  COST  4
    X0_4  S0  1
    X0_4  D4  1
    X0_5  COST  2
    X0_5  S0  1
    X0_5  D5  1
    X0_6  COST  1
    X0_6  S0  1
    X0_6  D6  1
    X0_7  COST  2
    X0_7  S0  1
    X0_7  D7  1
    X0_8  COST  5
    X0_8  S0  1
    X0_8  D8  1
    X0_9  COST  2
    X0_9  S0  1
    X0_9  D9  1
    X0_10  COST  4
    X0_10  S0  1
    X0_10  D10  1
    X0_11  COST  1
    X0_11  S0  1
    X0_11  D11  1
    X0_12  COST  3
    X0_12  S0  1
    X0_12  D12  1
    X0_13  COST  2
    X0_13  S0  1
    X0_13  D13  1
    X0_14  COST  4
    X0_14  S0  1
    X0_14  D14  1
    X0_15  COST  4
    X0_15  S0  1
    X0_15  D15  1
    X0_16  COST  3
    X0_16  S0  1
    X0_16  D16  1
    X0_17  COST  3
    X0_17  S0  1
    X0_17  D17  1
    X0_18  COST  1
    X0_18  S0  1
    X0_18  D18  1
    X0_19  COST  2
    X0_19  S0  1
    X0_19  D19  1
    X0_20  COST  2
    X0_20  S0  1
    X0_20  D20  1
    X0_21  COST  2
    X0_21  S0  1
    X0_21  D21  1
    X0_22  COST  3
    X0_22  S0  1
    X0_22  D22  1
    X0_23  COST  4
    X0_23  S0  1
    X0_23  D23  1
    X0_24  COST  5
    X0_24  S0  1
    X0_24  D24  1
    X0_25  COST  3
    X0_25  S0  1
    X0_25  D25  1
    X0_26  COST  4
    X0_26  S0  1
    X0_26  D26  1
    X0_27  COST  5
    X0_27  S0  1
    X0_27  D27  1
    X0_28  COST  5
    X0_28  S0  1
    X0_28  D28  1
    X0_29  COST  5
    X0_29  S0  1
    X0_29  D29  1
    X1_0  COST  4
    X1_0  S1  1
    X1_0  D0  1
    X1_1  COST  5
    X1_1  S1  1
    X1_1  D1  1
    X1_2  COST  1
    X1_2  S1  1
    X1_2  D2  1
    X1_3  COST  2
    X1_3  S1  1
    X1_3  D3  1
    X1_4  COST  2
    X1_4  S1  1
    X1_4  D4  1
    X1_5  COST  4
    X1_5  S1  1
    X1_5  D5  1
    X1_6  COST  2
    X1_6  S1  1
    X1_6  D6  1
    X1_7  COST  3
    X1_7  S1  1
    X1_7  D7  1
    X1_8  COST  5
    X1_8  S1  1
    X1_8  D8  1
    X1_9  COST  5
    X1_9  S1  1
    X1_9  D9  1
    X1_10  COST  1
    X1_10  S1  1
    X1_10  D10  1
    X1_11  COST  3
    X1_11  S1  1
    X1_11  D11  1
    X1_12  COST  4
    X1_12  S1  1
    X1_12  D12  1
    X1_13  COST  1
    X1_13  S1  1
    X1_13  D13  1
    X1_14  COST  3
    X1_14  S1  1
    X1_14  D14  1
    X1_15  COST  3
    X1_15  S1  1
    X1_15  D15  1
    X1_16  COST  1
    X1_16  S1  1
    X1_16  D16  1
    X1_17  COST  1
    X1_17  S1  1
    X1_17  D17  1
    X1_18  COST  5
    X1_18  S1  1
    X1_18  D18  1
    X1_19  COST  2
    X1_19  S1  1
    X1_19  D19  1
    X1_20  COST  4
    X1_20  S1  1
    X1_20  D20  1
    X1_21  COST  1
    X1_21  S1  1
    X1_21  D21  1
    X1_22  COST  3
    X1_22  S1  1
    X1_22  D22  1
    X1_23  COST  5
    X1_23  S1  1
    X1_23  D23  1
    X1_24  COST  3
    X1_24  S1  1
    X1_24  D24  1
    X1_25  COST  3
    X1_25  S1  1
    X1_25  D25  1
    X1_26  COST  5
    X1_26  S1  1
    X1_26  D26  1
    X1_27  COST  5
    X1_27  S1  1
    X1_27  D27  1
    X1_28  COST  4
    X1_28  S1  1
    X1_28  D28  1
    X1_29  COST  4
    X1_29  S1  1
    X1_29  D29  1
    X2_0  COST  2
    X2_0  S2  1
    X2_0  D0  1
    X2_1  COST  5
    X2_1  S2  1
    X2_1  D1  1
    X2_2  COST  4
    X2_2  S2  1
    X2_2  D2  1
    X2_3  COST  1
    X2_3  S2  1
    X2_3  D3  1
    X2_4  COST  5
    X2_4  S2  1
    X2_4  D4  1
    X2_5  COST  1
    X2_5  S2  1
    X2_5  D5  1
    X2_6  COST  4
    X2_6  S2  1
    X2_6  D6  1
    X2_7  COST  5
    X2_7  S2  1
    X2_7  D7  1
    X2_8  COST  2
    X2_8  S2  1
    X2_8  D8  1
    X2_9  COST  3
    X2_9  S2  1
    X2_9  D9  1
    X2_10  COST  3
    X2_10  S2  1
    X2_10  D10  1
    X2_11  COST  4
    X2_11  S2  1
    X2_11  D11  1
    X2_12  COST  2
    X2_12  S2  1
    X2_12  D12  1
    X2_13  COST  3
    X2_13  S2  1
    X2_13  D13  1
    X2_14  COST  1
    X2_14  S2  1
    X2_14  D14  1
    X2_15  COST  2
    X2_15  S2  1
    X2_15  D15  1
    X2_16  COST  3
    X2_16  S2  1
    X2_16  D16  1
    X2_17  COST  5
    X2_17  S2  1
    X2_17  D17  1
    X2_18  COST  5
    X2_18  S2  1
    X2_18  D18  1
    X2_19  COST  4
    X2_19  S2  1
    X2_19  D19  1
    X2_20  COST  1
    X2_20  S2  1
    X2_20  D20  1
    X2_21  COST  1
    X2_21  S2  1
    X2_21  D21  1
    X2_22  COST  5
    X2_22  S2  1
    X2_22  D22  1
    X2_23  COST  1
    X2_23  S2  1
    X2_23  D23  1
    X2_24  COST  4
    X2_24  S2  1
    X2_24  D24  1
    X2_25  COST  2
    X2_25  S2  1
    X2_25  D25  1
    X2_26  COST  4
    X2_26  S2  1
    X2_26  D26  1
    X2_27  COST  3
    X2_27  S2  1
    X2_27  D27  1
    X2_28  COST  2
    X2_28  S2  1
    X2_28  D28  1
    X2_29  COST  1
    X2_29  S2  1
    X2_29  D29  1
    X3_0  COST  2
    X3_0  S3  1
    X3_0  D0  1
    X3_1  COST  4
    X3_1  S3  1
    X3_1  D1  1
    X3_2  COST  4
    X3_2  S3  1
    X3_2  D2  1
    X3_3  COST  5
    X3_3  S3  1
    X3_3  D3  1
    X3_4  COST  4
    X3_4  S3  1
    X3_4  D4  1
    X3_5  COST  2
    X3_5  S3  1
    X3_5  D5  1
    X3_6  COST  5
    X3_6  S3  1
    X3_6  D6  1
    X3_7  COST  5
    X3_7  S3  1
    X3_7  D7  1
    X3_8  COST  4
    X3_8  S3  1
    X3_8  D8  1
    X3_9  COST  3
    X3_9  S3  1
    X3_9  D9  1
    X3_10  COST  4
    X3_10  S3  1
    X3_10  D10  1
    X3_11  COST  3
    X3_11  S3  1
    X3_11  D11  1
    X3_12  COST  4
    X3_12  S3  1
    X3_12  D12  1
    X3_13  COST  2
    X3_13  S3  1
    X3_13  D13  1
    X3_14  COST  5
    X3_14  S3  1
    X3_14  D14  1
    X3_15  COST  1
    X3_15  S3  1
    X3_15  D15  1
    X3_16  COST  1
    X3_16  S3  1
    X3_16  D16  1
    X3_17  COST  3
    X3_17  S3  1
    X3_17  D17  1
    X3_18  COST  2
    X3_18  S3  1
    X3_18  D18  1
    X3_19  COST  3
    X3_19  S3  1
    X3_19  D19  1
    X3_20  COST  5
    X3_20  S3  1
    X3_20  D20  1
    X3_21  COST  4
    X3_21  S3  1
    X3_21  D21  1
    X3_22  COST  5
    X3_22  S3  1
    X3_22  D22  1
    X3_23  COST  3
    X3_23  S3  1
    X3_23  D23  1
    X3_24  COST  4
    X3_24  S3  1
    X3_24  D24  1
    X3_25  COST  2
    X3_25  S3  1
    X3_25  D25  1
    X3_26  COST  4
    X3_26  S3  1
    X3_26  D26  1
    X3_27  COST  1
    X3_27  S3  1
    X3_27  D27  1
    X3_28  COST  4
    X3_28  S3  1
    X3_28  D28  1
    X3_29  COST  5
    X3_29  S3  1
    X3_29  D29  1
    X4_0  COST  3
    X4_0  S4  1
    X4_0  D0  1
    X4_1  COST  4
    X4_1  S4  1
    X4_1  D1  1
    X4_2  COST  4
    X4_2  S4  1
    X4_2  D2  1
    X4_3  COST  2
    X4_3  S4  1
    X4_3  D3  1
    X4_4  COST  3
    X4_4  S4  1
    X4_4  D4  1
    X4_5  COST  4
    X4_5  S4  1
    X4_5  D5  1
    X4_6  COST  5
    X4_6  S4  1
    X4_6  D6  1
    X4_7  COST  5
    X4_7  S4  1
    X4_7  D7  1
    X4_8  COST  1
    X4_8  S4  1
    X4_8  D8  1
    X4_9  COST  2
    X4_9  S4  1
    X4_9  D9  1
    X4_10  COST  2
    X4_10  S4  1
    X4_10  D10  1
    X4_11  COST  3
    X4_11  S4  1
    X4_11  D11  1
    X4_12  COST  5
    X4_12  S4  1
    X4_12  D12  1
    X4_13  COST  1
    X4_13  S4  1
    X4_13  D13  1
    X4_14  COST  1
    X4_14  S4  1
    X4_14  D14  1
    X4_15  COST  5
    X4_15  S4  1
    X4_15  D15  1
    X4_16  COST  5
    X4_16  S4  1
    X4_16  D16  1
    X4_17  COST  4
    X4_17  S4  1
    X4_17  D17  1
    X4_18  COST  2
    X4_18  S4  1
    X4_18  D18  1
    X4_19  COST  3
    X4_19  S4  1
    X4_19  D19  1
    X4_20  COST  3
    X4_20  S4  1
    X4_20  D20  1
    X4_21  COST  4
    X4_21  S4  1
    X4_21  D21  1
    X4_22  COST  1
    X4_22  S4  1
    X4_22  D22  1
    X4_23  COST  1
    X4_23  S4  1
    X4_23  D23  1
    X4_24  COST  5
    X4_24  S4  1
    X4_24  D24  1
    X4_25  COST  4
    X4_25  S4  1
    X4_25  D25  1
    X4_26  COST  4
    X4_26  S4  1
    X4_26  D26  1
    X4_27  COST  4
    X4_27  S4  1
    X4_27  D27  1
    X4_28  COST  5
    X4_28  S4  1
    X4_28  D28  1
    X4_29  COST  4
    X4_29  S4  1
    X4_29  D29  1
    X5_0  COST  2
    X5_0  S5  1
    X5_0  D0  1
    X5_1  COST  2
    X5_1  S5  1
    X5_1  D1  1
    X5_2  COST  1
    X5_2  S5  1
    X5_2  D2  1
    X5_3  COST  5
    X5_3  S5  1
    X5_3  D3  1
    X5_4  COST  4
    X5_4  S5  1
    X5_4  D4  1
    X5_5  COST  1
    X5_5  S5  1
    X5_5  D5  1
    X5_6  COST  5
    X5_6  S5  1
    X5_6  D6  1
    X5_7  COST  1
    X5_7  S5  1
    X5_7  D7  1
    X5_8  COST  4
    X5_8  S5  1
    X5_8  D8  1
    X5_9  COST  1
    X5_9  S5  1
    X5_9  D9  1
    X5_10  COST  2
    X5_10  S5  1
    X5_10  D10  1
    X5_11  COST  1
    X5_11  S5  1
    X5_11  D11  1
    X5_12  COST  1
    X5_12  S5  1
    X5_12  D12  1
    X5_13  COST  5
    X5_13  S5  1
    X5_13  D13  1
    X5_14  COST  2
    X5_14  S5  1
    X5_14  D14  1
    X5_15  COST  5
    X5_15  S5  1
    X5_15  D15  1
    X5_16  COST  3
    X5_16  S5  1
    X5_16  D16  1
    X5_17  COST  5
    X5_17  S5  1
    X5_17  D17  1
    X5_18  COST  2
    X5_18  S5  1
    X5_18  D18  1
    X5_19  COST  1
    X5_19  S5  1
    X5_19  D19  1
    X5_20  COST  5
    X5_20  S5  1
    X5_20  D20  1
    X5_21  COST  1
    X5_21  S5  1
    X5_21  D21  1
    X5_22  COST  1
    X5_22  S5  1
    X5_22  D22  1
    X5_23  COST  3
    X5_23  S5  1
    X5_23  D23  1
    X5_24  COST  2
    X5_24  S5  1
    X5_24  D24  1
    X5_25  COST  3
    X5_25  S5  1
    X5_25  D25  1
    X5_26  COST  1
    X5_26  S5  1
    X5_26  D26  1
    X5_27  COST  2
    X5_27  S5  1
    X5_27  D27  1
    X5_28  COST  3
    X5_28  S5  1
    X5_28  D28  1
    X5_29  COST  4
    X5_29  S5  1
    X5_29  D29  1
    X6_0  COST  1
    X6_0  S6  1
    X6_0  D0  1
    X6_1  COST  5
    X6_1  S6  1
    X6_1  D1  1
    X6_2  COST  5
    X6_2  S6  1
    X6_2  D2  1
    X6_3  COST  5
    X6_3  S6  1
    X6_3  D3  1
    X6_4  COST  3
    X6_4  S6  1
    X6_4  D4  1
    X6_5  COST  3
    X6_5  S6  1
    X6_5  D5  1
    X6_6  COST  2
    X6_6  S6  1
    X6_6  D6  1
    X6_7  COST  1
    X6_7  S6  1
    X6_7  D7  1
    X6_8  COST  3
    X6_8  S6  1
    X6_8  D8  1
    X6_9  COST  4
    X6_9  S6  1
    X6_9  D9  1
    X6_10  COST  2
    X6_10  S6  1
    X6_10  D10  1
    X6_11  COST  5
    X6_11  S6  1
    X6_11  D11  1
    X6_12  COST  2
    X6_12  S6  1
    X6_12  D12  1
    X6_13  COST  2
    X6_13  S6  1
    X6_13  D13  1
    X6_14  COST  3
    X6_14  S6  1
    X6_14  D14  1
    X6_15  COST  1
    X6_15  S6  1
    X6_15  D15  1
    X6_16  COST  1
    X6_16  S6  1
    X6_16  D16  1
    X6_17  COST  5
    X6_17  S6  1
    X6_17  D17  1
    X6_18  COST  2
    X6_18  S6  1
    X6_18  D18  1
    X6_19  COST  2
    X6_19  S6  1
    X6_19  D19  1
    X6_20  COST  5
    X6_20  S6  1
    X6_20  D20  1
    X6_21  COST  5
    X6_21  S6  1
    X6_21  D21  1
    X6_22  COST  5
    X6_22  S6  1
    X6_22  D22  1
    X6_23  COST  1
    X6_23  S6  1
    X6_23  D23  1
    X6_24  COST  4
    X6_24  S6  1
    X6_24  D24  1
    X6_25  COST  1
    X6_25  S6  1
    X6_25  D25  1
    X6_26  COST  4
    X6_26  S6  1
    X6_26  D26  1
    X6_27  COST  5
    X6_27  S6  1
    X6_27  D27  1
    X6_28  COST  5
    X6_28  S6  1
    X6_28  D28  1
    X6_29  COST  4
    X6_29  S6  1
    X6_29  D29  1
    X7_0  COST  4
    X7_0  S7  1
    X7_0  D0  1
    X7_1  COST  5
    X7_1  S7  1
    X7_1  D1  1
    X7_2  COST  4
    X7_2  S7  1
    X7_2  D2  1
    X7_3  COST  2
    X7_3  S7  1
    X7_3  D3  1
    X7_4  COST  5
    X7_4  S7  1
    X7_4  D4  1
    X7_5  COST  5
    X7_5  S7  1
    X7_5  D5  1
    X7_6  COST  3
    X7_6  S7  1
    X7_6  D6  1
    X7_7  COST  2
    X7_7  S7  1
    X7_7  D7  1
    X7_8  COST  1
    X7_8  S7  1
    X7_8  D8  1
    X7_9  COST  4
    X7_9  S7  1
    X7_9  D9  1
    X7_10  COST  3
    X7_10  S7  1
    X7_10  D10  1
    X7_11  COST  3
    X7_11  S7  1
    X7_11  D11  1
    X7_12  COST  5
    X7_12  S7  1
    X7_12  D12  1
    X7_13  COST  2
    X7_13  S7  1
    X7_13  D13  1
    X7_14  COST  3
    X7_14  S7  1
    X7_14  D14  1
    X7_15  COST  3
    X7_15  S7  1
    X7_15  D15  1
    X7_16  COST  3
    X7_16  S7  1
    X7_16  D16  1
    X7_17  COST  3
    X7_17  S7  1
    X7_17  D17  1
    X7_18  COST  2
    X7_18  S7  1
    X7_18  D18  1
    X7_19  COST  5
    X7_19  S7  1
    X7_19  D19  1
    X7_20  COST  5
    X7_20  S7  1
    X7_20  D20  1
    X7_21  COST  5
    X7_21  S7  1
    X7_21  D21  1
    X7_22  COST  5
    X7_22  S7  1
    X7_22  D22  1
    X7_23  COST  5
    X7_23  S7  1
    X7_23  D23  1
    X7_24  COST  1
    X7_24  S7  1
    X7_24  D24  1
    X7_25  COST  4
    X7_25  S7  1
    X7_25  D25  1
    X7_26  COST  4
    X7_26  S7  1
    X7_26  D26  1
    X7_27  COST  4
    X7_27  S7  1
    X7_27  D27  1
    X7_28  COST  5
    X7_28  S7  1
    X7_28  D28  1
    X7_29  COST  1
    X7_29  S7  1
    X7_29  D29  1
    X8_0  COST  3
    X8_0  S8  1
    X8_0  D0  1
    X8_1  COST  3
    X8_1  S8  1
    X8_1  D1  1
    X8_2  COST  1
    X8_2  S8  1
    X8_2  D2  1
    X8_3  COST  4
    X8_3  S8  1
    X8_3  D3  1
    X8_4  COST  3
    X8_4  S8  1
    X8_4  D4  1
    X8_5  COST  2
    X8_5  S8  1
    X8_5  D5  1
    X8_6  COST  3
    X8_6  S8  1
    X8_6  D6  1
    X8_7  COST  5
    X8_7  S8  1
    X8_7  D7  1
    X8_8  COST  4
    X8_8  S8  1
    X8_8  D8  1
    X8_9  COST  1
    X8_9  S8  1
    X8_9  D9  1
    X8_10  COST  4
    X8_10  S8  1
    X8_10  D10  1
    X8_11  COST  2
    X8_11  S8  1
    X8_11  D11  1
    X8_12  COST  5
    X8_12  S8  1
    X8_12  D12  1
    X8_13  COST  5
    X8_13  S8  1
    X8_13  D13  1
    X8_14  COST  3
    X8_14  S8  1
    X8_14  D14  1
    X8_15  COST  5
    X8_15  S8  1
    X8_15  D15  1
    X8_16  COST  3
    X8_16  S8  1
    X8_16  D16  1
    X8_17  COST  3
    X8_17  S8  1
    X8_17  D17  1
    X8_18  COST  1
    X8_18  S8  1
    X8_18  D18  1
    X8_19  COST  1
    X8_19  S8  1
    X8_19  D19  1
    X8_20  COST  3
    X8_20  S8  1
    X8_20  D20  1
    X8_21  COST  1
    X8_21  S8  1
    X8_21  D21  1
    X8_22  COST  1
    X8_22  S8  1
    X8_22  D22  1
    X8_23  COST  4
    X8_23  S8  1
    X8_23  D23  1
    X8_24  COST  3
    X8_24  S8  1
    X8_24  D24  1
    X8_25  COST  1
    X8_25  S8  1
    X8_25  D25  1
    X8_26  COST  2
    X8_26  S8  1
    X8_26  D26  1
    X8_27  COST  2
    X8_27  S8  1
    X8_27  D27  1
    X8_28  COST  3
    X8_28  S8  1
    X8_28  D28  1
    X8_29  COST  2
    X8_29  S8  1
    X8_29  D29  1
    X9_0  COST  5
    X9_0  S9  1
    X9_0  D0  1
    X9_1  COST  5
    X9_1  S9  1
    X9_1  D1  1
    X9_2  COST  4
    X9_2  S9  1
    X9_2  D2  1
    X9_3  COST  3
    X9_3  S9  1
    X9_3  D3  1
    X9_4  COST  2
    X9_4  S9  1
    X9_4  D4  1
    X9_5  COST  5
    X9_5  S9  1
    X9_5  D5  1
    X9_6  COST  4
    X9_6  S9  1
    X9_6  D6  1
    X9_7  COST  2
    X9_7  S9  1
    X9_7  D7  1
    X9_8  COST  3
    X9_8  S9  1
    X9_8  D8  1
    X9_9  COST  1
    X9_9  S9  1
    X9_9  D9  1
    X9_10  COST  1
    X9_10  S9  1
    X9_10  D10  1
    X9_11  COST  5
    X9_11  S9  1
    X9_11  D11  1
    X9_12  COST  4
    X9_12  S9  1
    X9_12  D12  1
    X9_13  COST  5
    X9_13  S9  1
    X9_13  D13  1
    X9_14  COST  1
    X9_14  S9  1
    X9_14  D14  1
    X9_15  COST  5
    X9_15  S9  1
    X9_15  D15  1
    X9_16  COST  2
    X9_16  S9  1
    X9_16  D16  1
    X9_17  COST  1
    X9_17  S9  1
    X9_17  D17  1
    X9_18  COST  5
    X9_18  S9  1
    X9_18  D18  1
    X9_19  COST  2
    X9_19  S9  1
    X9_19  D19  1
    X9_20  COST  4
    X9_20  S9  1
    X9_20  D20  1
    X9_21  COST  2
    X9_21  S9  1
    X9_21  D21  1
    X9_22  COST  1
    X9_22  S9  1
    X9_22  D22  1
    X9_23  COST  2
    X9_23  S9  1
    X9_23  D23  1
    X9_24  COST  1
    X9_24  S9  1
    X9_24  D24  1
    X9_25  COST  3
    X9_25  S9  1
    X9_25  D25  1
    X9_26  COST  5
    X9_26  S9  1
    X9_26  D26  1
    X9_27  COST  5
    X9_27  S9  1
    X9_27  D27  1
    X9_28  COST  5
    X9_28  S9  1
    X9_28  D28  1
    X9_29  COST  2
    X9_29  S9  1
    X9_29  D29  1
    X10_0  COST  3
    X10_0  S10  1
    X10_0  D0  1
    X10_1  COST  3
    X10_1  S10  1
    X10_1  D1  1
    X10_2  COST  2
    X10_2  S10  1
    X10_2  D2  1
    X10_3  COST  3
    X10_3  S10  1
    X10_3  D3  1
    X10_4  COST  1
    X10_4  S10  1
    X10_4  D4  1
    X10_5  COST  5
    X10_5  S10  1
    X10_5  D5  1
    X10_6  COST  4
    X10_6  S10  1
    X10_6  D6  1
    X10_7  COST  2
    X10_7  S10  1
    X10_7  D7  1
    X10_8  COST  3
    X10_8  S10  1
    X10_8  D8  1
    X10_9  COST  3
    X10_9  S10  1
    X10_9  D9  1
    X10_10  COST  2
    X10_10  S10  1
    X10_10  D10  1
    X10_11  COST  1
    X10_11  S10  1
    X10_11  D11  1
    X10_12  COST  3
    X10_12  S10  1
    X10_12  D12  1
    X10_13  COST  2
    X10_13  S10  1
    X10_13  D13  1
    X10_14  COST  5
    X10_14  S10  1
    X10_14  D14  1
    X10_15  COST  4
    X10_15  S10  1
    X10_15  D15  1
    X10_16  COST  3
    X10_16  S10  1
    X10_16  D16  1
    X10_17  COST  4
    X10_17  S10  1
    X10_17  D17  1
    X10_18  COST  2
    X10_18  S10  1
    X10_18  D18  1
    X10_19  COST  3
    X10_19  S10  1
    X10_19  D19  1
    X10_20  COST  4
    X10_20  S10  1
    X10_20  D20  1
    X10_21  COST  5
    X10_21  S10  1
    X10_21  D21  1
    X10_22  COST  5
    X10_22  S10  1
    X10_22  D22  1
    X10_23  COST  5
    X10_23  S10  1
    X10_23  D23  1
    X10_24  COST  5
    X10_24  S10  1
    X10_24  D24  1
    X10_25  COST  5
    X10_25  S10  1
    X10_25  D25  1
    X10_26  COST  1
    X10_26  S10  1
    X10_26  D26  1
    X10_27  COST  4
    X10_27  S10  1
    X10_27  D27  1
    X10_28  COST  3
    X10_28  S10  1
    X10_28  D28  1
    X10_29  COST  1
    X10_29  S10  1
    X10_29  D29  1
    X11_0  COST  3
    X11_0  S11  1
    X11_0  D0  1
    X11_1  COST  2
    X11_1  S11  1
    X11_1  D1  1
    X11_2  COST  5
    X11_2  S11  1
    X11_2  D2  1
    X11_3  COST  2
    X11_3  S11  1
    X11_3  D3  1
    X11_4  COST  4
    X11_4  S11  1
    X11_4  D4  1
    X11_5  COST  4
    X11_5  S11  1
    X11_5  D5  1
    X11_6  COST  5
    X11_6  S11  1
    X11_6  D6  1
    X11_7  COST  4
    X11_7  S11  1
    X11_7  D7  1
    X11_8  COST  2
    X11_8  S11  1
    X11_8  D8  1
    X11_9  COST  1
    X11_9  S11  1
    X11_9  D9  1
    X11_10  COST  1
    X11_10  S11  1
    X11_10  D10  1
    X11_11  COST  1
    X11_11  S11  1
    X11_11  D11  1
    X11_12  COST  1
    X11_12  S11  1
    X11_12  D12  1
    X11_13  COST  2
    X11_13  S11  1
    X11_13  D13  1
    X11_14  COST  4
    X11_14  S11  1
    X11_14  D14  1
    X11_15  COST  5
    X11_15  S11  1
    X11_15  D15  1
    X11_16  COST  4
    X11_16  S11  1
    X11_16  D16  1
    X11_17  COST  5
    X11_17  S11  1
    X11_17  D17  1
    X11_18  COST  2
    X11_18  S11  1
    X11_18  D18  1
    X11_19  COST  3
    X11_19  S11  1
    X11_19  D19  1
    X11_20  COST  2
    X11_20  S11  1
    X11_20  D20  1
    X11_21  COST  1
    X11_21  S11  1
    X11_21  D21  1
    X11_22  COST  4
    X11_22  S11  1
    X11_22  D22  1
    X11_23  COST  2
    X11_23  S11  1
    X11_23  D23  1
    X11_24  COST  5
    X11_24  S11  1
    X11_24  D24  1
    X11_25  COST  2
    X11_25  S11  1
    X11_25  D25  1
    X11_26  COST  1
    X11_26  S11  1
    X11_26  D26  1
    X11_27  COST  2
    X11_27  S11  1
    X11_27  D27  1
    X11_28  COST  3
    X11_28  S11  1
    X11_28  D28  1
    X11_29  COST  4
    X11_29  S11  1
    X11_29  D29  1
    X12_0  COST  2
    X12_0  S12  1
    X12_0  D0  1
    X12_1  COST  2
    X12_1  S12  1
    X12_1  D1  1
    X12_2  COST  3
    X12_2  S12  1
    X12_2  D2  1
    X12_3  COST  3
    X12_3  S12  1
    X12_3  D3  1
    X12_4  COST  3
    X12_4  S12  1
    X12_4  D4  1
    X12_5  COST  2
    X12_5  S12  1
    X12_5  D5  1
    X12_6  COST  4
    X12_6  S12  1
    X12_6  D6  1
    X12_7  COST  1
    X12_7  S12  1
    X12_7  D7  1
    X12_8  COST  2
    X12_8  S12  1
    X12_8  D8  1
    X12_9  COST  2
    X12_9  S12  1
    X12_9  D9  1
    X12_10  COST  3
    X12_10  S12  1
    X12_10  D10  1
    X12_11  COST  4
    X12_11  S12  1
    X12_11  D11  1
    X12_12  COST  5
    X12_12  S12  1
    X12_12  D12  1
    X12_13  COST  5
    X12_13  S12  1
    X12_13  D13  1
    X12_14  COST  4
    X12_14  S12  1
    X12_14  D14  1
    X12_15  COST  5
    X12_15  S12  1
    X12_15  D15  1
    X12_16  COST  5
    X12_16  S12  1
    X12_16  D16  1
    X12_17  COST  5
    X12_17  S12  1
    X12_17  D17  1
    X12_18  COST  5
    X12_18  S12  1
    X12_18  D18  1
    X12_19  COST  3
    X12_19  S12  1
    X12_19  D19  1
    X12_20  COST  2
    X12_20  S12  1
    X12_20  D20  1
    X12_21  COST  5
    X12_21  S12  1
    X12_21  D21  1
    X12_22  COST  3
    X12_22  S12  1
    X12_22  D22  1
    X12_23  COST  5
    X12_23  S12  1
    X12_23  D23  1
    X12_24  COST  1
    X12_24  S12  1
    X12_24  D24  1
    X12_25  COST  4
    X12_25  S12  1
    X12_25  D25  1
    X12_26  COST  5
    X12_26  S12  1
    X12_26  D26  1
    X12_27  COST  4
    X12_27  S12  1
    X12_27  D27  1
    X12_28  COST  2
    X12_28  S12  1
    X12_28  D28  1
    X12_29  COST  1
    X12_29  S12  1
    X12_29  D29  1
    X13_0  COST  5
    X13_0  S13  1
    X13_0  D0  1
    X13_1  COST  1
    X13_1  S13  1
    X13_1  D1  1
    X13_2  COST  2
    X13_2  S13  1
    X13_2  D2  1
    X13_3  COST  1
    X13_3  S13  1
    X13_3  D3  1
    X13_4  COST  5
    X13_4  S13  1
    X13_4  D4  1
    X13_5  COST  3
    X13_5  S13  1
    X13_5  D5  1
    X13_6  COST  2
    X13_6  S13  1
    X13_6  D6  1
    X13_7  COST  1
    X13_7  S13  1
    X13_7  D7  1
    X13_8  COST  4
    X13_8  S13  1
    X13_8  D8  1
    X13_9  COST  5
    X13_9  S13  1
    X13_9  D9  1
    X13_10  COST  2
    X13_10  S13  1
    X13_10  D10  1
    X13_11  COST  5
    X13_11  S13  1
    X13_11  D11  1
    X13_12  COST  4
    X13_12  S13  1
    X13_12  D12  1
    X13_13  COST  3
    X13_13  S13  1
    X13_13  D13  1
    X13_14  COST  4
    X13_14  S13  1
    X13_14  D14  1
    X13_15  COST  4
    X13_15  S13  1
    X13_15  D15  1
    X13_16  COST  4
    X13_16  S13  1
    X13_16  D16  1
    X13_17  COST  2
    X13_17  S13  1
    X13_17  D17  1
    X13_18  COST  5
    X13_18  S13  1
    X13_18  D18  1
    X13_19  COST  1
    X13_19  S13  1
    X13_19  D19  1
    X13_20  COST  2
    X13_20  S13  1
    X13_20  D20  1
    X13_21  COST  1
    X13_21  S13  1
    X13_21  D21  1
    X13_22  COST  2
    X13_22  S13  1
    X13_22  D22  1
    X13_23  COST  3
    X13_23  S13  1
    X13_23  D23  1
    X13_24  COST  1
    X13_24  S13  1
    X13_24  D24  1
    X13_25  COST  4
    X13_25  S13  1
    X13_25  D25  1
    X13_26  COST  2
    X13_26  S13  1
    X13_26  D26  1
    X13_27  COST  2
    X13_27  S13  1
    X13_27  D27  1
    X13_28  COST  3
    X13_28  S13  1
    X13_28  D28  1
    X13_29  COST  1
    X13_29  S13  1
    X13_29  D29  1
    X14_0  COST  5
    X14_0  S14  1
    X14_0  D0  1
    X14_1  COST  4
    X14_1  S14  1
    X14_1  D1  1
    X14_2  COST  2
    X14_2  S14  1
    X14_2  D2  1
    X14_3  COST  1
    X14_3  S14  1
    X14_3  D3  1
    X14_4  COST  4
    X14_4  S14  1
    X14_4  D4  1
    X14_5  COST  2
    X14_5  S14  1
    X14_5  D5  1
    X14_6  COST  1
    X14_6  S14  1
    X14_6  D6  1
    X14_7  COST  3
    X14_7  S14  1
    X14_7  D7  1
    X14_8  COST  5
    X14_8  S14  1
    X14_8  D8  1
    X14_9  COST  1
    X14_9  S14  1
    X14_9  D9  1
    X14_10  COST  4
    X14_10  S14  1
    X14_10  D10  1
    X14_11  COST  1
    X14_11  S14  1
    X14_11  D11  1
    X14_12  COST  3
    X14_12  S14  1
    X14_12  D12  1
    X14_13  COST  4
    X14_13  S14  1
    X14_13  D13  1
    X14_14  COST  2
    X14_14  S14  1
    X14_14  D14  1
    X14_15  COST  5
    X14_15  S14  1
    X14_15  D15  1
    X14_16  COST  1
    X14_16  S14  1
    X14_16  D16  1
    X14_17  COST  3
    X14_17  S14  1
    X14_17  D17  1
    X14_18  COST  1
    X14_18  S14  1
    X14_18  D18  1
    X14_19  COST  4
    X14_19  S14  1
    X14_19  D19  1
    X14_20  COST  1
    X14_20  S14  1
    X14_20  D20  1
    X14_21  COST  5
    X14_21  S14  1
    X14_21  D21  1
    X14_22  COST  3
    X14_22  S14  1
    X14_22  D22  1
    X14_23  COST  2
    X14_23  S14  1
    X14_23  D23  1
    X14_24  COST  3
    X14_24  S14  1
    X14_24  D24  1
    X14_25  COST  4
    X14_25  S14  1
    X14_25  D25  1
    X14_26  COST  4
    X14_26  S14  1
    X14_26  D26  1
    X14_27  COST  1
    X14_27  S14  1
    X14_27  D27  1
    X14_28  COST  4
    X14_28  S14  1
    X14_28  D28  1
    X14_29  COST  5
    X14_29  S14  1
    X14_29  D29  1
    X15_0  COST  4
    X15_0  S15  1
    X15_0  D0  1
    X15_1  COST  2
    X15_1  S15  1
    X15_1  D1  1
    X15_2  COST  4
    X15_2  S15  1
    X15_2  D2  1
    X15_3  COST  3
    X15_3  S15  1
    X15_3  D3  1
    X15_4  COST  5
    X15_4  S15  1
    X15_4  D4  1
    X15_5  COST  1
    X15_5  S15  1
    X15_5  D5  1
    X15_6  COST  5
    X15_6  S15  1
    X15_6  D6  1
    X15_7  COST  3
    X15_7  S15  1
    X15_7  D7  1
    X15_8  COST  3
    X15_8  S15  1
    X15_8  D8  1
    X15_9  COST  4
    X15_9  S15  1
    X15_9  D9  1
    X15_10  COST  3
    X15_10  S15  1
    X15_10  D10  1
    X15_11  COST  4
    X15_11  S15  1
    X15_11  D11  1
    X15_12  COST  2
    X15_12  S15  1
    X15_12  D12  1
    X15_13  COST  5
    X15_13  S15  1
    X15_13  D13  1
    X15_14  COST  2
    X15_14  S15  1
    X15_14  D14  1
    X15_15  COST  4
    X15_15  S15  1
    X15_15  D15  1
    X15_16  COST  5
    X15_16  S15  1
    X15_16  D16  1
    X15_17  COST  4
    X15_17  S15  1
    X15_17  D17  1
    X15_18  COST  5
    X15_18  S15  1
    X15_18  D18  1
    X15_19  COST  3
    X15_19  S15  1
    X15_19  D19  1
    X15_20  COST  5
    X15_20  S15  1
    X15_20  D20  1
    X15_21  COST  2
    X15_21  S15  1
    X15_21  D21  1
    X15_22  COST  4
    X15_22  S15  1
    X15_22  D22  1
    X15_23  COST  4
    X15_23  S15  1
    X15_23  D23  1
    X15_24  COST  2
    X15_24  S15  1
    X15_24  D24  1
    X15_25  COST  4
    X15_25  S15  1
    X15_25  D25  1
    X15_26  COST  3
    X15_26  S15  1
    X15_26  D26  1
    X15_27  COST  2
    X15_27  S15  1
    X15_27  D27  1
    X15_28  COST  1
    X15_28  S15  1
    X15_28  D28  1
    X15_29  COST  5
    X15_29  S15  1
    X15_29  D29  1
    X16_0  COST  1
    X16_0  S16  1
    X16_0  D0  1
    X16_1  COST  1
    X16_1  S16  1
    X16_1  D1  1
    X16_2  COST  5
    X16_2  S16  1
    X16_2  D2  1
    X16_3  COST  2
    X16_3  S16  1
    X16_3  D3  1
    X16_4  COST  2
    X16_4  S16  1
    X16_4  D4  1
    X16_5  COST  1
    X16_5  S16  1
    X16_5  D5  1
    X16_6  COST  2
    X16_6  S16  1
    X16_6  D6  1
    X16_7  COST  4
    X16_7  S16  1
    X16_7  D7  1
    X16_8  COST  4
    X16_8  S16  1
    X16_8  D8  1
    X16_9  COST  2
    X16_9  S16  1
    X16_9  D9  1
    X16_10  COST  5
    X16_10  S16  1
    X16_10  D10  1
    X16_11  COST  5
    X16_11  S16  1
    X16_11  D11  1
    X16_12  COST  1
    X16_12  S16  1
    X16_12  D12  1
    X16_13  COST  4
    X16_13  S16  1
    X16_13  D13  1
    X16_14  COST  3
    X16_14  S16  1
    X16_14  D14  1
    X16_15  COST  1
    X16_15  S16  1
    X16_15  D15  1
    X16_16  COST  1
    X16_16  S16  1
    X16_16  D16  1
    X16_17  COST  1
    X16_17  S16  1
    X16_17  D17  1
    X16_18  COST  5
    X16_18  S16  1
    X16_18  D18  1
    X16_19  COST  1
    X16_19  S16  1
    X16_19  D19  1
    X16_20  COST  4
    X16_20  S16  1
    X16_20  D20  1
    X16_21  COST  2
    X16_21  S16  1
    X16_21  D21  1
    X16_22  COST  5
    X16_22  S16  1
    X16_22  D22  1
    X16_23  COST  4
    X16_23  S16  1
    X16_23  D23  1
    X16_24  COST  1
    X16_24  S16  1
    X16_24  D24  1
    X16_25  COST  5
    X16_25  S16  1
    X16_25  D25  1
    X16_26  COST  4
    X16_26  S16  1
    X16_26  D26  1
    X16_27  COST  1
    X16_27  S16  1
    X16_27  D27  1
    X16_28  COST  4
    X16_28  S16  1
    X16_28  D28  1
    X16_29  COST  3
    X16_29  S16  1
    X16_29  D29  1
    X17_0  COST  3
    X17_0  S17  1
    X17_0  D0  1
    X17_1  COST  2
    X17_1  S17  1
    X17_1  D1  1
    X17_2  COST  4
    X17_2  S17  1
    X17_2  D2  1
    X17_3  COST  3
    X17_3  S17  1
    X17_3  D3  1
    X17_4  COST  5
    X17_4  S17  1
    X17_4  D4  1
    X17_5  COST  3
    X17_5  S17  1
    X17_5  D5  1
    X17_6  COST  5
    X17_6  S17  1
    X17_6  D6  1
    X17_7  COST  1
    X17_7  S17  1
    X17_7  D7  1
    X17_8  COST  3
    X17_8  S17  1
    X17_8  D8  1
    X17_9  COST  1
    X17_9  S17  1
    X17_9  D9  1
    X17_10  COST  1
    X17_10  S17  1
    X17_10  D10  1
    X17_11  COST  3
    X17_11  S17  1
    X17_11  D11  1
    X17_12  COST  5
    X17_12  S17  1
    X17_12  D12  1
    X17_13  COST  5
    X17_13  S17  1
    X17_13  D13  1
    X17_14  COST  4
    X17_14  S17  1
    X17_14  D14  1
    X17_15  COST  2
    X17_15  S17  1
    X17_15  D15  1
    X17_16  COST  2
    X17_16  S17  1
    X17_16  D16  1
    X17_17  COST  5
    X17_17  S17  1
    X17_17  D17  1
    X17_18  COST  5
    X17_18  S17  1
    X17_18  D18  1
    X17_19  COST  2
    X17_19  S17  1
    X17_19  D19  1
    X17_20  COST  4
    X17_20  S17  1
    X17_20  D20  1
    X17_21  COST  4
    X17_21  S17  1
    X17_21  D21  1
    X17_22  COST  2
    X17_22  S17  1
    X17_22  D22  1
    X17_23  COST  2
    X17_23  S17  1
    X17_23  D23  1
    X17_24  COST  2
    X17_24  S17  1
    X17_24  D24  1
    X17_25  COST  5
    X17_25  S17  1
    X17_25  D25  1
    X17_26  COST  3
    X17_26  S17  1
    X17_26  D26  1
    X17_27  COST  2
    X17_27  S17  1
    X17_27  D27  1
    X17_28  COST  4
    X17_28  S17  1
    X17_28  D28  1
    X17_29  COST  5
    X17_29  S17  1
    X17_29  D29  1
    X18_0  COST  5
    X18_0  S18  1
    X18_0  D0  1
    X18_1  COST  1
    X18_1  S18  1
    X18_1  D1  1
    X18_2  COST  3
    X18_2  S18  1
    X18_2  D2  1
    X18_3  COST  5
    X18_3  S18  1
    X18_3  D3  1
    X18_4  COST  1
    X18_4  S18  1
    X18_4  D4  1
    X18_5  COST  2
    X18_5  S18  1
    X18_5  D5  1
    X18_6  COST  1
    X18_6  S18  1
    X18_6  D6  1
    X18_7  COST  2
    X18_7  S18  1
    X18_7  D7  1
    X18_8  COST  2
    X18_8  S18  1
    X18_8  D8  1
    X18_9  COST  1
    X18_9  S18  1
    X18_9  D9  1
    X18_10  COST  5
    X18_10  S18  1
    X18_10  D10  1
    X18_11  COST  5
    X18_11  S18  1
    X18_11  D11  1
    X18_12  COST  2
    X18_12  S18  1
    X18_12  D12  1
    X18_13  COST  4
    X18_13  S18  1
    X18_13  D13  1
    X18_14  COST  5
    X18_14  S18  1
    X18_14  D14  1
    X18_15  COST  3
    X18_15  S18  1
    X18_15  D15  1
    X18_16  COST  5
    X18_16  S18  1
    X18_16  D16  1
    X18_17  COST  5
    X18_17  S18  1
    X18_17  D17  1
    X18_18  COST  2
    X18_18  S18  1
    X18_18  D18  1
    X18_19  COST  2
    X18_19  S18  1
    X18_19  D19  1
    X18_20  COST  5
    X18_20  S18  1
    X18_20  D20  1
    X18_21  COST  2
    X18_21  S18  1
    X18_21  D21  1
    X18_22  COST  1
    X18_22  S18  1
    X18_22  D22  1
    X18_23  COST  3
    X18_23  S18  1
    X18_23  D23  1
    X18_24  COST  4
    X18_24  S18  1
    X18_24  D24  1
    X18_25  COST  4
    X18_25  S18  1
    X18_25  D25  1
    X18_26  COST  2
    X18_26  S18  1
    X18_26  D26  1
    X18_27  COST  1
    X18_27  S18  1
    X18_27  D27  1
    X18_28  COST  5
    X18_28  S18  1
    X18_28  D28  1
    X18_29  COST  2
    X18_29  S18  1
    X18_29  D29  1
    X19_0  COST  2
    X19_0  S19  1
    X19_0  D0  1
    X19_1  COST  3
    X19_1  S19  1
    X19_1  D1  1
    X19_2  COST  1
    X19_2  S19  1
    X19_2  D2  1
    X19_3  COST  3
    X19_3  S19  1
    X19_3  D3  1
    X19_4  COST  5
    X19_4  S19  1
    X19_4  D4  1
    X19_5  COST  2
    X19_5  S19  1
    X19_5  D5  1
    X19_6  COST  4
    X19_6  S19  1
    X19_6  D6  1
    X19_7  COST  4
    X19_7  S19  1
    X19_7  D7  1
    X19_8  COST  5
    X19_8  S19  1
    X19_8  D8  1
    X19_9  COST  2
    X19_9  S19  1
    X19_9  D9  1
    X19_10  COST  5
    X19_10  S19  1
    X19_10  D10  1
    X19_11  COST  4
    X19_11  S19  1
    X19_11  D11  1
    X19_12  COST  3
    X19_12  S19  1
    X19_12  D12  1
    X19_13  COST  4
    X19_13  S19  1
    X19_13  D13  1
    X19_14  COST  4
    X19_14  S19  1
    X19_14  D14  1
    X19_15  COST  2
    X19_15  S19  1
    X19_15  D15  1
    X19_16  COST  5
    X19_16  S19  1
    X19_16  D16  1
    X19_17  COST  3
    X19_17  S19  1
    X19_17  D17  1
    X19_18  COST  1
    X19_18  S19  1
    X19_18  D18  1
    X19_19  COST  3
    X19_19  S19  1
    X19_19  D19  1
    X19_20  COST  2
    X19_20  S19  1
    X19_20  D20  1
    X19_21  COST  3
    X19_21  S19  1
    X19_21  D21  1
    X19_22  COST  3
    X19_22  S19  1
    X19_22  D22  1
    X19_23  COST  1
    X19_23  S19  1
    X19_23  D23  1
    X19_24  COST  2
    X19_24  S19  1
    X19_24  D24  1
    X19_25  COST  3
    X19_25  S19  1
    X19_25  D25  1
    X19_26  COST  3
    X19_26  S19  1
    X19_26  D26  1
    X19_27  COST  4
    X19_27  S19  1
    X19_27  D27  1
    X19_28  COST  1
    X19_28  S19  1
    X19_28  D28  1
    X19_29  COST  1
    X19_29  S19  1
    X19_29  D29  1
    X20_0  COST  3
    X20_0  S20  1
    X20_0  D0  1
    X20_1  COST  1
    X20_1  S20  1
    X20_1  D1  1
    X20_2  COST  5
    X20_2  S20  1
    X20_2  D2  1
    X20_3  COST  3
    X20_3  S20  1
    X20_3  D3  1
    X20_4  COST  1
    X20_4  S20  1
    X20_4  D4  1
    X20_5  COST  5
    X20_5  S20  1
    X20_5  D5  1
    X20_6  COST  4
    X20_6  S20  1
    X20_6  D6  1
    X20_7  COST  2
    X20_7  S20  1
    X20_7  D7  1
    X20_8  COST  5
    X20_8  S20  1
    X20_8  D8  1
    X20_9  COST  3
    X20_9  S20  1
    X20_9  D9  1
    X20_10  COST  2
    X20_10  S20  1
    X20_10  D10  1
    X20_11  COST  5
    X20_11  S20  1
    X20_11  D11  1
    X20_12  COST  1
    X20_12  S20  1
    X20_12  D12  1
    X20_13  COST  4
    X20_13  S20  1
    X20_13  D13  1
    X20_14  COST  5
    X20_14  S20  1
    X20_14  D14  1
    X20_15  COST  4
    X20_15  S20  1
    X20_15  D15  1
    X20_16  COST  1
    X20_16  S20  1
    X20_16  D16  1
    X20_17  COST  5
    X20_17  S20  1
    X20_17  D17  1
    X20_18  COST  2
    X20_18  S20  1
    X20_18  D18  1
    X20_19  COST  1
    X20_19  S20  1
    X20_19  D19  1
    X20_20  COST  2
    X20_20  S20  1
    X20_20  D20  1
    X20_21  COST  4
    X20_21  S20  1
    X20_21  D21  1
    X20_22  COST  4
    X20_22  S20  1
    X20_22  D22  1
    X20_23  COST  5
    X20_23  S20  1
    X20_23  D23  1
    X20_24  COST  5
    X20_24  S20  1
    X20_24  D24  1
    X20_25  COST  3
    X20_25  S20  1
    X20_25  D25  1
    X20_26  COST  3
    X20_26  S20  1
    X20_26  D26  1
    X20_27  COST  3
    X20_27  S20  1
    X20_27  D27  1
    X20_28  COST  3
    X20_28  S20  1
    X20_28  D28  1
    X20_29  COST  4
    X20_29  S20  1
    X20_29  D29  1
    X21_0  COST  3
    X21_0  S21  1
    X21_0  D0  1
    X21_1  COST  4
    X21_1  S21  1
    X21_1  D1  1
    X21_2  COST  1
    X21_2  S21  1
    X21_2  D2  1
    X21_3  COST  1
    X21_3  S21  1
    X21_3  D3  1
    X21_4  COST  5
    X21_4  S21  1
    X21_4  D4  1
    X21_5  COST  4
    X21_5  S21  1
    X21_5  D5  1
    X21_6  COST  4
    X21_6  S21  1
    X21_6  D6  1
    X21_7  COST  3
    X21_7  S21  1
    X21_7  D7  1
    X21_8  COST  2
    X21_8  S21  1
    X21_8  D8  1
    X21_9  COST  3
    X21_9  S21  1
    X21_9  D9  1
    X21_10  COST  4
    X21_10  S21  1
    X21_10  D10  1
    X21_11  COST  5
    X21_11  S21  1
    X21_11  D11  1
    X21_12  COST  2
    X21_12  S21  1
    X21_12  D12  1
    X21_13  COST  4
    X21_13  S21  1
    X21_13  D13  1
    X21_14  COST  2
    X21_14  S21  1
    X21_14  D14  1
    X21_15  COST  1
    X21_15  S21  1
    X21_15  D15  1
    X21_16  COST  2
    X21_16  S21  1
    X21_16  D16  1
    X21_17  COST  4
    X21_17  S21  1
    X21_17  D17  1
    X21_18  COST  3
    X21_18  S21  1
    X21_18  D18  1
    X21_19  COST  3
    X21_19  S21  1
    X21_19  D19  1
    X21_20  COST  1
    X21_20  S21  1
    X21_20  D20  1
    X21_21  COST  4
    X21_21  S21  1
    X21_21  D21  1
    X21_22  COST  4
    X21_22  S21  1
    X21_22  D22  1
    X21_23  COST  3
    X21_23  S21  1
    X21_23  D23  1
    X21_24  COST  3
    X21_24  S21  1
    X21_24  D24  1
    X21_25  COST  2
    X21_25  S21  1
    X21_25  D25  1
    X21_26  COST  5
    X21_26  S21  1
    X21_26  D26  1
    X21_27  COST  1
    X21_27  S21  1
    X21_27  D27  1
    X21_28  COST  3
    X21_28  S21  1
    X21_28  D28  1
    X21_29  COST  1
    X21_29  S21  1
    X21_29  D29  1
    X22_0  COST  2
    X22_0  S22  1
    X22_0  D0  1
    X22_1  COST  3
    X22_1  S22  1
    X22_1  D1  1
    X22_2  COST  3
    X22_2  S22  1
    X22_2  D2  1
    X22_3  COST  5
    X22_3  S22  1
    X22_3  D3  1
    X22_4  COST  2
    X22_4  S22  1
    X22_4  D4  1
    X22_5  COST  3
    X22_5  S22  1
    X22_5  D5  1
    X22_6  COST  3
    X22_6  S22  1
    X22_6  D6  1
    X22_7  COST  3
    X22_7  S22  1
    X22_7  D7  1
    X22_8  COST  5
    X22_8  S22  1
    X22_8  D8  1
    X22_9  COST  2
    X22_9  S22  1
    X22_9  D9  1
    X22_10  COST  5
    X22_10  S22  1
    X22_10  D10  1
    X22_11  COST  1
    X22_11  S22  1
    X22_11  D11  1
    X22_12  COST  2
    X22_12  S22  1
    X22_12  D12  1
    X22_13  COST  3
    X22_13  S22  1
    X22_13  D13  1
    X22_14  COST  5
    X22_14  S22  1
    X22_14  D14  1
    X22_15  COST  3
    X22_15  S22  1
    X22_15  D15  1
    X22_16  COST  2
    X22_16  S22  1
    X22_16  D16  1
    X22_17  COST  3
    X22_17  S22  1
    X22_17  D17  1
    X22_18  COST  3
    X22_18  S22  1
    X22_18  D18  1
    X22_19  COST  2
    X22_19  S22  1
    X22_19  D19  1
    X22_20  COST  4
    X22_20  S22  1
    X22_20  D20  1
    X22_21  COST  4
    X22_21  S22  1
    X22_21  D21  1
    X22_22  COST  2
    X22_22  S22  1
    X22_22  D22  1
    X22_23  COST  4
    X22_23  S22  1
    X22_23  D23  1
    X22_24  COST  4
    X22_24  S22  1
    X22_24  D24  1
    X22_25  COST  5
    X22_25  S22  1
    X22_25  D25  1
    X22_26  COST  1
    X22_26  S22  1
    X22_26  D26  1
    X22_27  COST  1
    X22_27  S22  1
    X22_27  D27  1
    X22_28  COST  2
    X22_28  S22  1
    X22_28  D28  1
    X22_29  COST  1
    X22_29  S22  1
    X22_29  D29  1
    X23_0  COST  1
    X23_0  S23  1
    X23_0  D0  1
    X23_1  COST  1
    X23_1  S23  1
    X23_1  D1  1
    X23_2  COST  3
    X23_2  S23  1
    X23_2  D2  1
    X23_3  COST  5
    X23_3  S23  1
    X23_3  D3  1
    X23_4  COST  2
    X23_4  S23  1
    X23_4  D4  1
    X23_5  COST  1
    X23_5  S23  1
    X23_5  D5  1
    X23_6  COST  3
    X23_6  S23  1
    X23_6  D6  1
    X23_7  COST  2
    X23_7  S23  1
    X23_7  D7  1
    X23_8  COST  4
    X23_8  S23  1
    X23_8  D8  1
    X23_9  COST  5
    X23_9  S23  1
    X23_9  D9  1
    X23_10  COST  3
    X23_10  S23  1
    X23_10  D10  1
    X23_11  COST  3
    X23_11  S23  1
    X23_11  D11  1
    X23_12  COST  1
    X23_12  S23  1
    X23_12  D12  1
    X23_13  COST  4
    X23_13  S23  1
    X23_13  D13  1
    X23_14  COST  5
    X23_14  S23  1
    X23_14  D14  1
    X23_15  COST  1
    X23_15  S23  1
    X23_15  D15  1
    X23_16  COST  4
    X23_16  S23  1
    X23_16  D16  1
    X23_17  COST  3
    X23_17  S23  1
    X23_17  D17  1
    X23_18  COST  3
    X23_18  S23  1
    X23_18  D18  1
    X23_19  COST  4
    X23_19  S23  1
    X23_19  D19  1
    X23_20  COST  4
    X23_20  S23  1
    X23_20  D20  1
    X23_21  COST  2
    X23_21  S23  1
    X23_21  D21  1
    X23_22  COST  4
    X23_22  S23  1
    X23_22  D22  1
    X23_23  COST  5
    X23_23  S23  1
    X23_23  D23  1
    X23_24  COST  2
    X23_24  S23  1
    X23_24  D24  1
    X23_25  COST  5
    X23_25  S23  1
    X23_25  D25  1
    X23_26  COST  4
    X23_26  S23  1
    X23_26  D26  1
    X23_27  COST  3
    X23_27  S23  1
    X23_27  D27  1
    X23_28  COST  1
    X23_28  S23  1
    X23_28  D28  1
    X23_29  COST  1
    X23_29  S23  1
    X23_29  D29  1
    X24_0  COST  5
    X24_0  S24  1
    X24_0  D0  1
    X24_1  COST  3
    X24_1  S24  1
    X24_1  D1  1
    X24_2  COST  1
    X24_2  S24  1
    X24_2  D2  1
    X24_3  COST  4
    X24_3  S24  1
    X24_3  D3  1
    X24_4  COST  5
    X24_4  S24  1
    X24_4  D4  1
    X24_5  COST  2
    X24_5  S24  1
    X24_5  D5  1
    X24_6  COST  2
    X24_6  S24  1
    X24_6  D6  1
    X24_7  COST  5
    X24_7  S24  1
    X24_7  D7  1
    X24_8  COST  5
    X24_8  S24  1
    X24_8  D8  1
    X24_9  COST  3
    X24_9  S24  1
    X24_9  D9  1
    X24_10  COST  2
    X24_10  S24  1
    X24_10  D10  1
    X24_11  COST  2
    X24_11  S24  1
    X24_11  D11  1
    X24_12  COST  2
    X24_12  S24  1
    X24_12  D12  1
    X24_13  COST  4
    X24_13  S24  1
    X24_13  D13  1
    X24_14  COST  2
    X24_14  S24  1
    X24_14  D14  1
    X24_15  COST  1
    X24_15  S24  1
    X24_15  D15  1
    X24_16  COST  4
    X24_16  S24  1
    X24_16  D16  1
    X24_17  COST  1
    X24_17  S24  1
    X24_17  D17  1
    X24_18  COST  1
    X24_18  S24  1
    X24_18  D18  1
    X24_19  COST  2
    X24_19  S24  1
    X24_19  D19  1
    X24_20  COST  1
    X24_20  S24  1
    X24_20  D20  1
    X24_21  COST  5
    X24_21  S24  1
    X24_21  D21  1
    X24_22  COST  5
    X24_22  S24  1
    X24_22  D22  1
    X24_23  COST  1
    X24_23  S24  1
    X24_23  D23  1
    X24_24  COST  3
    X24_24  S24  1
    X24_24  D24  1
    X24_25  COST  1
    X24_25  S24  1
    X24_25  D25  1
    X24_26  COST  5
    X24_26  S24  1
    X24_26  D26  1
    X24_27  COST  4
    X24_27  S24  1
    X24_27  D27  1
    X24_28  COST  1
    X24_28  S24  1
    X24_28  D28  1
    X24_29  COST  5
    X24_29  S24  1
    X24_29  D29  1
    X25_0  COST  2
    X25_0  S25  1
    X25_0  D0  1
    X25_1  COST  4
    X25_1  S25  1
    X25_1  D1  1
    X25_2  COST  4
    X25_2  S25  1
    X25_2  D2  1
    X25_3  COST  3
    X25_3  S25  1
    X25_3  D3  1
    X25_4  COST  4
    X25_4  S25  1
    X25_4  D4  1
    X25_5  COST  1
    X25_5  S25  1
    X25_5  D5  1
    X25_6  COST  1
    X25_6  S25  1
    X25_6  D6  1
    X25_7  COST  4
    X25_7  S25  1
    X25_7  D7  1
    X25_8  COST  5
    X25_8  S25  1
    X25_8  D8  1
    X25_9  COST  4
    X25_9  S25  1
    X25_9  D9  1
    X25_10  COST  5
    X25_10  S25  1
    X25_10  D10  1
    X25_11  COST  2
    X25_11  S25  1
    X25_11  D11  1
    X25_12  COST  2
    X25_12  S25  1
    X25_12  D12  1
    X25_13  COST  3
    X25_13  S25  1
    X25_13  D13  1
    X25_14  COST  4
    X25_14  S25  1
    X25_14  D14  1
    X25_15  COST  2
    X25_15  S25  1
    X25_15  D15  1
    X25_16  COST  4
    X25_16  S25  1
    X25_16  D16  1
    X25_17  COST  4
    X25_17  S25  1
    X25_17  D17  1
    X25_18  COST  2
    X25_18  S25  1
    X25_18  D18  1
    X25_19  COST  4
    X25_19  S25  1
    X25_19  D19  1
    X25_20  COST  3
    X25_20  S25  1
    X25_20  D20  1
    X25_21  COST  4
    X25_21  S25  1
    X25_21  D21  1
    X25_22  COST  2
    X25_22  S25  1
    X25_22  D22  1
    X25_23  COST  1
    X25_23  S25  1
    X25_23  D23  1
    X25_24  COST  5
    X25_24  S25  1
    X25_24  D24  1
    X25_25  COST  5
    X25_25  S25  1
    X25_25  D25  1
    X25_26  COST  5
    X25_26  S25  1
    X25_26  D26  1
    X25_27  COST  3
    X25_27  S25  1
    X25_27  D27  1
    X25_28  COST  2
    X25_28  S25  1
    X25_28  D28  1
    X25_29  COST  5
    X25_29  S25  1
    X25_29  D29  1
    X26_0  COST  3
    X26_0  S26  1
    X26_0  D0  1
    X26_1  COST  5
    X26_1  S26  1
    X26_1  D1  1
    X26_2  COST  5
    X26_2  S26  1
    X26_2  D2  1
    X26_3  COST  3
    X26_3  S26  1
    X26_3  D3  1
    X26_4  COST  3
    X26_4  S26  1
    X26_4  D4  1
    X26_5  COST  4
    X26_5  S26  1
    X26_5  D5  1
    X26_6  COST  2
    X26_6  S26  1
    X26_6  D6  1
    X26_7  COST  1
    X26_7  S26  1
    X26_7  D7  1
    X26_8  COST  5
    X26_8  S26  1
    X26_8  D8  1
    X26_9  COST  1
    X26_9  S26  1
    X26_9  D9  1
    X26_10  COST  3
    X26_10  S26  1
    X26_10  D10  1
    X26_11  COST  5
    X26_11  S26  1
    X26_11  D11  1
    X26_12  COST  3
    X26_12  S26  1
    X26_12  D12  1
    X26_13  COST  3
    X26_13  S26  1
    X26_13  D13  1
    X26_14  COST  1
    X26_14  S26  1
    X26_14  D14  1
    X26_15  COST  5
    X26_15  S26  1
    X26_15  D15  1
    X26_16  COST  1
    X26_16  S26  1
    X26_16  D16  1
    X26_17  COST  3
    X26_17  S26  1
    X26_17  D17  1
    X26_18  COST  2
    X26_18  S26  1
    X26_18  D18  1
    X26_19  COST  2
    X26_19  S26  1
    X26_19  D19  1
    X26_20  COST  1
    X26_20  S26  1
    X26_20  D20  1
    X26_21  COST  3
    X26_21  S26  1
    X26_21  D21  1
    X26_22  COST  4
    X26_22  S26  1
    X26_22  D22  1
    X26_23  COST  1
    X26_23  S26  1
    X26_23  D23  1
    X26_24  COST  3
    X26_24  S26  1
    X26_24  D24  1
    X26_25  COST  5
    X26_25  S26  1
    X26_25  D25  1
    X26_26  COST  4
    X26_26  S26  1
    X26_26  D26  1
    X26_27  COST  2
    X26_27  S26  1
    X26_27  D27  1
    X26_28  COST  4
    X26_28  S26  1
    X26_28  D28  1
    X26_29  COST  2
    X26_29  S26  1
    X26_29  D29  1
    X27_0  COST  3
    X27_0  S27  1
    X27_0  D0  1
    X27_1  COST  1
    X27_1  S27  1
    X27_1  D1  1
    X27_2  COST  3
    X27_2  S27  1
    X27_2  D2  1
    X27_3  COST  3
    X27_3  S27  1
    X27_3  D3  1
    X27_4  COST  5
    X27_4  S27  1
    X27_4  D4  1
    X27_5  COST  3
    X27_5  S27  1
    X27_5  D5  1
    X27_6  COST  3
    X27_6  S27  1
    X27_6  D6  1
    X27_7  COST  1
    X27_7  S27  1
    X27_7  D7  1
    X27_8  COST  3
    X27_8  S27  1
    X27_8  D8  1
    X27_9  COST  2
    X27_9  S27  1
    X27_9  D9  1
    X27_10  COST  2
    X27_10  S27  1
    X27_10  D10  1
    X27_11  COST  2
    X27_11  S27  1
    X27_11  D11  1
    X27_12  COST  1
    X27_12  S27  1
    X27_12  D12  1
    X27_13  COST  2
    X27_13  S27  1
    X27_13  D13  1
    X27_14  COST  1
    X27_14  S27  1
    X27_14  D14  1
    X27_15  COST  2
    X27_15  S27  1
    X27_15  D15  1
    X27_16  COST  5
    X27_16  S27  1
    X27_16  D16  1
    X27_17  COST  4
    X27_17  S27  1
    X27_17  D17  1
    X27_18  COST  1
    X27_18  S27  1
    X27_18  D18  1
    X27_19  COST  3
    X27_19  S27  1
    X27_19  D19  1
    X27_20  COST  4
    X27_20  S27  1
    X27_20  D20  1
    X27_21  COST  1
    X27_21  S27  1
    X27_21  D21  1
    X27_22  COST  1
    X27_22  S27  1
    X27_22  D22  1
    X27_23  COST  5
    X27_23  S27  1
    X27_23  D23  1
    X27_24  COST  4
    X27_24  S27  1
    X27_24  D24  1
    X27_25  COST  1
    X27_25  S27  1
    X27_25  D25  1
    X27_26  COST  1
    X27_26  S27  1
    X27_26  D26  1
    X27_27  COST  2
    X27_27  S27  1
    X27_27  D27  1
    X27_28  COST  3
    X27_28  S27  1
    X27_28  D28  1
    X27_29  COST  2
    X27_29  S27  1
    X27_29  D29  1
    X28_0  COST  3
    X28_0  S28  1
    X28_0  D0  1
    X28_1  COST  3
    X28_1  S28  1
    X28_1  D1  1
    X28_2  COST  3
    X28_2  S28  1
    X28_2  D2  1
    X28_3  COST  5
    X28_3  S28  1
    X28_3  D3  1
    X28_4  COST  5
    X28_4  S28  1
    X28_4  D4  1
    X28_5  COST  3
    X28_5  S28  1
    X28_5  D5  1
    X28_6  COST  3
    X28_6  S28  1
    X28_6  D6  1
    X28_7  COST  4
    X28_7  S28  1
    X28_7  D7  1
    X28_8  COST  5
    X28_8  S28  1
    X28_8  D8  1
    X28_9  COST  1
    X28_9  S28  1
    X28_9  D9  1
    X28_10  COST  4
    X28_10  S28  1
    X28_10  D10  1
    X28_11  COST  3
    X28_11  S28  1
    X28_11  D11  1
    X28_12  COST  1
    X28_12  S28  1
    X28_12  D12  1
    X28_13  COST  1
    X28_13  S28  1
    X28_13  D13  1
    X28_14  COST  5
    X28_14  S28  1
    X28_14  D14  1
    X28_15  COST  1
    X28_15  S28  1
    X28_15  D15  1
    X28_16  COST  5
    X28_16  S28  1
    X28_16  D16  1
    X28_17  COST  5
    X28_17  S28  1
    X28_17  D17  1
    X28_18  COST  5
    X28_18  S28  1
    X28_18  D18  1
    X28_19  COST  1
    X28_19  S28  1
    X28_19  D19  1
    X28_20  COST  2
    X28_20  S28  1
    X28_20  D20  1
    X28_21  COST  3
    X28_21  S28  1
    X28_21  D21  1
    X28_22  COST  5
    X28_22  S28  1
    X28_22  D22  1
    X28_23  COST  2
    X28_23  S28  1
    X28_23  D23  1
    X28_24  COST  1
    X28_24  S28  1
    X28_24  D24  1
    X28_25  COST  3
    X28_25  S28  1
    X28_25  D25  1
    X28_26  COST  2
    X28_26  S28  1
    X28_26  D26  1
    X28_27  COST  3
    X28_27  S28  1
    X28_27  D27  1
    X28_28  COST  3
    X28_28  S28  1
    X28_28  D28  1
    X28_29  COST  1
    X28_29  S28  1
    X28_29  D29  1
    X29_0  COST  2
    X29_0  S29  1
    X29_0  D0  1
    X29_1  COST  1
    X29_1  S29  1
    X29_1  D1  1
    X29_2  COST  1
    X29_2  S29  1
    X29_2  D2  1
    X29_3  COST  2
    X29_3  S29  1
    X29_3  D3  1
    X29_4  COST  1
    X29_4  S29  1
    X29_4  D4  1
    X29_5  COST  1
    X29_5  S29  1
    X29_5  D5  1
    X29_6  COST  3
    X29_6  S29  1
    X29_6  D6  1
    X29_7  COST  4
    X29_7  S29  1
    X29_7  D7  1
    X29_8  COST  1
    X29_8  S29  1
    X29_8  D8  1
    X29_9  COST  4
    X29_9  S29  1
    X29_9  D9  1
    X29_10  COST  5
    X29_10  S29  1
    X29_10  D10  1
    X29_11  COST  2
    X29_11  S29  1
    X29_11  D11  1
    X29_12  COST  3
    X29_12  S29  1
    X29_12  D12  1
    X29_13  COST  1
    X29_13  S29  1
    X29_13  D13  1
    X29_14  COST  3
    X29_14  S29  1
    X29_14  D14  1
    X29_15  COST  4
    X29_15  S29  1
    X29_15  D15  1
    X29_16  COST  1
    X29_16  S29  1
    X29_16  D16  1
    X29_17  COST  2
    X29_17  S29  1
    X29_17  D17  1
    X29_18  COST  3
    X29_18  S29  1
    X29_18  D18  1
    X29_19  COST  3
    X29_19  S29  1
    X29_19  D19  1
    X29_20  COST  4
    X29_20  S29  1
    X29_20  D20  1
    X29_21  COST  2
    X29_21  S29  1
    X29_21  D21  1
    X29_22  COST  4
    X29_22  S29  1
    X29_22  D22  1
    X29_23  COST  2
    X29_23  S29  1
    X29_23  D23  1
    X29_24  COST  5
    X29_24  S29  1
    X29_24  D24  1
    X29_25  COST  1
    X29_25  S29  1
    X29_25  D25  1
    X29_26  COST  4
    X29_26  S29  1
    X29_26  D26  1
    X29_27  COST  3
    X29_27  S29  1
    X29_27  D27  1
    X29_28  COST  3
    X29_28  S29  1
    X29_28  D28  1
    X29_29  COST  4
    X29_29  S29  1
    X29_29  D29  1
RHS
    RHS  S0  100
    RHS  S1  100
    RHS  S2  100
    RHS  S3  100
    RHS  S4  100
    RHS  S5  100
    RHS  S6  100
    RHS  S7  100
    RHS  S8  100
    RHS  S9  100
    RHS  S10  100
    RHS  S11  100
    RHS  S12  100
    RHS  S13  100
    RHS  S14  100
    RHS  S15  100
    RHS  S16  100
    RHS  S17  100
    RHS  S18  100
    RHS  S19  100
    RHS  S20  100
    RHS  S21  100
    RHS  S22  100
    RHS  S23  100
    RHS  S24  100
    RHS  S25  100
    RHS  S26  100
    RHS  S27  100
    RHS  S28  100
    RHS  S29  100
    RHS  D0  100
    RHS  D1  100
    RHS  D2  100
    RHS  D3  100
    RHS  D4  100
    RHS  D5  100
    RHS  D6  100
    RHS  D7  100
    RHS  D8  100
    RHS  D9  100
    RHS  D10  100
    RHS  D11  100
    RHS  D12  100
    RHS  D13  100
    RHS  D14  100
    RHS  D15  100
    RHS  D16  100
    RHS  D17  100
    RHS  D18  100
    RHS  D19  100
    RHS  D20  100
    RHS  D21  100
    RHS  D22  100
    RHS  D23  100
    RHS  D24  100
    RHS  D25  100
    RHS  D26  100
    RHS  D27  100
    RHS  D28  100
    RHS  D29  100
RANGES
BOUNDS
ENDATA
