NAME          ILL0
ROWS
 N  COST
 E  R0
 L  R1
 G  R2
 E  R3
 L  R4
 G  R5
 E  R6
 L  R7
 G  R8
 E  R9
 L  R10
 G  R11
 E  R12
 L  R13
 G  R14
 E  R15
 L  R16
 G  R17
 E  R18
 L  R19
 G  R20
 E  R21
 L  R22
 G  R23
 E  R24
 L  R25
 G  R26
 E  R27
 L  R28
 G  R29
 E  R30
 L  R31
 G  R32
 E  R33
 L  R34
 G  R35
 E  R36
 L  R37
 G  R38
 E  R39
 L  R40
 G  R41
 E  R42
 L  R43
 G  R44
 E  R45
 L  R46
 G  R47
 E  R48
 L  R49
 G  R50
 E  R51
 L  R52
 G  R53
 E  R54
 L  R55
 G  R56
 E  R57
 L  R58
 G  R59
 E  R60
 L  R61
 G  R62
 E  R63
 L  R64
 G  R65
 E  R66
 L  R67
 G  R68
 E  R69
 L  R70
 G  R71
 E  R72
 L  R73
 G  R74
 E  R75
 L  R76
 G  R77
 E  R78
 L  R79
 G  R80
 E  R81
 L  R82
 G  R83
 E  R84
 L  R85
 G  R86
 E  R87
 L  R88
 G  R89
 E  R90
 L  R91
 G  R92
 E  R93
 L  R94
 G  R95
 E  R96
 L  R97
 G  R98
 E  R99
 L  R100
 G  R101
 E  R102
 L  R103
 G  R104
 E  R105
 L  R106
 G  R107
 E  R108
 L  R109
 G  R110
 E  R111
 L  R112
 G  R113
 E  R114
 L  R115
 G  R116
 E  R117
 L  R118
 G  R119
 E  R120
 L  R121
 G  R122
 E  R123
 L  R124
 G  R125
 E  R126
 L  R127
 G  R128
 E  R129
 L  R130
 G  R131
 E  R132
 L  R133
 G  R134
 E  R135
 L  R136
 G  R137
 E  R138
 L  R139
COLUMNS
    X0  COST  -0.279489963754
    X0  R1  10.0517560196
    X0  R25  0.0021981166011
    X0  R39  2313.60920215
    X0  R56  825.447853855
    X0  R111  0.0148162373869
    X1  COST  1.72789639778
    X1  R96  4.06416357513
    X1  R110  0.296175873392
    X1  R125  0.000114846502434
    X2  COST  -0.202066036037
    X2  R11  315.126749704
    X2  R23  11.026419446
    X2  R30  0.135827961595
    X2  R71  0.0604815755477
    X2  R97  0.0704514517296
    X2  R105  32.8028097737
    X2  R132  3.20981731978
    X3  COST  -3.79661675189
    X3  R15  0.00220401237275
    X3  R25  0.00178004340442
    X4  COST  3.83599975143
    X4  R40  0.00437935812443
    X4  R63  0.000319418740938
    X4  R78  0.000429635365718
    X4  R84  4604.45192517
    X4  R113  29.9010107424
    X5  COST  4.51532870505
    X5  R21  1249.79540279
    X5  R22  0.00338063403932
    X5  R24  313.747320599
    X5  R47  15.6622083965
    X5  R60  114.015062534
    X5  R61  17.43389339
    X5  R74  0.112872423701
    X5  R86  1433.35845042
    X5  R107  0.160469350572
    X6  COST  -4.01863490753
    X6  R46  1.01169171124
    X6  R68  0.0428450199853
    X6  R71  0.0873503294196
    X6  R126  0.0070126122285
    X6  R133  0.000560545807021
    X6  R139  2.19520537849
    X7  COST  1.28501802697
    X7  R53  9.29727263953
    X7  R106  340.812981439
    X8  COST  -4.8827678018
    X8  R4  0.103272672817
    X8  R8  0.00560324299799
    X8  R27  3075.11088792
    X8  R37  291.949230091
    X8  R80  0.114904032112
    X8  R98  0.00174714186527
    X8  R101  6351.93760505
    X8  R116  0.470833586309
    X9  COST  -3.40635651161
    X9  R38  65.2090551533
    X9  R40  0.0113768443276
    X10  COST  3.53194769471
    X10  R18  0.000728822662515
    X10  R77  108.330016424
    X10  R91  0.000270347399694
    X10  R97  0.0788125994496
    X11  COST  5.93387328164
    X11  R22  0.00418774570479
    X11  R88  2774.41808276
    X11  R116  0.292166682353
    X12  COST  -0.312643285621
    X13  COST  -5.2820733856
    X13  R3  0.014351033712
    X13  R58  0.127082056467
    X13  R66  72.2913131053
    X13  R97  0.0525717551103
    X13  R101  5721.17725
    X14  COST  -5.94249109157
    X14  R48  6128.0881314
    X14  R65  0.000238856746498
    X14  R92  18.0932240125
    X14  R109  708.048527034
    X14  R113  41.1575585172
    X15  COST  -3.48480843181
    X15  R50  0.0957952563589
    X15  R58  0.102372134241
    X15  R108  37.5906030715
    X16  COST  -5.61829055644
    X16  R57  1463.12265114
    X16  R63  0.000186862556128
    X16  R64  8.74191201232
    X16  R83  351.193540454
    X16  R134  0.0115676250881
    X17  COST  -4.6759696262
    X17  R15  0.00366151546201
    X17  R82  0.0491535156821
    X17  R95  357.884214909
    X17  R98  0.000581894160255
    X17  R111  0.016262905197
    X17  R127  0.330890278939
    X18  COST  -5.42763582851
    X18  R13  0.126861533804
    X18  R15  0.00549459166438
    X18  R20  0.111978496287
    X18  R24  206.782741487
    X18  R27  4287.35940856
    X18  R48  6486.95673509
    X19  COST  3.12249411446
    X19  R8  0.0069739283551
    X19  R56  1218.24899453
    X19  R65  0.00069482411258
    X19  R120  396.794891387
    X19  R126  0.00220250850906
    X20  COST  4.82328887079
    X20  R84  3006.41127602
    X20  R111  0.00652073481393
    X20  R139  6.43756293207
    X21  COST  -4.67037725195
    X21  R11  257.267195146
    X21  R25  0.000954018686059
    X21  R37  590.749070429
    X21  R100  555.179499862
    X21  R118  281.546946157
    X22  COST  5.50284420964
    X22  R1  5.76385144954
    X22  R4  0.0703953727162
    X22  R50  0.146326145299
    X22  R56  941.933619769
    X22  R94  0.000614405111069
    X22  R103  0.0121055620385
    X22  R124  0.688136423539
    X23  COST  -0.0765943059763
    X23  R59  14.2540974041
    X23  R70  1.60831616847
    X23  R94  0.000407696144203
    X24  COST  3.64373458788
    X24  R6  3607.14493245
    X24  R8  0.0110839937723
    X24  R62  0.000204271270257
    X24  R93  0.102102922417
    X24  R111  0.0102229653107
    X25  COST  -4.98595505727
    X25  R20  0.13343656078
    X25  R24  96.1430296804
    X25  R39  2072.97248602
    X25  R50  0.0559832397305
    X25  R69  6548.32571295
    X26  COST  0.544223554535
    X26  R30  0.0866895557462
    X26  R31  6263.97444118
    X26  R34  0.014434906057
    X26  R60  153.44127197
    X26  R74  0.108995914981
    X27  COST  -0.977692963521
    X27  R32  0.332354635843
    X27  R39  2149.67788784
    X27  R42  0.0108219194909
    X27  R121  0.000654392400079
    X27  R122  0.119774012607
    X27  R132  2.8151421513
    X28  COST  2.45717412228
    X28  R40  0.00658584297794
    X29  COST  -2.42001485955
    X29  R119  0.00032232270502
    X30  COST  -5.75401453307
    X30  R6  5446.60563466
    X30  R42  0.00716062274492
    X30  R82  0.060377290305
    X30  R124  1.61876347996
    X30  R128  0.00967081792517
    X31  COST  0.434039460698
    X31  R26  51.7834439091
    X31  R41  3.42238552135
    X31  R102  0.000109400263105
    X31  R135  0.00969789521417
    X32  COST  -4.22149712464
    X32  R90  0.00250865537437
    X32  R105  46.6473091307
    X32  R108  47.4975855564
    X33  COST  -1.50945488895
    X33  R1  6.95841531515
    X33  R39  2002.13803083
    X33  R59  5.66240801851
    X33  R119  0.000626947294137
    X34  COST  -2.62353914936
    X34  R40  0.00945199195152
    X34  R47  14.9049822678
    X34  R73  0.0375449341533
    X34  R110  0.0973627587521
    X34  R118  152.384919608
    X34  R119  0.000838590340309
    X35  COST  5.13240214127
    X35  R0  0.00019429969111
    X35  R1  14.2693071879
    X35  R27  4428.54173073
    X35  R137  0.000134164773131
    X36  COST  -3.89431199904
    X36  R25  0.00156899157163
    X36  R29  0.0103954686853
    X36  R31  3850.56825066
    X36  R65  0.000587489599354
    X36  R82  0.0407568490098
    X37  COST  0.722942806937
    X37  R38  124.197541415
    X37  R59  10.013995475
    X37  R65  0.000729246069587
    X37  R113  16.5632401194
    X37  R115  0.000144033900135
    X38  COST  4.54424892337
    X38  R28  0.787408724753
    X38  R50  0.0577791493668
    X38  R89  0.000790180178351
    X38  R90  0.00323424328495
    X38  R100  781.352227757
    X38  R106  290.986248484
    X39  COST  5.64063316229
    X39  R27  2608.53968492
    X39  R30  0.18705083533
    X39  R34  0.0174753069061
    X39  R40  0.00870313068623
    X40  COST  0.0200293489922
    X40  R4  0.0724683353556
    X40  R81  0.00544503572636
    X40  R103  0.00676499424281
    X40  R125  0.000307314050857
    X41  COST  2.1667746741
    X41  R5  21.8897005096
    X41  R77  214.210432454
    X41  R112  0.784113354432
    X42  COST  -2.94151923378
    X42  R2  1811.82669819
    X42  R36  1846.22824523
    X42  R54  0.011550797296
    X42  R92  13.7250383223
    X42  R137  0.000133469247298
    X43  COST  1.5599005918
    X43  R3  0.0105209555414
    X43  R7  0.229090684083
    X43  R58  0.128069342995
    X43  R64  25.9257163014
    X43  R82  0.0598363970514
    X43  R89  0.00113671128863
    X43  R93  0.170721444856
    X43  R122  0.0416634121103
    X43  R127  0.314942345595
    X43  R129  0.026813518361
    X44  COST  1.50467204507
    X44  R2  1502.85718737
    X44  R3  0.00765855887813
    X44  R89  0.00179835331002
    X45  COST  1.13037186
    X45  R35  2.08518664462
    X45  R46  0.702529120735
    X45  R49  202.519471898
    X45  R112  2.11622084905
    X45  R139  2.66044816031
    X46  COST  -0.984649447651
    X46  R45  0.000560506955593
    X46  R48  2004.01614846
    X46  R69  6087.03855774
    X46  R86  1310.05638824
    X46  R90  0.00335170770951
    X46  R93  0.0934269853093
    X46  R118  146.418634829
    X47  COST  -4.43712160538
    X47  R31  3431.62618781
    X47  R37  472.003650103
    X47  R55  0.0453462975119
    X47  R78  0.000220992787908
    X47  R100  551.788651162
    X47  R126  0.00709543821022
    X47  R127  0.257077175434
    X48  COST  0.0901499612631
    X48  R24  309.381961908
    X48  R67  10167.6174844
    X48  R115  0.000179448046041
    X49  COST  -4.28567595294
    X49  R11  302.489475506
    X49  R18  0.000977758861195
    X49  R63  0.000204661499837
    X49  R81  0.00753494696211
    X49  R123  3.35484637213
    X50  COST  -2.30635400515
    X50  R42  0.00819188284389
    X50  R62  0.000382440634849
    X50  R71  0.0577677921784
    X50  R90  0.00395098722275
    X50  R125  8.05251294907e-05
    X51  COST  -3.53461898842
    X51  R69  2764.40760004
    X51  R76  0.000347172359535
    X51  R122  0.0479059497348
    X51  R123  2.10319171913
    X51  R127  0.355110692976
    X51  R128  0.00650858613469
    X52  COST  -4.85438580961
    X52  R32  0.911454673384
    X52  R33  649.916594144
    X52  R58  0.0767228843603
    X52  R98  0.000728122665173
    X52  R104  87.1209777989
    X52  R121  0.000426455988254
    X53  COST  -2.67104679319
    X53  R6  5003.71299523
    X53  R21  1448.93040179
    X53  R30  0.180365727538
    X53  R41  4.04340434146
    X53  R43  1.15535617629
    X53  R61  19.9098204576
    X53  R124  1.61446888408
    X53  R131  109.998074104
    X54  COST  -0.496943628365
    X54  R34  0.0121898627021
    X54  R52  0.000535790046174
    X54  R63  0.000106067093729
    X55  COST  -2.86600009369
    X55  R31  6977.94391359
    X55  R44  0.0135685351559
    X55  R58  0.0575161402862
    X55  R124  0.829411259356
    X55  R126  0.00238798476477
    X56  COST  4.96818315261
    X56  R49  75.589373027
    X56  R50  0.112199475878
    X56  R64  9.37439497773
    X56  R66  98.1720711856
    X56  R135  0.00432976006074
    X56  R138  0.010978165896
    X57  COST  -2.53422114761
    X57  R4  0.0498237857577
    X57  R15  0.0029885896994
    X57  R67  3296.72208079
    X57  R75  2022.52447703
    X57  R87  698.971104015
    X57  R97  0.0340804917742
    X57  R126  0.00544262637874
    X58  COST  -3.89647383758
    X58  R54  0.0170492465565
    X58  R93  0.125456214046
    X58  R98  0.00113459069244
    X58  R138  0.00630852611644
    X59  COST  -1.50106217753
    X59  R14  0.0162789593423
    X59  R33  652.423641638
    X59  R70  2.31017186737
    X59  R90  0.00215679530102
    X59  R106  327.601800228
    X60  COST  -4.99613998769
    X60  R85  0.00871271793133
    X60  R135  0.0140468552434
    X61  COST  5.07386384213
    X61  R9  14.3874664988
    X61  R23  10.9555699175
    X61  R43  0.428825956389
    X61  R48  1861.20508461
    X61  R51  381.666839421
    X61  R88  2420.5825166
    X62  COST  2.24499050382
    X62  R19  12.8217887617
    X62  R26  106.05438764
    X62  R36  3009.79336387
    X62  R90  0.00231415285706
    X62  R127  0.278268632275
    X62  R130  0.0339405028324
    X62  R131  44.7572153274
    X63  COST  -1.29755163989
    X63  R16  6.83854405771
    X63  R21  1442.50563023
    X63  R32  0.408221391657
    X63  R45  0.000246486679518
    X64  COST  5.70343364957
    X64  R7  0.25767141776
    X64  R49  66.5680728511
    X64  R82  0.0205801189907
    X64  R84  2791.27842217
    X65  COST  3.0128206585
    X65  R8  0.00991192297494
    X65  R20  0.0851327729909
    X65  R40  0.0107517220651
    X65  R75  1183.30804063
    X65  R83  661.234764858
    X65  R114  0.000920338771123
    X65  R122  0.101857334681
    X65  R138  0.0119028074082
    X66  COST  5.98204201399
    X66  R6  4310.32868133
    X66  R74  0.155442339842
    X66  R109  228.916951609
    X66  R114  0.00145238719692
    X67  COST  -1.94636950415
    X67  R27  4422.55869401
    X67  R46  1.21052989265
    X67  R57  1048.313051
    X67  R70  1.21205714311
    X67  R94  0.000643151012021
    X67  R102  0.000136920271642
    X68  COST  5.36759122304
    X68  R46  1.51712866739
    X68  R115  0.000306142658768
    X68  R130  0.0360441588002
    X69  COST  -5.10416404014
    X69  R35  3.47735568453
    X69  R49  187.667186947
    X69  R53  10.1209695423
    X69  R96  5.53949842926
    X69  R98  0.0017488804109
    X69  R134  0.00876022643208
    X70  COST  4.16913628476
    X70  R12  0.0827517154221
    X70  R45  0.000471643242966
    X70  R106  373.846039671
    X70  R108  23.3688890467
    X70  R120  398.987418474
    X70  R137  0.000128250026208
    X70  R139  7.1141914143
    X71  COST  -0.480399256583
    X71  R114  0.00209848162796
    X72  COST  0.232425313203
    X72  R30  0.181090432726
    X72  R61  46.2139188032
    X72  R68  0.032034111948
    X72  R78  0.000380100738992
    X73  COST  -1.96336498837
    X73  R11  119.512344691
    X73  R39  2002.17738412
    X73  R54  0.0121840394475
    X73  R74  0.121160343955
    X73  R83  595.704515167
    X74  COST  -0.247652706369
    X74  R34  0.0160763440198
    X74  R39  1974.30524667
    X74  R120  555.772369762
    X75  COST  2.00944830979
    X75  R104  60.630405625
    X76  COST  4.74447828395
    X76  R12  0.179041825214
    X76  R81  0.00444944422716
    X76  R108  49.5889951051
    X77  COST  5.82315467703
    X77  R46  1.50570387367
    X78  COST  5.08007412439
    X78  R78  0.000233660724582
    X78  R93  0.152173586203
    X78  R112  2.13043261955
    X78  R138  0.0133432572621
    X79  COST  1.86792267793
    X79  R4  0.101267900318
    X79  R86  1581.20534641
    X80  COST  -5.14683817626
    X80  R87  407.828402151
    X80  R99  11.4060119701
    X80  R115  0.000171614718554
    X80  R136  3.53331561075
    X80  R139  4.27696580873
    X81  COST  -5.66054469742
    X81  R24  298.329964766
    X81  R31  4844.90908204
    X81  R37  633.734487426
    X81  R67  3160.23020715
    X82  COST  -2.97693362951
    X82  R19  8.03540312652
    X82  R24  225.628380245
    X82  R30  0.192667853097
    X82  R134  0.00715544570588
    X82  R136  4.04246286265
    X83  COST  0.354169272215
    X83  R14  0.034113364759
    X83  R27  2029.98087273
    X83  R65  0.000678523196062
    X83  R75  1032.29122237
    X83  R95  707.204254443
    X83  R134  0.00810736884064
    X83  R139  3.40837496156
    X84  COST  -5.50292031897
    X84  R4  0.0749610345575
    X84  R6  4667.49707074
    X84  R13  0.080905181989
    X84  R55  0.0484769581715
    X84  R101  6690.71558292
    X84  R111  0.0141554407999
    X85  COST  -1.56597523946
    X85  R71  0.0822231249211
    X85  R109  246.381110772
    X85  R122  0.0823505436745
    X86  COST  -1.41612854008
    X86  R10  5.36499837478
    X86  R104  109.289677424
    X86  R128  0.00814515272995
    X86  R130  0.0344832362998
    X86  R138  0.00915518906388
    X87  COST  -0.169627358584
    X87  R79  2.03448770735
    X88  COST  4.13546459128
    X88  R5  23.6434966849
    X88  R11  198.012944952
    X88  R19  7.02350625848
    X88  R37  478.812471783
    X88  R62  0.000624130571083
    X88  R94  0.00043763518092
    X89  COST  5.56473226435
    X89  R53  5.91752839249
    X89  R66  62.0814641607
    X89  R78  0.000350561368615
    X89  R99  10.22832241
    X90  COST  4.0228494319
    X91  COST  -2.0919740816
    X91  R23  10.2813241833
    X91  R64  20.5533686366
    X91  R66  80.6115394974
    X91  R136  2.57137564255
    X92  COST  2.68869908171
    X92  R14  0.0419080989222
    X92  R16  6.25328443642
    X92  R108  16.5218851748
    X92  R124  0.756819422976
    X92  R131  84.6440977236
    X92  R139  5.35809101671
    X93  COST  -4.11875162961
    X93  R3  0.0120696725973
    X93  R18  0.000435323757411
    X93  R39  1745.77592894
    X93  R66  48.5215206978
    X93  R74  0.0824554979304
    X93  R93  0.108999707101
    X94  COST  -3.25265066309
    X94  R23  12.8407144995
    X94  R54  0.0083146586353
    X94  R76  0.0003031286724
    X94  R102  0.000166046376737
    X95  COST  -3.18901695448
    X95  R47  16.3283603982
    X95  R60  108.659369729
    X95  R134  0.00742399743156
    X96  COST  3.28827338185
    X96  R46  0.417208721657
    X96  R80  0.276972857188
    X96  R91  0.000374428778581
    X96  R100  767.349808922
    X96  R129  0.00923580938943
    X97  COST  5.94078076058
    X97  R18  0.000753692418211
    X97  R20  0.182730351445
    X97  R25  0.00194542093577
    X97  R61  11.9845708699
    X97  R128  0.011518360444
    X98  COST  -0.369840218611
    X98  R3  0.012025113632
    X98  R78  0.000226001442527
    X98  R110  0.321680041216
    X99  COST  0.0209677845219
    X99  R10  11.7941405766
    X99  R13  0.134891665834
    X99  R43  1.07657125048
    X99  R63  0.000333852402826
    X99  R85  0.0105016037439
    X99  R122  0.042701610153
    X99  R127  0.604453805752
    X100  COST  -1.28248741632
    X100  R75  1482.72213759
    X100  R77  108.66883925
    X100  R101  5555.90540539
    X100  R135  0.00764339584464
    X101  COST  1.90956738617
    X101  R31  7087.96276119
    X101  R137  0.000189741820682
    X102  COST  0.461996313974
    X102  R28  1.38204993521
    X102  R111  0.0118567947642
    X102  R131  33.9182386186
    X103  COST  5.657344714
    X103  R33  479.978729354
    X103  R44  0.0142402010313
    X103  R99  24.4137451888
    X103  R113  20.193189843
    X104  COST  2.64765303427
    X104  R34  0.0398681647495
    X104  R92  6.84667119928
    X104  R100  333.901677877
    X104  R119  0.000780784479783
    X105  COST  -4.32233487843
    X105  R53  8.02239941487
    X105  R103  0.00650880114685
    X105  R112  1.59251218875
    X105  R119  0.000711669332894
    X105  R125  0.000241103842571
    X105  R131  112.890264748
    X106  COST  4.73255174029
    X106  R45  0.000639102917124
    X106  R139  2.91248408469
    X107  COST  3.95702595566
    X107  R29  0.0173508769514
    X107  R38  140.944829993
    X107  R50  0.0565891795202
    X107  R109  440.613143225
    X107  R136  4.03897595692
    X108  COST  -5.24324539696
    X108  R70  1.7222429381
    X108  R81  0.0089666796882
    X109  COST  4.87068784085
    X109  R52  0.000284920292273
    X109  R109  588.713118647
    X110  COST  5.75145250708
    X110  R53  6.63517237352
    X110  R84  4429.99260369
    X110  R88  1872.10671188
    X110  R96  4.82106588345
    X110  R97  0.0323803115772
    X110  R103  0.014415872182
    X110  R107  0.0956207279833
    X110  R114  0.00116084193658
    X111  COST  3.42975231364
    X111  R9  12.5851713359
    X111  R46  0.569340283943
    X111  R72  0.00762519556969
    X111  R100  575.32732254
    X111  R126  0.00360662156996
    X112  COST  5.33916414964
    X112  R73  0.0672249492143
    X112  R115  0.000195925789358
    X112  R122  0.102717960419
    X112  R123  4.1743066621
    X112  R126  0.00502782662102
    X113  COST  0.0124727544892
    X113  R63  0.000151682437674
    X113  R82  0.0776785768683
    X113  R93  0.161546392351
    X113  R99  24.1327655276
    X114  COST  5.01984512277
    X114  R2  744.499062366
    X114  R19  4.37998191245
    X114  R80  0.305734411675
    X115  COST  4.1350204177
    X115  R40  0.0113146369767
    X115  R73  0.0298872804542
    X115  R77  78.9347771959
    X115  R81  0.00820403627477
    X115  R84  2495.9655217
    X115  R124  0.708226358075
    X115  R132  2.05948008562
    X116  COST  3.46919595138
    X116  R52  0.000283583742642
    X116  R107  0.0505902169429
    X116  R108  14.4576821445
    X117  COST  3.09845565483
    X117  R2  1016.527317
    X117  R26  56.0682873506
    X117  R27  1852.18329
    X118  COST  5.56668946206
    X118  R44  0.00689457574357
    X118  R87  666.379981001
    X118  R137  0.000290199834724
    X119  COST  -1.86623072542
    X119  R56  1190.96098257
    X119  R74  0.0979657578536
    X119  R75  1231.56067007
    X119  R98  0.00170990359421
    X119  R102  8.39530529856e-05
    X119  R132  4.01050541545
    X119  R137  0.00029632072929
    X120  COST  1.3405172617
    X120  R62  0.000469134644864
    X120  R103  0.010884318176
    X120  R105  89.3373734506
    X121  COST  -4.92640406305
    X121  R31  8588.79143956
    X121  R59  9.00721413238
    X121  R64  28.5118234014
    X121  R82  0.0316570177643
    X121  R113  42.0602723228
    X122  COST  4.54830025777
    X122  R71  0.0673020285607
    X122  R83  543.374011087
    X122  R99  22.2702278766
    X123  COST  -0.21644059058
    X123  R19  9.25762553849
    X123  R56  372.687524351
    X123  R120  551.109957779
    X123  R134  0.0140058310694
    X124  COST  4.35979886939
    X124  R14  0.0201745392702
    X124  R45  0.000517252906049
    X125  COST  2.45594573838
    X125  R12  0.0744518394113
    X125  R32  0.360648782968
    X125  R60  180.158634572
    X125  R128  0.0104593282538
    X126  COST  -2.30671339266
    X126  R10  4.35389866124
    X126  R14  0.0431064935675
    X126  R38  40.0272603172
    X126  R69  2741.28045168
    X126  R80  0.215631225598
    X127  COST  5.07791413828
    X127  R21  1081.98238176
    X127  R25  0.000887316402543
    X127  R41  7.80922589222
    X127  R51  641.710729285
    X127  R74  0.0960186486501
    X127  R82  0.071793561635
    X127  R109  285.04288197
    X128  COST  -3.83448861448
    X128  R12  0.0994128900375
    X128  R13  0.138332317024
    X128  R51  246.463032691
    X128  R63  0.000161998126147
    X128  R123  3.11934653983
    X129  COST  -0.622507888855
    X129  R15  0.00541758337486
    X129  R20  0.12404802968
    X129  R66  78.2554115361
    X129  R72  0.00738971812408
    X129  R133  0.000655666525394
    X130  COST  -0.989067503217
    X130  R8  0.00625787404946
    X130  R13  0.118349969129
    X130  R54  0.00697050791064
    X130  R59  14.5063116876
    X131  COST  -0.800899166923
    X131  R8  0.0155279560908
    X131  R114  0.00164796639906
    X131  R125  0.000255217653552
    X132  COST  3.9859049896
    X132  R4  0.0290380201281
    X132  R11  149.169518947
    X132  R78  0.000433719715893
    X132  R93  0.0558267281837
    X132  R132  3.47865912496
    X133  COST  -3.61030532278
    X133  R36  1106.76248877
    X133  R66  58.777207783
    X133  R109  430.999810712
    X133  R112  1.94472789679
    X133  R125  0.000158495694997
    X134  COST  -1.09653847832
    X134  R62  0.000305560938446
    X134  R83  690.623371247
    X134  R113  19.7522090652
    X135  COST  -1.20922229367
    X135  R0  0.000196823574711
    X135  R51  393.782192499
    X135  R79  1.00717163272
    X135  R117  2.44737007174
    X136  COST  3.13635125948
    X136  R38  44.2324162132
    X136  R43  1.1757228172
    X136  R91  0.000390526456288
    X136  R96  2.36623101537
    X136  R117  2.17068294267
    X137  COST  2.88102417681
    X137  R52  0.000433942629233
    X137  R86  1930.959456
    X138  COST  5.95707308798
    X138  R51  341.061173427
    X138  R103  0.0142135369563
    X139  COST  4.41107210051
    X139  R34  0.0230955099764
    X139  R37  206.793910927
    X139  R48  5948.02169173
    X139  R65  0.000769442149823
    X139  R92  10.3320867625
    X140  COST  -2.178666856
    X140  R12  0.21790049797
    X140  R15  0.00206154578574
    X140  R37  529.683477885
    X140  R49  100.999648283
    X140  R58  0.0921106797194
    X140  R61  29.2879826741
    X140  R63  0.000332424226232
    X140  R70  0.653203978487
    X140  R71  0.113628132994
    X140  R90  0.00284981677934
    X140  R115  0.000101404319328
    X141  COST  -1.57428366053
    X141  R21  1739.2348086
    X141  R30  0.0820332263779
    X141  R68  0.020021373585
    X141  R95  335.483694492
    X141  R138  0.0141075628717
    X142  COST  4.21872016022
    X142  R13  0.139729352616
    X142  R15  0.00217832435962
    X142  R40  0.0157001590794
    X143  COST  -1.58349344599
    X143  R16  5.03582773152
    X143  R73  0.0713633959484
    X143  R95  567.360615465
    X143  R137  0.00029531197834
    X144  COST  3.08674324984
    X144  R6  3237.55077423
    X144  R8  0.0187149254714
    X144  R118  141.901218356
    X145  COST  0.968569039216
    X145  R7  0.137591294393
    X145  R11  227.795402742
    X145  R47  15.140643865
    X145  R111  0.00543879388324
    X145  R118  283.099453143
    X146  COST  -5.57590298921
    X146  R37  487.835233916
    X146  R83  787.329188765
    X147  COST  3.17007995073
    X147  R20  0.250808769063
    X147  R36  2252.71695874
    X147  R104  98.7483071623
    X147  R121  0.000573560421768
    X148  COST  3.68714541993
    X148  R5  31.2074373158
    X148  R64  33.0697843706
    X148  R88  3148.39759966
    X148  R108  39.7081785438
    X149  COST  4.00876699787
    X149  R3  0.00994945472585
    X149  R17  0.0941853744833
    X149  R57  792.44940229
    X149  R107  0.0727445454855
    X150  COST  -4.59950043823
    X150  R65  0.00034993833189
    X150  R123  1.89895337061
    X151  COST  4.00016829794
    X152  COST  3.7386566478
    X152  R29  0.018015383991
    X152  R43  0.373744200946
    X153  COST  5.0730862342
    X153  R17  0.215540611351
    X153  R73  0.0700509556565
    X153  R120  627.262423701
    X154  COST  5.0941774686
    X154  R15  0.0034308351761
    X154  R30  0.20919573165
    X154  R57  539.883856411
    X154  R114  0.00270932085095
    X154  R130  0.0429097092122
    X155  COST  4.31822048774
    X155  R17  0.177512500385
    X155  R75  1106.53132014
    X156  COST  4.28873386467
    X156  R34  0.0194479006579
    X156  R38  71.960890079
    X156  R72  0.00513088659945
    X156  R112  1.21954283132
    X156  R119  0.000763993385833
    X156  R128  0.0106217810485
    X156  R132  1.61040898831
    X157  COST  2.5908779188
    X157  R3  0.0115749810701
    X157  R9  15.0079214955
    X157  R13  0.0796176580589
    X157  R52  0.000319255148301
    X157  R68  0.0297657631556
    X157  R101  6909.22277566
    X157  R124  0.903763795714
    X157  R131  58.2836873694
    X158  COST  -5.57552032751
    X158  R35  3.7534284649
    X158  R56  498.176427058
    X158  R75  1188.82377174
    X158  R104  56.0706024777
    X159  COST  3.56816909225
    X159  R36  2363.84268703
    X159  R79  1.97322777085
    X159  R85  0.00385078019805
    X159  R110  0.240583598964
    X160  COST  2.13214901656
    X160  R65  0.000232673031567
    X160  R77  83.037928687
    X160  R129  0.0197396562591
    X161  COST  4.96603747598
    X161  R58  0.0984845794234
    X161  R59  6.3709525096
    X161  R104  80.0964439186
    X161  R119  0.000991103143231
    X161  R131  40.1582617708
    X162  COST  -3.35453930884
    X162  R18  0.000903858254801
    X162  R59  11.8071393662
    X162  R85  0.0129613440012
    X162  R103  0.00765862904354
    X162  R108  44.5151275607
    X162  R117  4.69416255851
    X163  COST  -1.84725421594
    X163  R24  121.217825466
    X163  R77  83.1257813137
    X163  R81  0.00960192083839
    X163  R138  0.00846401023036
    X164  COST  -0.380992664897
    X164  R28  1.1516803452
    X164  R32  0.853799675985
    X164  R41  9.21694119598
    X165  COST  -5.76297795513
    X165  R0  7.09451843109e-05
    X165  R60  156.134494479
    X165  R61  37.2323787619
    X165  R75  2477.72342761
    X166  COST  2.07847060908
    X166  R34  0.0278129072527
    X166  R45  0.000589372761472
    X166  R104  46.3284219856
    X167  COST  0.20953125389
    X167  R9  5.19858338501
    X167  R12  0.172477659785
    X167  R18  0.000271255135375
    X167  R41  3.05593451994
    X167  R81  0.00982342405503
    X167  R89  0.00157046507653
    X167  R126  0.00628565356888
    X168  COST  3.48273623396
    X168  R4  0.0353424819481
    X168  R47  16.1003032847
    X168  R116  0.344917985232
    X169  COST  0.642382628495
    X169  R2  1462.7896299
    X169  R7  0.127958443854
    X169  R11  300.924468342
    X169  R22  0.0014463493017
    X169  R29  0.0160885312916
    X169  R68  0.0167591431823
    X170  COST  5.00575547466
    X170  R6  6550.60023008
    X170  R58  0.130692092798
    X170  R79  1.23659388055
    X170  R113  40.8036569678
    X171  COST  1.39475494357
    X172  COST  -2.57794210968
    X172  R24  162.588446209
    X172  R32  0.997966635512
    X172  R64  29.0069401115
    X172  R97  0.0699461167336
    X173  COST  -5.69554197617
    X173  R33  251.078947491
    X173  R133  0.000571227343496
    X174  COST  1.98981046551
    X174  R10  15.0353226423
    X174  R55  0.0354661474548
    X174  R71  0.042250916528
    X174  R115  0.000184198828315
    X175  COST  -4.35069950157
    X175  R68  0.0247790888838
    X175  R96  2.28335436127
    X175  R135  0.0145164401854
    X176  COST  -4.88091332173
    X176  R33  481.932659973
    X176  R42  0.00741888192571
    X176  R76  0.000130209221277
    X177  COST  0.792549289869
    X177  R2  911.451904478
    X177  R19  6.73113916815
    X177  R101  3069.95588554
    X177  R124  1.69130027379
    X178  COST  5.45602915746
    X178  R0  0.000203527401773
    X178  R42  0.0106057887182
    X178  R59  12.3385274349
    X178  R85  0.0036896520376
    X178  R131  94.3733527802
    X179  COST  -2.33313087421
    X179  R10  6.1100490936
    X179  R16  5.06203707265
RHS
    RHS  R0  0.00191675800363
    RHS  R1  66.1077799028
    RHS  R2  12548.2977488
    RHS  R3  0.113141298651
    RHS  R4  1.37524595572
    RHS  R5  118.046492566
    RHS  R6  76790.8518713
    RHS  R7  2.12335314176
    RHS  R8  0.110912340113
    RHS  R9  103.207608635
    RHS  R10  121.626930603
    RHS  R11  3313.50311785
    RHS  R12  1.38348762614
    RHS  R13  1.69046571095
    RHS  R14  0.243441283999
    RHS  R15  0.0519439132078
    RHS  R16  58.206781611
    RHS  R17  0.990435437315
    RHS  R18  0.007390568347
    RHS  R19  128.336486796
    RHS  R20  1.38705751287
    RHS  R21  14523.9285094
    RHS  R22  0.014702885261
    RHS  R23  65.1560914431
    RHS  R24  3144.69773168
    RHS  R25  0.0266442024592
    RHS  R26  218.175243516
    RHS  R27  40981.5210785
    RHS  R28  7.57960634515
    RHS  R29  0.113911035339
    RHS  R30  3.08390494818
    RHS  R31  81091.1627987
    RHS  R32  5.95477649251
    RHS  R33  3438.26618601
    RHS  R34  0.384388147707
    RHS  R35  16.9618618162
    RHS  R36  23009.6364507
    RHS  R37  8346.58181062
    RHS  R38  779.421912487
    RHS  R39  29612.9952384
    RHS  R40  0.169733403442
    RHS  R41  36.7880462207
    RHS  R42  0.114852564641
    RHS  R43  7.30314181729
    RHS  R44  0.0394862982699
    RHS  R45  0.00568144390804
    RHS  R46  15.3876611373
    RHS  R47  151.295138405
    RHS  R48  40188.8173129
    RHS  R49  1202.91125975
    RHS  R50  0.76371853068
    RHS  R51  4462.23509051
    RHS  R52  0.0046004409614
    RHS  R53  29.0790817426
    RHS  R54  0.147299031966
    RHS  R55  0.256128257996
    RHS  R56  7350.46066663
    RHS  R57  10162.4031197
    RHS  R58  1.69667930764
    RHS  R59  149.44947148
    RHS  R60  1719.91844927
    RHS  R61  358.947113347
    RHS  R62  0.00424682649239
    RHS  R63  0.00279918901502
    RHS  R64  350.895499645
    RHS  R65  0.00835163572447
    RHS  R66  893.711255874
    RHS  R67  34467.3648536
    RHS  R68  0.230837919484
    RHS  R69  35893.3925518
    RHS  R70  13.2955171031
    RHS  R71  0.797922102209
    RHS  R72  0.0552589389597
    RHS  R73  0.85533274809
    RHS  R74  1.57348374834
    RHS  R75  25109.2767687
    RHS  R76  0.00230899384229
    RHS  R77  1113.02327528
    RHS  R78  0.00212942309674
    RHS  R79  17.0004073805
    RHS  R80  1.4118391244
    RHS  R81  0.119903911311
    RHS  R82  1.01329464299
    RHS  R83  7428.7916052
    RHS  R84  34682.1878489
    RHS  R85  0.0939693741216
    RHS  R86  13758.9956902
    RHS  R87  4736.87113212
    RHS  R88  11217.069605
    RHS  R89  0.00962874930315
    RHS  R90  0.038431500033
    RHS  R91  0.00220867260779
    RHS  R92  95.3305740378
    RHS  R93  1.65303040427
    RHS  R94  0.00487244935821
    RHS  R95  3362.54430471
    RHS  R96  29.229621805
    RHS  R97  0.750610861853
    RHS  R98  0.00735101848303
    RHS  R99  138.417798809
    RHS  R100  10260.6847416
    RHS  R101  47664.7084746
    RHS  R102  0.000785363613653
    RHS  R103  0.152396227982
    RHS  R104  942.215896717
    RHS  R105  233.339903621
    RHS  R106  2733.50493846
    RHS  R107  0.440099872721
    RHS  R108  420.130319785
    RHS  R109  7814.75307042
    RHS  R110  1.630920713
    RHS  R111  0.149548089001
    RHS  R112  22.91874401
    RHS  R113  337.311854518
    RHS  R114  0.0221214299921
    RHS  R115  0.0034341404136
    RHS  R116  1.90199987522
    RHS  R117  18.3767354043
    RHS  R118  2361.53654192
    RHS  R119  0.00611332659597
    RHS  R120  7722.11217252
    RHS  R121  0.00439710848601
    RHS  R122  1.19186142542
    RHS  R123  39.8776612415
    RHS  R124  18.1743799777
    RHS  R125  0.0025406611165
    RHS  R126  0.0715738915724
    RHS  R127  4.03465202392
    RHS  R128  0.122158967072
    RHS  R129  0.105179815526
    RHS  R130  0.360387050656
    RHS  R131  1000.96892445
    RHS  R132  30.2827839645
    RHS  R133  0.00488404212402
    RHS  R134  0.127573972589
    RHS  R135  0.0926481333593
    RHS  R136  38.8213652499
    RHS  R137  0.00272002093018
    RHS  R138  0.143086714024
    RHS  R139  93.774451355
RANGES
BOUNDS
 UP BND  X0  4.63988963118
 UP BND  X1  11.4629460564
 UP BND  X2  4.29875522193
 UP BND  X3  7.40582820021
 UP BND  X4  1.92685941357
 UP BND  X5  5.306943511
 UP BND  X6  4.76280339419
 UP BND  X7  1.73038325934
 UP BND  X8  3.88882487332
 UP BND  X9  6.19107915691
 UP BND  X10  6.84721760186
 UP BND  X11  3.60326482904
 UP BND  X12  9.47853745495
 UP BND  X13  2.4235732822
 UP BND  X14  6.98513099454
 UP BND  X15  8.52684129177
 UP BND  X16  10.3409510863
 UP BND  X17  4.89939527091
 UP BND  X18  2.56185193914
 UP BND  X19  6.51604622839
 UP BND  X20  11.6676037144
 UP BND  X21  7.94605408091
 UP BND  X22  2.92368392459
 UP BND  X23  3.73465349198
 UP BND  X24  5.7826288602
 UP BND  X25  2.9765183864
 UP BND  X26  8.45086440611
 UP BND  X27  9.03573246325
 UP BND  X28  9.13361984354
 UP BND  X29  10.5152209848
 UP BND  X30  4.97347153769
 UP BND  X31  5.20096078198
 UP BND  X32  1.68209382656
 UP BND  X33  3.6325402153
 UP BND  X34  1.8977261545
 UP BND  X35  5.86487031786
 UP BND  X36  11.7463542048
 UP BND  X37  6.87094098827
 UP BND  X38  11.9286610911
 UP BND  X39  9.47862117327
 UP BND  X40  11.5770024136
 UP BND  X41  5.11235429536
 UP BND  X42  8.87571275301
 UP BND  X43  6.69183149272
 UP BND  X44  7.20259241459
 UP BND  X45  6.9353286672
 UP BND  X46  6.53035116231
 UP BND  X47  2.1258722407
 UP BND  X48  6.18575215658
 UP BND  X49  5.01480368316
 UP BND  X50  6.80054713005
 UP BND  X51  11.7977083891
 UP BND  X52  3.36499525363
 UP BND  X53  6.97854048103
 UP BND  X54  5.72364018328
 UP BND  X55  1.93202078962
 UP BND  X56  3.63645641511
 UP BND  X57  6.47330580338
 UP BND  X58  7.16161991422
 UP BND  X59  1.52686789086
 UP BND  X60  9.88359730653
 UP BND  X61  2.99110727709
 UP BND  X62  2.77256465023
 UP BND  X63  4.76998716348
 UP BND  X64  10.0180401093
 UP BND  X65  4.73197074325
 UP BND  X66  11.2752891293
 UP BND  X67  7.19355437781
 UP BND  X68  2.37178130834
 UP BND  X69  1.56953116425
 UP BND  X70  6.87412487413
 UP BND  X71  3.13890344654
 UP BND  X72  3.06852957504
 UP BND  X73  9.80346398364
 UP BND  X74  10.3103510842
 UP BND  X75  6.17402528665
 UP BND  X76  5.66618904444
 UP BND  X77  6.28050838503
 UP BND  X78  1.80522021479
 UP BND  X79  9.42469206921
 UP BND  X80  8.41089147113
 UP BND  X81  1.79727820567
 UP BND  X82  8.27036082756
 UP BND  X83  5.25290302283
 UP BND  X84  4.3104172387
 UP BND  X85  6.05151534445
 UP BND  X86  9.13645931804
 UP BND  X87  4.75347308828
 UP BND  X88  10.888671
 UP BND  X89  2.64341332985
 UP BND  X90  5.86583341168
 UP BND  X91  9.63605426687
 UP BND  X92  4.8607273553
 UP BND  X93  3.00899918281
 UP BND  X94  3.95010066147
 UP BND  X95  8.50624243718
 UP BND  X96  6.87692131448
 UP BND  X97  7.13709175331
 UP BND  X98  1.56387888619
 UP BND  X99  2.13242500989
 UP BND  X100  4.85725742627
 UP BND  X101  7.46007197603
 UP BND  X102  5.59253355434
 UP BND  X103  3.40056093697
 UP BND  X104  2.11093888956
 UP BND  X105  3.65276512993
 UP BND  X106  4.0469365235
 UP BND  X107  3.3038698442
 UP BND  X108  7.67351709375
 UP BND  X109  5.72314636324
 UP BND  X110  3.87519953455
 UP BND  X111  10.2205279066
 UP BND  X112  11.7696004838
 UP BND  X113  5.13109411456
 UP BND  X114  4.53533880931
 UP BND  X115  5.99630565554
 UP BND  X116  2.5338808563
 UP BND  X117  3.68593324144
 UP BND  X118  9.38767586265
 UP BND  X119  1.74217655871
 UP BND  X120  5.37897289544
 UP BND  X121  3.61109399465
 UP BND  X122  3.83620073037
 UP BND  X123  10.8508894042
 UP BND  X124  10.0426897656
 UP BND  X125  5.19293913848
 UP BND  X126  5.7727737075
 UP BND  X127  7.0207633824
 UP BND  X128  6.72675731863
 UP BND  X129  5.6559822359
 UP BND  X130  9.32296236182
 UP BND  X131  3.8952439238
 UP BND  X132  5.12391511217
 UP BND  X133  10.5387013996
 UP BND  X134  6.17668574229
 UP BND  X135  9.09814589797
 UP BND  X136  3.42028020261
 UP BND  X137  9.06125042241
 UP BND  X138  7.32776102026
 UP BND  X139  7.14327214136
 UP BND  X140  4.9226081466
 UP BND  X141  7.10122450148
 UP BND  X142  5.38867324558
 UP BND  X143  7.08044705916
 UP BND  X144  5.04400593264
 UP BND  X145  6.93128259419
 UP BND  X146  9.23174542399
 UP BND  X147  7.18804959978
 UP BND  X148  1.51504008642
 UP BND  X149  2.78993985788
 UP BND  X150  4.15135855274
 UP BND  X151  8.07199961726
 UP BND  X152  9.06850481555
 UP BND  X153  9.7692315628
 UP BND  X154  10.3821338862
 UP BND  X155  6.35007004249
 UP BND  X156  8.97450712185
 UP BND  X157  8.31062592573
 UP BND  X158  10.6425691045
 UP BND  X159  6.95519653352
 UP BND  X160  3.67756989177
 UP BND  X161  3.2429651251
 UP BND  X162  5.41935478837
 UP BND  X163  9.44245270545
 UP BND  X164  2.30184848998
 UP BND  X165  8.95469451449
 UP BND  X166  2.01083644138
 UP BND  X167  2.54608859014
 UP BND  X168  11.1017621801
 UP BND  X169  3.68165709307
 UP BND  X170  9.53459743612
 UP BND  X171  11.0823389303
 UP BND  X172  9.1800609232
 UP BND  X173  11.1387730889
 UP BND  X174  10.2295949176
 UP BND  X175  2.46628245758
 UP BND  X176  5.60816785657
 UP BND  X177  5.3469540545
 UP BND  X178  10.7342276717
 UP BND  X179  10.5041878611
ENDATA
