NAME          MIQCARD0
ROWS
 N  COST
 E  BUDGET
 L  CARD
 L  LINK0
 L  LINK1
 L  LINK2
 L  LINK3
 L  LINK4
 L  LINK5
 L  LINK6
 L  LINK7
 L  LINK8
 L  LINK9
 L  LINK10
 L  LINK11
 L  LINK12
 L  LINK13
 L  LINK14
 L  LINK15
 L  LINK16
 L  LINK17
 L  LINK18
 L  LINK19
 L  LINK20
 L  LINK21
 L  LINK22
 L  LINK23
COLUMNS
    W0  COST  -0.0564433137913
    W0  BUDGET  1
    W0  LINK0  1
    W1  COST  -0.0405099148313
    W1  BUDGET  1
    W1  LINK1  1
    W2  COST  -0.055165742012
    W2  BUDGET  1
    W2  LINK2  1
    W3  COST  -0.148690461358
    W3  BUDGET  1
    W3  LINK3  1
    W4  COST  -0.0728117931548
    W4  BUDGET  1
    W4  LINK4  1
    W5  COST  -0.026348656579
    W5  BUDGET  1
    W5  LINK5  1
    W6  COST  -0.0735519203808
    W6  BUDGET  1
    W6  LINK6  1
    W7  COST  -0.0909473806687
    W7  BUDGET  1
    W7  LINK7  1
    W8  COST  0.0111876669164
    W8  BUDGET  1
    W8  LINK8  1
    W9  COST  -0.104004594766
    W9  BUDGET  1
    W9  LINK9  1
    W10  COST  -0.0447698092143
    W10  BUDGET  1
    W10  LINK10  1
    W11  COST  -0.108899966094
    W11  BUDGET  1
    W11  LINK11  1
    W12  COST  -0.0736461445871
    W12  BUDGET  1
    W12  LINK12  1
    W13  COST  -0.106159311477
    W13  BUDGET  1
    W13  LINK13  1
    W14  COST  -0.156463716496
    W14  BUDGET  1
    W14  LINK14  1
    W15  COST  -0.14482678388
    W15  BUDGET  1
    W15  LINK15  1
    W16  COST  -0.0219413425017
    W16  BUDGET  1
    W16  LINK16  1
    W17  COST  -0.111395959969
    W17  BUDGET  1
    W17  LINK17  1
    W18  COST  -0.113424136311
    W18  BUDGET  1
    W18  LINK18  1
    W19  COST  -0.0269164468436
    W19  BUDGET  1
    W19  LINK19  1
    W20  COST  0.0136218058389
    W20  BUDGET  1
    W20  LINK20  1
    W21  COST  -0.0765379244872
    W21  BUDGET  1
    W21  LINK21  1
    W22  COST  -0.0657569831709
    W22  BUDGET  1
    W22  LINK22  1
    W23  COST  -0.185046937391
    W23  BUDGET  1
    W23  LINK23  1
    MARKER0  'MARKER'  'INTORG'
    Y0  CARD  1
    Y0  LINK0  -0.3
    Y1  CARD  1
    Y1  LINK1  -0.3
    Y2  CARD  1
    Y2  LINK2  -0.3
    Y3  CARD  1
    Y3  LINK3  -0.3
    Y4  CARD  1
    Y4  LINK4  -0.3
    Y5  CARD  1
    Y5  LINK5  -0.3
    Y6  CARD  1
    Y6  LINK6  -0.3
    Y7  CARD  1
    Y7  LINK7  -0.3
    Y8  CARD  1
    Y8  LINK8  -0.3
    Y9  CARD  1
    Y9  LINK9  -0.3
    Y10  CARD  1
    Y10  LINK10  -0.3
    Y11  CARD  1
    Y11  LINK11  -0.3
    Y12  CARD  1
    Y12  LINK12  -0.3
    Y13  CARD  1
    Y13  LINK13  -0.3
    Y14  CARD  1
    Y14  LINK14  -0.3
    Y15  CARD  1
    Y15  LINK15  -0.3
    Y16  CARD  1
    Y16  LINK16  -0.3
    Y17  CARD  1
    Y17  LINK17  -0.3
    Y18  CARD  1
    Y18  LINK18  -0.3
    Y19  CARD  1
    Y19  LINK19  -0.3
    Y20  CARD  1
    Y20  LINK20  -0.3
    Y21  CARD  1
    Y21  LINK21  -0.3
    Y22  CARD  1
    Y22  LINK22  -0.3
    Y23  CARD  1
    Y23  LINK23  -0.3
    MARKER1  'MARKER'  'INTEND'
RHS
    RHS  BUDGET  1
    RHS  CARD  5
    RHS  LINK0  0
    RHS  LINK1  0
    RHS  LINK2  0
    RHS  LINK3  0
    RHS  LINK4  0
    RHS  LINK5  0
    RHS  LINK6  0
    RHS  LINK7  0
    RHS  LINK8  0
    RHS  LINK9  0
    RHS  LINK10  0
    RHS  LINK11  0
    RHS  LINK12  0
    RHS  LINK13  0
    RHS  LINK14  0
    RHS  LINK15  0
    RHS  LINK16  0
    RHS  LINK17  0
    RHS  LINK18  0
    RHS  LINK19  0
    RHS  LINK20  0
    RHS  LINK21  0
    RHS  LINK22  0
    RHS  LINK23  0
RANGES
BOUNDS
 UP BND  W0  0.3
 UP BND  W1  0.3
 UP BND  W2  0.3
 UP BND  W3  0.3
 UP BND  W4  0.3
 UP BND  W5  0.3
 UP BND  W6  0.3
 UP BND  W7  0.3
 UP BND  W8  0.3
 UP BND  W9  0.3
 UP BND  W10  0.3
 UP BND  W11  0.3
 UP BND  W12  0.3
 UP BND  W13  0.3
 UP BND  W14  0.3
 UP BND  W15  0.3
 UP BND  W16  0.3
 UP BND  W17  0.3
 UP BND  W18  0.3
 UP BND  W19  0.3
 UP BND  W20  0.3
 UP BND  W21  0.3
 UP BND  W22  0.3
 UP BND  W23  0.3
 UP BND  Y0  1
 UP BND  Y1  1
 UP BND  Y2  1
 UP BND  Y3  1
 UP BND  Y4  1
 UP BND  Y5  1
 UP BND  Y6  1
 UP BND  Y7  1
 UP BND  Y8  1
 UP BND  Y9  1
 UP BND  Y10  1
 UP BND  Y11  1
 UP BND  Y12  1
 UP BND  Y13  1
 UP BND  Y14  1
 UP BND  Y15  1
 UP BND  Y16  1
 UP BND  Y17  1
 UP BND  Y18  1
 UP BND  Y19  1
 UP BND  Y20  1
 UP BND  Y21  1
 UP BND  Y22  1
 UP BND  Y23  1
QUADOBJ
    W0  W0  0.203991794704
    W0  W1  0.00679860220329
    W0  W2  0.0266790779599
    W0  W3  0.0941787138279
    W0  W4  -0.0737408425506
    W0  W5  -0.0330002949893
    W0  W6  0.0324845064026
    W0  W7  -0.0710579667225
    W0  W8  -0.0428728562512
    W0  W9  -0.0695646184224
    W0  W10  0.0936257551064
    W0  W11  -0.070933748362
    W0  W12  -8.9353468242e-05
    W0  W13  -0.0309412443688
    W0  W14  0.0648582235262
    W0  W15  0.0514605799095
    W0  W16  -0.0493403614464
    W0  W17  -0.0161206185156
    W0  W18  -0.0572780481639
    W0  W19  -0.0121462411321
    W0  W20  0.0225809098855
    W0  W21  -0.0902231294315
    W0  W22  0.0586774504807
    W0  W23  0.0712332690705
    W1  W1  0.176325751309
    W1  W2  -0.0458056364194
    W1  W3  -0.0275818650371
    W1  W4  -0.119867290525
    W1  W5  -0.0958642123344
    W1  W6  -0.117854582238
    W1  W7  0.043173643651
    W1  W8  -0.0298026926288
    W1  W9  0.0107369696197
    W1  W10  0.0476001580832
    W1  W11  0.0452307912063
    W1  W12  -0.0787536721209
    W1  W13  -0.0496599514724
    W1  W14  0.0870607651946
    W1  W15  0.0866744802833
    W1  W16  -0.0419743708901
    W1  W17  -0.0148919238693
    W1  W18  0.137407954908
    W1  W19  0.0640870037563
    W1  W20  0.052258288334
    W1  W21  -0.0479648256771
    W1  W22  0.0205791306762
    W1  W23  0.033457233811
    W2  W2  0.0835620419645
    W2  W3  0.0351005582989
    W2  W4  0.0276231575091
    W2  W5  0.0345655061201
    W2  W6  0.0723002980772
    W2  W7  -0.0259904060607
    W2  W8  0.0312459548272
    W2  W9  0.00262368133191
    W2  W10  0.0134883797964
    W2  W11  -0.0456432500025
    W2  W12  -0.009184941979
    W2  W13  0.0453400964868
    W2  W14  0.0119372304773
    W2  W15  -0.00736315407012
    W2  W16  0.00525278011774
    W2  W17  0.0147649670964
    W2  W18  -0.027067449302
    W2  W19  -0.00767209527613
    W2  W20  -0.0202708208877
    W2  W21  0.00510025668852
    W2  W22  0.00639762991149
    W2  W23  -0.00809144285738
    W3  W3  0.197456787214
    W3  W4  -0.0296155664691
    W3  W5  0.00970124921358
    W3  W6  0.0702022610364
    W3  W7  -0.0548115836192
    W3  W8  -0.00336168574286
    W3  W9  -0.0316216347294
    W3  W10  0.0524016104091
    W3  W11  -0.0669945580072
    W3  W12  0.0160022505887
    W3  W13  0.020651167639
    W3  W14  0.0383490954938
    W3  W15  0.00372919256531
    W3  W16  -0.0123463081609
    W3  W17  -0.0045124238393
    W3  W18  -0.0612772807502
    W3  W19  0.0115646191752
    W3  W20  -0.0324184101699
    W3  W21  -0.0465768338291
    W3  W22  0.0551482567845
    W3  W23  0.0199911383501
    W4  W4  0.212440971212
    W4  W5  0.0964417795132
    W4  W6  0.0945530049754
    W4  W7  0.00517580886754
    W4  W8  0.0938259092753
    W4  W9  0.0392104989005
    W4  W10  -0.0407812113722
    W4  W11  -0.0157497093739
    W4  W12  0.00983867302237
    W4  W13  0.0774119476375
    W4  W14  -0.0730111943968
    W4  W15  -0.0857244109933
    W4  W16  0.0435629419999
    W4  W17  0.0275138981146
    W4  W18  -0.032602228946
    W4  W19  -0.0703737115077
    W4  W20  -0.0509531298125
    W4  W21  0.0793238063722
    W4  W22  -0.0543267230106
    W4  W23  -0.0527068173573
    W5  W5  0.117162269945
    W5  W6  0.0990873069949
    W5  W7  -0.010710316482
    W5  W8  0.0688568374581
    W5  W9  0.0284730055768
    W5  W10  -0.025932493133
    W5  W11  -0.034271568808
    W5  W12  0.00930400723845
    W5  W13  0.0766303084043
    W5  W14  -0.0364276817787
    W5  W15  -0.0586726538434
    W5  W16  0.0352075969047
    W5  W17  0.0243990137667
    W5  W18  -0.0395271687754
    W5  W19  -0.0281453175939
    W5  W20  -0.0523314322541
    W5  W21  0.051945584318
    W5  W22  -0.0205133900078
    W5  W23  -0.0445136307658
    W6  W6  0.204120665667
    W6  W7  -0.0481071598819
    W6  W8  0.105718241865
    W6  W9  0.0260228449999
    W6  W10  0.0260141547599
    W6  W11  -0.102097181405
    W6  W12  -0.0290340247802
    W6  W13  0.128343385996
    W6  W14  0.0173598459237
    W6  W15  -0.03932278747
    W6  W16  0.023266278507
    W6  W17  0.0397872621003
    W6  W18  -0.0474299372413
    W6  W19  -0.0251597344215
    W6  W20  -0.0676513332847
    W6  W21  0.0316731443854
    W6  W22  0.0046259122622
    W6  W23  -0.0363021466918
    W7  W7  0.110674861273
    W7  W8  0.0187369721736
    W7  W9  0.0375406159395
    W7  W10  -0.0255666180678
    W7  W11  0.0461457087098
    W7  W12  -0.0276674585668
    W7  W13  0.00216605418643
    W7  W14  -0.00500545142093
    W7  W15  -0.000953333353671
    W7  W16  0.00988933957531
    W7  W17  0.00370055930929
    W7  W18  0.0719731855249
    W7  W19  0.0180571068605
    W7  W20  0.00380187560568
    W7  W21  0.0292651486959
    W7  W22  -0.0242149656394
    W7  W23  -0.0229561624271
    W8  W8  0.172350475465
    W8  W9  0.0743896845962
    W8  W10  0.0447863659235
    W8  W11  -0.044395022249
    W8  W12  -0.102960818196
    W8  W13  0.125310679659
    W8  W14  0.037625001936
    W8  W15  -0.0304648140971
    W8  W16  0.0139554562147
    W8  W17  0.0387164517958
    W8  W18  0.0913765982028
    W8  W19  -0.025658919482
    W8  W20  -0.0580556485575
    W8  W21  0.047732329709
    W8  W22  -0.0246132021734
    W8  W23  -0.0432346946485
    W9  W9  0.135044910107
    W9  W10  -0.0153766326252
    W9  W11  0.00609666279254
    W9  W12  -0.0608865918782
    W9  W13  0.0689408236536
    W9  W14  0.0171208464204
    W9  W15  -0.00803479922064
    W9  W16  0.0209372184775
    W9  W17  0.0261036313858
    W9  W18  0.0806376310702
    W9  W19  0.023957520363
    W9  W20  -0.0245750555947
    W9  W21  0.0487218808011
    W9  W22  -0.0237085806445
    W9  W23  -0.0464395876232
    W10  W10  0.197062808381
    W10  W11  -0.0530546687704
    W10  W12  -0.0776781118864
    W10  W13  0.0115816709793
    W10  W14  0.0893660281269
    W10  W15  0.042367155554
    W10  W16  -0.0497989841359
    W10  W17  -0.00456634207238
    W10  W18  0.0553161885308
    W10  W19  -0.0223625929588
    W10  W20  0.00334957461442
    W10  W21  -0.0655925471004
    W10  W22  0.0352083316184
    W10  W23  0.0521190175035
    W11  W11  0.179457924306
    W11  W12  0.0310808819396
    W11  W13  -0.0589751718977
    W11  W14  -0.0448295114941
    W11  W15  -0.0084702171806
    W11  W16  0.00925268522301
    W11  W17  -0.0173038863019
    W11  W18  0.026473182253
    W11  W19  0.0115542411162
    W11  W20  0.0217285889281
    W11  W21  0.0170839049987
    W11  W22  -0.0228199604902
    W11  W23  -0.00756655711032
    W12  W12  0.180990727444
    W12  W13  -0.0773557636685
    W12  W14  -0.114885212304
    W12  W15  -0.0707345203125
    W12  W16  0.0286520153468
    W12  W17  -0.0350831163115
    W12  W18  -0.167006480784
    W12  W19  -0.018667163564
    W12  W20  -0.0220912279914
    W12  W21  -0.00265198797854
    W12  W22  0.0141010807944
    W12  W23  0.000504463377041
    W13  W13  0.167897570132
    W13  W14  0.037633252538
    W13  W15  -0.0211089410297
    W13  W16  0.0269177528381
    W13  W17  0.0454668172667
    W13  W18  0.0487271440326
    W13  W19  0.0124298007837
    W13  W20  -0.059029655641
    W13  W21  0.0529022797687
    W13  W22  -0.0114045409357
    W13  W23  -0.0570712600576
    W14  W14  0.235307032458
    W14  W15  0.0832659324268
    W14  W16  -0.0400238505093
    W14  W17  0.0141079871703
    W14  W18  0.1045133961
    W14  W19  0.046309160237
    W14  W20  0.0201664010355
    W14  W21  -0.0446960423628
    W14  W22  0.0326832728537
    W14  W23  0.0251415068605
    W15  W15  0.11324656586
    W15  W16  -0.0389616135774
    W15  W17  0.00378575946224
    W15  W18  0.0683345817876
    W15  W19  0.039165460088
    W15  W20  0.0642613767089
    W15  W21  -0.0407581570369
    W15  W22  0.0134442848907
    W15  W23  0.0362905632097
    W16  W16  0.107677505316
    W16  W17  0.00874696557197
    W16  W18  -0.0241106792826
    W16  W19  0.00679585747245
    W16  W20  -0.0292533703257
    W16  W21  0.0404849375316
    W16  W22  -0.0140048676512
    W16  W23  -0.0380188596046
    W17  W17  0.0863171556862
    W17  W18  0.0233827402403
    W17  W19  0.00488045551752
    W17  W20  -0.00511608852836
    W17  W21  0.0245480875426
    W17  W22  -0.0137229952784
    W17  W23  -0.0201886277405
    W18  W18  0.259366966853
    W18  W19  0.043748952719
    W18  W20  0.024913957247
    W18  W21  0.0116948335393
    W18  W22  -0.0218558314765
    W18  W23  -0.0109751439133
    W19  W19  0.151651159285
    W19  W20  -0.00202348587399
    W19  W21  -0.00254694379939
    W19  W22  0.0281819871016
    W19  W23  -0.0221598354311
    W20  W20  0.0906985557571
    W20  W21  -0.0229111552943
    W20  W22  -0.0150599470058
    W20  W23  0.0381677559848
    W21  W21  0.188368498101
    W21  W22  -0.0440707707053
    W21  W23  -0.0567277421982
    W22  W22  0.144277605235
    W22  W23  0.0197390738865
    W23  W23  0.159262908573
ENDATA
