NAME          MIQLOTS0
ROWS
 N  COST
 E  VOLUME
 L  GROUP0
 L  GROUP1
 L  GROUP2
COLUMNS
    MARKER0  'MARKER'  'INTORG'
    L0  COST  -4335.73133515
    L0  VOLUME  1
    L0  GROUP0  1
    L1  COST  -3359.29410207
    L1  VOLUME  1
    L1  GROUP1  1
    L2  COST  -2562.7968049
    L2  VOLUME  1
    L2  GROUP2  1
    L3  COST  -3637.55545663
    L3  VOLUME  1
    L3  GROUP0  1
    L4  COST  -3592.36829893
    L4  VOLUME  1
    L4  GROUP1  1
    L5  COST  -3346.19826073
    L5  VOLUME  1
    L5  GROUP2  1
    L6  COST  -3753.31662589
    L6  VOLUME  1
    L6  GROUP0  1
    L7  COST  -2912.22531277
    L7  VOLUME  1
    L7  GROUP1  1
    L8  COST  -1478.35507735
    L8  VOLUME  1
    L8  GROUP2  1
    L9  COST  -2862.32837999
    L9  VOLUME  1
    L9  GROUP0  1
    L10  COST  -3403.45983528
    L10  VOLUME  1
    L10  GROUP1  1
    L11  COST  -2745.33498316
    L11  VOLUME  1
    L11  GROUP2  1
    L12  COST  -3130.44169417
    L12  VOLUME  1
    L12  GROUP0  1
    L13  COST  -3065.76196093
    L13  VOLUME  1
    L13  GROUP1  1
    L14  COST  -2703.56390193
    L14  VOLUME  1
    L14  GROUP2  1
    L15  COST  -2563.85120075
    L15  VOLUME  1
    L15  GROUP0  1
    MARKER1  'MARKER'  'INTEND'
RHS
    RHS  VOLUME  28
    RHS  GROUP0  18
    RHS  GROUP1  18
    RHS  GROUP2  18
RANGES
BOUNDS
 UP BND  L0  6
 UP BND  L1  6
 UP BND  L2  6
 UP BND  L3  6
 UP BND  L4  6
 UP BND  L5  6
 UP BND  L6  6
 UP BND  L7  6
 UP BND  L8  6
 UP BND  L9  6
 UP BND  L10  6
 UP BND  L11  6
 UP BND  L12  6
 UP BND  L13  6
 UP BND  L14  6
 UP BND  L15  6
QUADOBJ
    L0  L0  238.935910933
    L0  L1  173.238313103
    L0  L2  128.232929265
    L0  L3  195.731704478
    L0  L4  165.970910589
    L0  L5  169.4695838
    L0  L6  192.847394987
    L0  L7  153.13776279
    L0  L8  81.0579641225
    L0  L9  139.088531427
    L0  L10  165.68368686
    L0  L11  135.425178262
    L0  L12  147.477862771
    L0  L13  154.120913477
    L0  L14  132.57678527
    L0  L15  105.415348611
    L1  L1  156.787130858
    L1  L2  116.120185302
    L1  L3  139.863408254
    L1  L4  114.752711031
    L1  L5  147.727818034
    L1  L6  131.690563387
    L1  L7  126.748656655
    L1  L8  51.9662735407
    L1  L9  110.80873394
    L1  L10  126.235075879
    L1  L11  103.780663891
    L1  L12  131.034142902
    L1  L13  98.7831252453
    L1  L14  97.5378489171
    L1  L15  93.4179586905
    L2  L2  107.70731418
    L2  L3  97.4068619677
    L2  L4  91.4626896851
    L2  L5  110.657640959
    L2  L6  107.118112757
    L2  L7  86.8304232984
    L2  L8  34.754171734
    L2  L9  79.5439682867
    L2  L10  95.2159062635
    L2  L11  73.6497654941
    L2  L12  94.797050777
    L2  L13  73.9790280372
    L2  L14  85.0548781143
    L2  L15  83.6989382814
    L3  L3  166.906196788
    L3  L4  140.920311998
    L3  L5  138.939466835
    L3  L6  156.574210588
    L3  L7  132.951908775
    L3  L8  68.8562367428
    L3  L9  117.803950581
    L3  L10  148.270302023
    L3  L11  115.580484241
    L3  L12  120.742216611
    L3  L13  129.289316514
    L3  L14  113.350766806
    L3  L15  97.4195664973
    L4  L4  191.621912343
    L4  L5  121.624136685
    L4  L6  178.01569329
    L4  L7  91.9256119968
    L4  L8  65.6195723923
    L4  L9  127.913234102
    L4  L10  132.795129208
    L4  L11  120.196093738
    L4  L12  139.743559921
    L4  L13  156.883311974
    L4  L14  109.252032837
    L4  L15  104.847158768
    L5  L5  148.686512096
    L5  L6  134.806974444
    L5  L7  123.870958432
    L5  L8  44.2301770917
    L5  L9  98.6326572168
    L5  L10  124.21733651
    L5  L11  108.277640309
    L5  L12  128.898207361
    L5  L13  106.551634224
    L5  L14  108.732772558
    L5  L15  98.0855615544
    L6  L6  185.340292046
    L6  L7  106.537393849
    L6  L8  69.7803932905
    L6  L9  125.419212811
    L6  L10  134.773227623
    L6  L11  120.876292135
    L6  L12  136.586022713
    L6  L13  155.060664593
    L6  L14  115.614807468
    L6  L15  94.7149426291
    L7  L7  123.153584918
    L7  L8  46.8120069529
    L7  L9  89.3936036185
    L7  L10  126.47796675
    L7  L11  90.9419671399
    L7  L12  97.2284071853
    L7  L13  83.4596876831
    L7  L14  94.7890869536
    L7  L15  92.0312980648
    L8  L8  41.1500532411
    L8  L9  63.8009021716
    L8  L10  62.4117927724
    L8  L11  43.665379752
    L8  L12  48.48001328
    L8  L13  57.2887164825
    L8  L14  33.8221229218
    L8  L15  32.6658257749
    L9  L9  119.335864816
    L9  L10  115.961119618
    L9  L11  87.2343395767
    L9  L12  110.190983342
    L9  L13  102.105107385
    L9  L14  69.4488334418
    L9  L15  80.2011929834
    L10  L10  157.118995884
    L10  L11  103.909288856
    L10  L12  108.339472663
    L10  L13  109.547301566
    L10  L14  112.194300866
    L10  L15  123.452523315
    L11  L11  92.2278773814
    L11  L12  104.241624715
    L11  L13  104.070485485
    L11  L14  86.9116584219
    L11  L15  78.3077903842
    L12  L12  136.543092045
    L12  L13  114.052893949
    L12  L14  86.362341896
    L12  L15  85.0980046235
    L13  L13  137.163785934
    L13  L14  94.8000244643
    L13  L15  75.8404982906
    L14  L14  107.405987168
    L14  L15  98.6223900215
    L15  L15  122.870183687
ENDATA
