NAME          POOL0
ROWS
 N  COST
 L  AV0
 L  AV1
 L  AV2
 L  AV3
 L  AV4
 E  PB0
 E  PB1
 E  PQ0_0
 E  PQ1_0
 L  DM0
 L  DM1
 L  DM2
 L  SP0_0
 L  SP1_0
 L  SP2_0
COLUMNS
    F0_0  COST  7.78995335636
    F0_0  AV0  1
    F0_0  PB0  1
    F0_0  PQ0_0  -3.10329766867
    F0_1  COST  7.78995335636
    F0_1  AV0  1
    F0_1  PB1  1
    F0_1  PQ1_0  -3.10329766867
    F1_0  COST  12.6003125848
    F1_0  AV1  1
    F1_0  PB0  1
    F1_0  PQ0_0  -2.0427630791
    F1_1  COST  12.6003125848
    F1_1  AV1  1
    F1_1  PB1  1
    F1_1  PQ1_0  -2.0427630791
    F2_0  COST  12.7177788052
    F2_0  AV2  1
    F2_0  PB0  1
    F2_0  PQ0_0  -2.13164749371
    F2_1  COST  12.7177788052
    F2_1  AV2  1
    F2_1  PB1  1
    F2_1  PQ1_0  -2.13164749371
    F3_0  COST  11.8713495805
    F3_0  AV3  1
    F3_0  PB0  1
    F3_0  PQ0_0  -2.19660008282
    F3_1  COST  11.8713495805
    F3_1  AV3  1
    F3_1  PB1  1
    F3_1  PQ1_0  -2.19660008282
    F4_0  COST  12.7652419416
    F4_0  AV4  1
    F4_0  PB0  1
    F4_0  PQ0_0  -1.92440792404
    F4_1  COST  12.7652419416
    F4_1  AV4  1
    F4_1  PB1  1
    F4_1  PQ1_0  -1.92440792404
    G0_0  COST  -20.2595232151
    G0_0  PB0  -1
    G0_0  DM0  1
    G0_0  SP0_0  -2.07831684495
    G0_1  COST  -15.4959316173
    G0_1  PB0  -1
    G0_1  DM1  1
    G0_1  SP1_0  -2.07831684495
    G0_2  COST  -22.7548254864
    G0_2  PB0  -1
    G0_2  DM2  1
    G0_2  SP2_0  -2.07831684495
    G1_0  COST  -20.2595232151
    G1_0  PB1  -1
    G1_0  DM0  1
    G1_0  SP0_0  -2.07831684495
    G1_1  COST  -15.4959316173
    G1_1  PB1  -1
    G1_1  DM1  1
    G1_1  SP1_0  -2.07831684495
    G1_2  COST  -22.7548254864
    G1_2  PB1  -1
    G1_2  DM2  1
    G1_2  SP2_0  -2.07831684495
    D4_0  COST  -7.49428127358
    D4_0  AV4  1
    D4_0  DM0  1
    D4_0  SP0_0  -0.1539089209
    D4_1  COST  -2.73068967575
    D4_1  AV4  1
    D4_1  DM1  1
    D4_1  SP1_0  -0.1539089209
    D4_2  COST  -9.98958354486
    D4_2  AV4  1
    D4_2  DM2  1
    D4_2  SP2_0  -0.1539089209
RHS
    RHS  AV0  147.217581548
    RHS  AV1  155.223974446
    RHS  AV2  238.43858649
    RHS  AV3  175.381333498
    RHS  AV4  140.497510849
    RHS  PB0  0
    RHS  PB1  0
    RHS  PQ0_0  0
    RHS  PQ1_0  0
    RHS  DM0  109.354196481
    RHS  DM1  111.376813196
    RHS  DM2  117.389562479
    RHS  SP0_0  0
    RHS  SP1_0  0
    RHS  SP2_0  0
RANGES
    RNG  DM0  71.0802277127
    RNG  DM1  72.3949285772
    RNG  DM2  76.3032156113
BOUNDS
 UP BND  F0_0  147.217581548
 UP BND  F0_1  147.217581548
 UP BND  F1_0  155.223974446
 UP BND  F1_1  155.223974446
 UP BND  F2_0  238.43858649
 UP BND  F2_1  238.43858649
 UP BND  F3_0  175.381333498
 UP BND  F3_1  175.381333498
 UP BND  F4_0  140.497510849
 UP BND  F4_1  140.497510849
 UP BND  G0_0  109.354196481
 UP BND  G0_1  111.376813196
 UP BND  G0_2  117.389562479
 UP BND  G1_0  109.354196481
 UP BND  G1_1  111.376813196
 UP BND  G1_2  117.389562479
 UP BND  D4_0  109.354196481
 UP BND  D4_1  111.376813196
 UP BND  D4_2  117.389562479
 LO BND  P0_0  1.92440792404
 UP BND  P0_0  3.10329766867
 LO BND  P1_0  1.92440792404
 UP BND  P1_0  3.10329766867
QCMATRIX  PQ0_0
    P0_0  G0_0  0.5
    G0_0  P0_0  0.5
    P0_0  G0_1  0.5
    G0_1  P0_0  0.5
    P0_0  G0_2  0.5
    G0_2  P0_0  0.5
QCMATRIX  PQ1_0
    P1_0  G1_0  0.5
    G1_0  P1_0  0.5
    P1_0  G1_1  0.5
    G1_1  P1_0  0.5
    P1_0  G1_2  0.5
    G1_2  P1_0  0.5
QCMATRIX  SP0_0
    P0_0  G0_0  0.5
    G0_0  P0_0  0.5
    P1_0  G1_0  0.5
    G1_0  P1_0  0.5
QCMATRIX  SP1_0
    P0_0  G0_1  0.5
    G0_1  P0_0  0.5
    P1_0  G1_1  0.5
    G1_1  P1_0  0.5
QCMATRIX  SP2_0
    P0_0  G0_2  0.5
    G0_2  P0_0  0.5
    P1_0  G1_2  0.5
    G1_2  P1_0  0.5
ENDATA
