NAME          PROD0
ROWS
 N  COST
 E  BAL0_0
 E  BAL0_1
 E  BAL0_2
 E  BAL0_3
 E  BAL0_4
 E  BAL0_5
 E  BAL0_6
 E  BAL0_7
 E  BAL0_8
 E  BAL0_9
 E  BAL0_10
 E  BAL0_11
 E  BAL0_12
 E  BAL0_13
 E  BAL0_14
 E  BAL0_15
 E  BAL0_16
 E  BAL0_17
 E  BAL0_18
 E  BAL0_19
 E  BAL0_20
 E  BAL0_21
 E  BAL0_22
 E  BAL0_23
 E  BAL0_24
 E  BAL0_25
 E  BAL0_26
 E  BAL0_27
 E  BAL0_28
 E  BAL0_29
 E  BAL0_30
 E  BAL0_31
 E  BAL0_32
 E  BAL0_33
 E  BAL0_34
 E  BAL0_35
 L  DEM0_0
 L  DEM0_1
 L  DEM0_2
 L  DEM0_3
 L  DEM0_4
 L  DEM0_5
 L  DEM0_6
 L  DEM0_7
 L  DEM0_8
 L  DEM0_9
 L  DEM0_10
 L  DEM0_11
 L  DEM0_12
 L  DEM0_13
 L  DEM0_14
 L  DEM0_15
 L  DEM0_16
 L  DEM0_17
 L  DEM0_18
 L  DEM0_19
 L  DEM0_20
 L  DEM0_21
 L  DEM0_22
 L  DEM0_23
 L  DEM0_24
 L  DEM0_25
 L  DEM0_26
 L  DEM0_27
 L  DEM0_28
 L  DEM0_29
 L  DEM0_30
 L  DEM0_31
 L  DEM0_32
 L  DEM0_33
 L  DEM0_34
 L  DEM0_35
 E  BAL1_0
 E  BAL1_1
 E  BAL1_2
 E  BAL1_3
 E  BAL1_4
 E  BAL1_5
 E  BAL1_6
 E  BAL1_7
 E  BAL1_8
 E  BAL1_9
 E  BAL1_10
 E  BAL1_11
 E  BAL1_12
 E  BAL1_13
 E  BAL1_14
 E  BAL1_15
 E  BAL1_16
 E  BAL1_17
 E  BAL1_18
 E  BAL1_19
 E  BAL1_20
 E  BAL1_21
 E  BAL1_22
 E  BAL1_23
 E  BAL1_24
 E  BAL1_25
 E  BAL1_26
 E  BAL1_27
 E  BAL1_28
 E  BAL1_29
 E  BAL1_30
 E  BAL1_31
 E  BAL1_32
 E  BAL1_33
 E  BAL1_34
 E  BAL1_35
 L  DEM1_0
 L  DEM1_1
 L  DEM1_2
 L  DEM1_3
 L  DEM1_4
 L  DEM1_5
 L  DEM1_6
 L  DEM1_7
 L  DEM1_8
 L  DEM1_9
 L  DEM1_10
 L  DEM1_11
 L  DEM1_12
 L  DEM1_13
 L  DEM1_14
 L  DEM1_15
 L  DEM1_16
 L  DEM1_17
 L  DEM1_18
 L  DEM1_19
 L  DEM1_20
 L  DEM1_21
 L  DEM1_22
 L  DEM1_23
 L  DEM1_24
 L  DEM1_25
 L  DEM1_26
 L  DEM1_27
 L  DEM1_28
 L  DEM1_29
 L  DEM1_30
 L  DEM1_31
 L  DEM1_32
 L  DEM1_33
 L  DEM1_34
 L  DEM1_35
 E  BAL2_0
 E  BAL2_1
 E  BAL2_2
 E  BAL2_3
 E  BAL2_4
 E  BAL2_5
 E  BAL2_6
 E  BAL2_7
 E  BAL2_8
 E  BAL2_9
 E  BAL2_10
 E  BAL2_11
 E  BAL2_12
 E  BAL2_13
 E  BAL2_14
 E  BAL2_15
 E  BAL2_16
 E  BAL2_17
 E  BAL2_18
 E  BAL2_19
 E  BAL2_20
 E  BAL2_21
 E  BAL2_22
 E  BAL2_23
 E  BAL2_24
 E  BAL2_25
 E  BAL2_26
 E  BAL2_27
 E  BAL2_28
 E  BAL2_29
 E  BAL2_30
 E  BAL2_31
 E  BAL2_32
 E  BAL2_33
 E  BAL2_34
 E  BAL2_35
 L  DEM2_0
 L  DEM2_1
 L  DEM2_2
 L  DEM2_3
 L  DEM2_4
 L  DEM2_5
 L  DEM2_6
 L  DEM2_7
 L  DEM2_8
 L  DEM2_9
 L  DEM2_10
 L  DEM2_11
 L  DEM2_12
 L  DEM2_13
 L  DEM2_14
 L  DEM2_15
 L  DEM2_16
 L  DEM2_17
 L  DEM2_18
 L  DEM2_19
 L  DEM2_20
 L  DEM2_21
 L  DEM2_22
 L  DEM2_23
 L  DEM2_24
 L  DEM2_25
 L  DEM2_26
 L  DEM2_27
 L  DEM2_28
 L  DEM2_29
 L  DEM2_30
 L  DEM2_31
 L  DEM2_32
 L  DEM2_33
 L  DEM2_34
 L  DEM2_35
 E  BAL3_0
 E  BAL3_1
 E  BAL3_2
 E  BAL3_3
 E  BAL3_4
 E  BAL3_5
 E  BAL3_6
 E  BAL3_7
 E  BAL3_8
 E  BAL3_9
 E  BAL3_10
 E  BAL3_11
 E  BAL3_12
 E  BAL3_13
 E  BAL3_14
 E  BAL3_15
 E  BAL3_16
 E  BAL3_17
 E  BAL3_18
 E  BAL3_19
 E  BAL3_20
 E  BAL3_21
 E  BAL3_22
 E  BAL3_23
 E  BAL3_24
 E  BAL3_25
 E  BAL3_26
 E  BAL3_27
 E  BAL3_28
 E  BAL3_29
 E  BAL3_30
 E  BAL3_31
 E  BAL3_32
 E  BAL3_33
 E  BAL3_34
 E  BAL3_35
 L  DEM3_0
 L  DEM3_1
 L  DEM3_2
 L  DEM3_3
 L  DEM3_4
 L  DEM3_5
 L  DEM3_6
 L  DEM3_7
 L  DEM3_8
 L  DEM3_9
 L  DEM3_10
 L  DEM3_11
 L  DEM3_12
 L  DEM3_13
 L  DEM3_14
 L  DEM3_15
 L  DEM3_16
 L  DEM3_17
 L  DEM3_18
 L  DEM3_19
 L  DEM3_20
 L  DEM3_21
 L  DEM3_22
 L  DEM3_23
 L  DEM3_24
 L  DEM3_25
 L  DEM3_26
 L  DEM3_27
 L  DEM3_28
 L  DEM3_29
 L  DEM3_30
 L  DEM3_31
 L  DEM3_32
 L  DEM3_33
 L  DEM3_34
 L  DEM3_35
 E  BAL4_0
 E  BAL4_1
 E  BAL4_2
 E  BAL4_3
 E  BAL4_4
 E  BAL4_5
 E  BAL4_6
 E  BAL4_7
 E  BAL4_8
 E  BAL4_9
 E  BAL4_10
 E  BAL4_11
 E  BAL4_12
 E  BAL4_13
 E  BAL4_14
 E  BAL4_15
 E  BAL4_16
 E  BAL4_17
 E  BAL4_18
 E  BAL4_19
 E  BAL4_20
 E  BAL4_21
 E  BAL4_22
 E  BAL4_23
 E  BAL4_24
 E  BAL4_25
 E  BAL4_26
 E  BAL4_27
 E  BAL4_28
 E  BAL4_29
 E  BAL4_30
 E  BAL4_31
 E  BAL4_32
 E  BAL4_33
 E  BAL4_34
 E  BAL4_35
 L  DEM4_0
 L  DEM4_1
 L  DEM4_2
 L  DEM4_3
 L  DEM4_4
 L  DEM4_5
 L  DEM4_6
 L  DEM4_7
 L  DEM4_8
 L  DEM4_9
 L  DEM4_10
 L  DEM4_11
 L  DEM4_12
 L  DEM4_13
 L  DEM4_14
 L  DEM4_15
 L  DEM4_16
 L  DEM4_17
 L  DEM4_18
 L  DEM4_19
 L  DEM4_20
 L  DEM4_21
 L  DEM4_22
 L  DEM4_23
 L  DEM4_24
 L  DEM4_25
 L  DEM4_26
 L  DEM4_27
 L  DEM4_28
 L  DEM4_29
 L  DEM4_30
 L  DEM4_31
 L  DEM4_32
 L  DEM4_33
 L  DEM4_34
 L  DEM4_35
 E  BAL5_0
 E  BAL5_1
 E  BAL5_2
 E  BAL5_3
 E  BAL5_4
 E  BAL5_5
 E  BAL5_6
 E  BAL5_7
 E  BAL5_8
 E  BAL5_9
 E  BAL5_10
 E  BAL5_11
 E  BAL5_12
 E  BAL5_13
 E  BAL5_14
 E  BAL5_15
 E  BAL5_16
 E  BAL5_17
 E  BAL5_18
 E  BAL5_19
 E  BAL5_20
 E  BAL5_21
 E  BAL5_22
 E  BAL5_23
 E  BAL5_24
 E  BAL5_25
 E  BAL5_26
 E  BAL5_27
 E  BAL5_28
 E  BAL5_29
 E  BAL5_30
 E  BAL5_31
 E  BAL5_32
 E  BAL5_33
 E  BAL5_34
 E  BAL5_35
 L  DEM5_0
 L  DEM5_1
 L  DEM5_2
 L  DEM5_3
 L  DEM5_4
 L  DEM5_5
 L  DEM5_6
 L  DEM5_7
 L  DEM5_8
 L  DEM5_9
 L  DEM5_10
 L  DEM5_11
 L  DEM5_12
 L  DEM5_13
 L  DEM5_14
 L  DEM5_15
 L  DEM5_16
 L  DEM5_17
 L  DEM5_18
 L  DEM5_19
 L  DEM5_20
 L  DEM5_21
 L  DEM5_22
 L  DEM5_23
 L  DEM5_24
 L  DEM5_25
 L  DEM5_26
 L  DEM5_27
 L  DEM5_28
 L  DEM5_29
 L  DEM5_30
 L  DEM5_31
 L  DEM5_32
 L  DEM5_33
 L  DEM5_34
 L  DEM5_35
 E  BAL6_0
 E  BAL6_1
 E  BAL6_2
 E  BAL6_3
 E  BAL6_4
 E  BAL6_5
 E  BAL6_6
 E  BAL6_7
 E  BAL6_8
 E  BAL6_9
 E  BAL6_10
 E  BAL6_11
 E  BAL6_12
 E  BAL6_13
 E  BAL6_14
 E  BAL6_15
 E  BAL6_16
 E  BAL6_17
 E  BAL6_18
 E  BAL6_19
 E  BAL6_20
 E  BAL6_21
 E  BAL6_22
 E  BAL6_23
 E  BAL6_24
 E  BAL6_25
 E  BAL6_26
 E  BAL6_27
 E  BAL6_28
 E  BAL6_29
 E  BAL6_30
 E  BAL6_31
 E  BAL6_32
 E  BAL6_33
 E  BAL6_34
 E  BAL6_35
 L  DEM6_0
 L  DEM6_1
 L  DEM6_2
 L  DEM6_3
 L  DEM6_4
 L  DEM6_5
 L  DEM6_6
 L  DEM6_7
 L  DEM6_8
 L  DEM6_9
 L  DEM6_10
 L  DEM6_11
 L  DEM6_12
 L  DEM6_13
 L  DEM6_14
 L  DEM6_15
 L  DEM6_16
 L  DEM6_17
 L  DEM6_18
 L  DEM6_19
 L  DEM6_20
 L  DEM6_21
 L  DEM6_22
 L  DEM6_23
 L  DEM6_24
 L  DEM6_25
 L  DEM6_26
 L  DEM6_27
 L  DEM6_28
 L  DEM6_29
 L  DEM6_30
 L  DEM6_31
 L  DEM6_32
 L  DEM6_33
 L  DEM6_34
 L  DEM6_35
 E  BAL7_0
 E  BAL7_1
 E  BAL7_2
 E  BAL7_3
 E  BAL7_4
 E  BAL7_5
 E  BAL7_6
 E  BAL7_7
 E  BAL7_8
 E  BAL7_9
 E  BAL7_10
 E  BAL7_11
 E  BAL7_12
 E  BAL7_13
 E  BAL7_14
 E  BAL7_15
 E  BAL7_16
 E  BAL7_17
 E  BAL7_18
 E  BAL7_19
 E  BAL7_20
 E  BAL7_21
 E  BAL7_22
 E  BAL7_23
 E  BAL7_24
 E  BAL7_25
 E  BAL7_26
 E  BAL7_27
 E  BAL7_28
 E  BAL7_29
 E  BAL7_30
 E  BAL7_31
 E  BAL7_32
 E  BAL7_33
 E  BAL7_34
 E  BAL7_35
 L  DEM7_0
 L  DEM7_1
 L  DEM7_2
 L  DEM7_3
 L  DEM7_4
 L  DEM7_5
 L  DEM7_6
 L  DEM7_7
 L  DEM7_8
 L  DEM7_9
 L  DEM7_10
 L  DEM7_11
 L  DEM7_12
 L  DEM7_13
 L  DEM7_14
 L  DEM7_15
 L  DEM7_16
 L  DEM7_17
 L  DEM7_18
 L  DEM7_19
 L  DEM7_20
 L  DEM7_21
 L  DEM7_22
 L  DEM7_23
 L  DEM7_24
 L  DEM7_25
 L  DEM7_26
 L  DEM7_27
 L  DEM7_28
 L  DEM7_29
 L  DEM7_30
 L  DEM7_31
 L  DEM7_32
 L  DEM7_33
 L  DEM7_34
 L  DEM7_35
 E  BAL8_0
 E  BAL8_1
 E  BAL8_2
 E  BAL8_3
 E  BAL8_4
 E  BAL8_5
 E  BAL8_6
 E  BAL8_7
 E  BAL8_8
 E  BAL8_9
 E  BAL8_10
 E  BAL8_11
 E  BAL8_12
 E  BAL8_13
 E  BAL8_14
 E  BAL8_15
 E  BAL8_16
 E  BAL8_17
 E  BAL8_18
 E  BAL8_19
 E  BAL8_20
 E  BAL8_21
 E  BAL8_22
 E  BAL8_23
 E  BAL8_24
 E  BAL8_25
 E  BAL8_26
 E  BAL8_27
 E  BAL8_28
 E  BAL8_29
 E  BAL8_30
 E  BAL8_31
 E  BAL8_32
 E  BAL8_33
 E  BAL8_34
 E  BAL8_35
 L  DEM8_0
 L  DEM8_1
 L  DEM8_2
 L  DEM8_3
 L  DEM8_4
 L  DEM8_5
 L  DEM8_6
 L  DEM8_7
 L  DEM8_8
 L  DEM8_9
 L  DEM8_10
 L  DEM8_11
 L  DEM8_12
 L  DEM8_13
 L  DEM8_14
 L  DEM8_15
 L  DEM8_16
 L  DEM8_17
 L  DEM8_18
 L  DEM8_19
 L  DEM8_20
 L  DEM8_21
 L  DEM8_22
 L  DEM8_23
 L  DEM8_24
 L  DEM8_25
 L  DEM8_26
 L  DEM8_27
 L  DEM8_28
 L  DEM8_29
 L  DEM8_30
 L  DEM8_31
 L  DEM8_32
 L  DEM8_33
 L  DEM8_34
 L  DEM8_35
 E  BAL9_0
 E  BAL9_1
 E  BAL9_2
 E  BAL9_3
 E  BAL9_4
 E  BAL9_5
 E  BAL9_6
 E  BAL9_7
 E  BAL9_8
 E  BAL9_9
 E  BAL9_10
 E  BAL9_11
 E  BAL9_12
 E  BAL9_13
 E  BAL9_14
 E  BAL9_15
 E  BAL9_16
 E  BAL9_17
 E  BAL9_18
 E  BAL9_19
 E  BAL9_20
 E  BAL9_21
 E  BAL9_22
 E  BAL9_23
 E  BAL9_24
 E  BAL9_25
 E  BAL9_26
 E  BAL9_27
 E  BAL9_28
 E  BAL9_29
 E  BAL9_30
 E  BAL9_31
 E  BAL9_32
 E  BAL9_33
 E  BAL9_34
 E  BAL9_35
 L  DEM9_0
 L  DEM9_1
 L  DEM9_2
 L  DEM9_3
 L  DEM9_4
 L  DEM9_5
 L  DEM9_6
 L  DEM9_7
 L  DEM9_8
 L  DEM9_9
 L  DEM9_10
 L  DEM9_11
 L  DEM9_12
 L  DEM9_13
 L  DEM9_14
 L  DEM9_15
 L  DEM9_16
 L  DEM9_17
 L  DEM9_18
 L  DEM9_19
 L  DEM9_20
 L  DEM9_21
 L  DEM9_22
 L  DEM9_23
 L  DEM9_24
 L  DEM9_25
 L  DEM9_26
 L  DEM9_27
 L  DEM9_28
 L  DEM9_29
 L  DEM9_30
 L  DEM9_31
 L  DEM9_32
 L  DEM9_33
 L  DEM9_34
 L  DEM9_35
 E  BAL10_0
 E  BAL10_1
 E  BAL10_2
 E  BAL10_3
 E  BAL10_4
 E  BAL10_5
 E  BAL10_6
 E  BAL10_7
 E  BAL10_8
 E  BAL10_9
 E  BAL10_10
 E  BAL10_11
 E  BAL10_12
 E  BAL10_13
 E  BAL10_14
 E  BAL10_15
 E  BAL10_16
 E  BAL10_17
 E  BAL10_18
 E  BAL10_19
 E  BAL10_20
 E  BAL10_21
 E  BAL10_22
 E  BAL10_23
 E  BAL10_24
 E  BAL10_25
 E  BAL10_26
 E  BAL10_27
 E  BAL10_28
 E  BAL10_29
 E  BAL10_30
 E  BAL10_31
 E  BAL10_32
 E  BAL10_33
 E  BAL10_34
 E  BAL10_35
 L  DEM10_0
 L  DEM10_1
 L  DEM10_2
 L  DEM10_3
 L  DEM10_4
 L  DEM10_5
 L  DEM10_6
 L  DEM10_7
 L  DEM10_8
 L  DEM10_9
 L  DEM10_10
 L  DEM10_11
 L  DEM10_12
 L  DEM10_13
 L  DEM10_14
 L  DEM10_15
 L  DEM10_16
 L  DEM10_17
 L  DEM10_18
 L  DEM10_19
 L  DEM10_20
 L  DEM10_21
 L  DEM10_22
 L  DEM10_23
 L  DEM10_24
 L  DEM10_25
 L  DEM10_26
 L  DEM10_27
 L  DEM10_28
 L  DEM10_29
 L  DEM10_30
 L  DEM10_31
 L  DEM10_32
 L  DEM10_33
 L  DEM10_34
 L  DEM10_35
 E  BAL11_0
 E  BAL11_1
 E  BAL11_2
 E  BAL11_3
 E  BAL11_4
 E  BAL11_5
 E  BAL11_6
 E  BAL11_7
 E  BAL11_8
 E  BAL11_9
 E  BAL11_10
 E  BAL11_11
 E  BAL11_12
 E  BAL11_13
 E  BAL11_14
 E  BAL11_15
 E  BAL11_16
 E  BAL11_17
 E  BAL11_18
 E  BAL11_19
 E  BAL11_20
 E  BAL11_21
 E  BAL11_22
 E  BAL11_23
 E  BAL11_24
 E  BAL11_25
 E  BAL11_26
 E  BAL11_27
 E  BAL11_28
 E  BAL11_29
 E  BAL11_30
 E  BAL11_31
 E  BAL11_32
 E  BAL11_33
 E  BAL11_34
 E  BAL11_35
 L  DEM11_0
 L  DEM11_1
 L  DEM11_2
 L  DEM11_3
 L  DEM11_4
 L  DEM11_5
 L  DEM11_6
 L  DEM11_7
 L  DEM11_8
 L  DEM11_9
 L  DEM11_10
 L  DEM11_11
 L  DEM11_12
 L  DEM11_13
 L  DEM11_14
 L  DEM11_15
 L  DEM11_16
 L  DEM11_17
 L  DEM11_18
 L  DEM11_19
 L  DEM11_20
 L  DEM11_21
 L  DEM11_22
 L  DEM11_23
 L  DEM11_24
 L  DEM11_25
 L  DEM11_26
 L  DEM11_27
 L  DEM11_28
 L  DEM11_29
 L  DEM11_30
 L  DEM11_31
 L  DEM11_32
 L  DEM11_33
 L  DEM11_34
 L  DEM11_35
 E  BAL12_0
 E  BAL12_1
 E  BAL12_2
 E  BAL12_3
 E  BAL12_4
 E  BAL12_5
 E  BAL12_6
 E  BAL12_7
 E  BAL12_8
 E  BAL12_9
 E  BAL12_10
 E  BAL12_11
 E  BAL12_12
 E  BAL12_13
 E  BAL12_14
 E  BAL12_15
 E  BAL12_16
 E  BAL12_17
 E  BAL12_18
 E  BAL12_19
 E  BAL12_20
 E  BAL12_21
 E  BAL12_22
 E  BAL12_23
 E  BAL12_24
 E  BAL12_25
 E  BAL12_26
 E  BAL12_27
 E  BAL12_28
 E  BAL12_29
 E  BAL12_30
 E  BAL12_31
 E  BAL12_32
 E  BAL12_33
 E  BAL12_34
 E  BAL12_35
 L  DEM12_0
 L  DEM12_1
 L  DEM12_2
 L  DEM12_3
 L  DEM12_4
 L  DEM12_5
 L  DEM12_6
 L  DEM12_7
 L  DEM12_8
 L  DEM12_9
 L  DEM12_10
 L  DEM12_11
 L  DEM12_12
 L  DEM12_13
 L  DEM12_14
 L  DEM12_15
 L  DEM12_16
 L  DEM12_17
 L  DEM12_18
 L  DEM12_19
 L  DEM12_20
 L  DEM12_21
 L  DEM12_22
 L  DEM12_23
 L  DEM12_24
 L  DEM12_25
 L  DEM12_26
 L  DEM12_27
 L  DEM12_28
 L  DEM12_29
 L  DEM12_30
 L  DEM12_31
 L  DEM12_32
 L  DEM12_33
 L  DEM12_34
 L  DEM12_35
 E  BAL13_0
 E  BAL13_1
 E  BAL13_2
 E  BAL13_3
 E  BAL13_4
 E  BAL13_5
 E  BAL13_6
 E  BAL13_7
 E  BAL13_8
 E  BAL13_9
 E  BAL13_10
 E  BAL13_11
 E  BAL13_12
 E  BAL13_13
 E  BAL13_14
 E  BAL13_15
 E  BAL13_16
 E  BAL13_17
 E  BAL13_18
 E  BAL13_19
 E  BAL13_20
 E  BAL13_21
 E  BAL13_22
 E  BAL13_23
 E  BAL13_24
 E  BAL13_25
 E  BAL13_26
 E  BAL13_27
 E  BAL13_28
 E  BAL13_29
 E  BAL13_30
 E  BAL13_31
 E  BAL13_32
 E  BAL13_33
 E  BAL13_34
 E  BAL13_35
 L  DEM13_0
 L  DEM13_1
 L  DEM13_2
 L  DEM13_3
 L  DEM13_4
 L  DEM13_5
 L  DEM13_6
 L  DEM13_7
 L  DEM13_8
 L  DEM13_9
 L  DEM13_10
 L  DEM13_11
 L  DEM13_12
 L  DEM13_13
 L  DEM13_14
 L  DEM13_15
 L  DEM13_16
 L  DEM13_17
 L  DEM13_18
 L  DEM13_19
 L  DEM13_20
 L  DEM13_21
 L  DEM13_22
 L  DEM13_23
 L  DEM13_24
 L  DEM13_25
 L  DEM13_26
 L  DEM13_27
 L  DEM13_28
 L  DEM13_29
 L  DEM13_30
 L  DEM13_31
 L  DEM13_32
 L  DEM13_33
 L  DEM13_34
 L  DEM13_35
 E  BAL14_0
 E  BAL14_1
 E  BAL14_2
 E  BAL14_3
 E  BAL14_4
 E  BAL14_5
 E  BAL14_6
 E  BAL14_7
 E  BAL14_8
 E  BAL14_9
 E  BAL14_10
 E  BAL14_11
 E  BAL14_12
 E  BAL14_13
 E  BAL14_14
 E  BAL14_15
 E  BAL14_16
 E  BAL14_17
 E  BAL14_18
 E  BAL14_19
 E  BAL14_20
 E  BAL14_21
 E  BAL14_22
 E  BAL14_23
 E  BAL14_24
 E  BAL14_25
 E  BAL14_26
 E  BAL14_27
 E  BAL14_28
 E  BAL14_29
 E  BAL14_30
 E  BAL14_31
 E  BAL14_32
 E  BAL14_33
 E  BAL14_34
 E  BAL14_35
 L  DEM14_0
 L  DEM14_1
 L  DEM14_2
 L  DEM14_3
 L  DEM14_4
 L  DEM14_5
 L  DEM14_6
 L  DEM14_7
 L  DEM14_8
 L  DEM14_9
 L  DEM14_10
 L  DEM14_11
 L  DEM14_12
 L  DEM14_13
 L  DEM14_14
 L  DEM14_15
 L  DEM14_16
 L  DEM14_17
 L  DEM14_18
 L  DEM14_19
 L  DEM14_20
 L  DEM14_21
 L  DEM14_22
 L  DEM14_23
 L  DEM14_24
 L  DEM14_25
 L  DEM14_26
 L  DEM14_27
 L  DEM14_28
 L  DEM14_29
 L  DEM14_30
 L  DEM14_31
 L  DEM14_32
 L  DEM14_33
 L  DEM14_34
 L  DEM14_35
 E  BAL15_0
 E  BAL15_1
 E  BAL15_2
 E  BAL15_3
 E  BAL15_4
 E  BAL15_5
 E  BAL15_6
 E  BAL15_7
 E  BAL15_8
 E  BAL15_9
 E  BAL15_10
 E  BAL15_11
 E  BAL15_12
 E  BAL15_13
 E  BAL15_14
 E  BAL15_15
 E  BAL15_16
 E  BAL15_17
 E  BAL15_18
 E  BAL15_19
 E  BAL15_20
 E  BAL15_21
 E  BAL15_22
 E  BAL15_23
 E  BAL15_24
 E  BAL15_25
 E  BAL15_26
 E  BAL15_27
 E  BAL15_28
 E  BAL15_29
 E  BAL15_30
 E  BAL15_31
 E  BAL15_32
 E  BAL15_33
 E  BAL15_34
 E  BAL15_35
 L  DEM15_0
 L  DEM15_1
 L  DEM15_2
 L  DEM15_3
 L  DEM15_4
 L  DEM15_5
 L  DEM15_6
 L  DEM15_7
 L  DEM15_8
 L  DEM15_9
 L  DEM15_10
 L  DEM15_11
 L  DEM15_12
 L  DEM15_13
 L  DEM15_14
 L  DEM15_15
 L  DEM15_16
 L  DEM15_17
 L  DEM15_18
 L  DEM15_19
 L  DEM15_20
 L  DEM15_21
 L  DEM15_22
 L  DEM15_23
 L  DEM15_24
 L  DEM15_25
 L  DEM15_26
 L  DEM15_27
 L  DEM15_28
 L  DEM15_29
 L  DEM15_30
 L  DEM15_31
 L  DEM15_32
 L  DEM15_33
 L  DEM15_34
 L  DEM15_35
 E  BAL16_0
 E  BAL16_1
 E  BAL16_2
 E  BAL16_3
 E  BAL16_4
 E  BAL16_5
 E  BAL16_6
 E  BAL16_7
 E  BAL16_8
 E  BAL16_9
 E  BAL16_10
 E  BAL16_11
 E  BAL16_12
 E  BAL16_13
 E  BAL16_14
 E  BAL16_15
 E  BAL16_16
 E  BAL16_17
 E  BAL16_18
 E  BAL16_19
 E  BAL16_20
 E  BAL16_21
 E  BAL16_22
 E  BAL16_23
 E  BAL16_24
 E  BAL16_25
 E  BAL16_26
 E  BAL16_27
 E  BAL16_28
 E  BAL16_29
 E  BAL16_30
 E  BAL16_31
 E  BAL16_32
 E  BAL16_33
 E  BAL16_34
 E  BAL16_35
 L  DEM16_0
 L  DEM16_1
 L  DEM16_2
 L  DEM16_3
 L  DEM16_4
 L  DEM16_5
 L  DEM16_6
 L  DEM16_7
 L  DEM16_8
 L  DEM16_9
 L  DEM16_10
 L  DEM16_11
 L  DEM16_12
 L  DEM16_13
 L  DEM16_14
 L  DEM16_15
 L  DEM16_16
 L  DEM16_17
 L  DEM16_18
 L  DEM16_19
 L  DEM16_20
 L  DEM16_21
 L  DEM16_22
 L  DEM16_23
 L  DEM16_24
 L  DEM16_25
 L  DEM16_26
 L  DEM16_27
 L  DEM16_28
 L  DEM16_29
 L  DEM16_30
 L  DEM16_31
 L  DEM16_32
 L  DEM16_33
 L  DEM16_34
 L  DEM16_35
 E  BAL17_0
 E  BAL17_1
 E  BAL17_2
 E  BAL17_3
 E  BAL17_4
 E  BAL17_5
 E  BAL17_6
 E  BAL17_7
 E  BAL17_8
 E  BAL17_9
 E  BAL17_10
 E  BAL17_11
 E  BAL17_12
 E  BAL17_13
 E  BAL17_14
 E  BAL17_15
 E  BAL17_16
 E  BAL17_17
 E  BAL17_18
 E  BAL17_19
 E  BAL17_20
 E  BAL17_21
 E  BAL17_22
 E  BAL17_23
 E  BAL17_24
 E  BAL17_25
 E  BAL17_26
 E  BAL17_27
 E  BAL17_28
 E  BAL17_29
 E  BAL17_30
 E  BAL17_31
 E  BAL17_32
 E  BAL17_33
 E  BAL17_34
 E  BAL17_35
 L  DEM17_0
 L  DEM17_1
 L  DEM17_2
 L  DEM17_3
 L  DEM17_4
 L  DEM17_5
 L  DEM17_6
 L  DEM17_7
 L  DEM17_8
 L  DEM17_9
 L  DEM17_10
 L  DEM17_11
 L  DEM17_12
 L  DEM17_13
 L  DEM17_14
 L  DEM17_15
 L  DEM17_16
 L  DEM17_17
 L  DEM17_18
 L  DEM17_19
 L  DEM17_20
 L  DEM17_21
 L  DEM17_22
 L  DEM17_23
 L  DEM17_24
 L  DEM17_25
 L  DEM17_26
 L  DEM17_27
 L  DEM17_28
 L  DEM17_29
 L  DEM17_30
 L  DEM17_31
 L  DEM17_32
 L  DEM17_33
 L  DEM17_34
 L  DEM17_35
 E  BAL18_0
 E  BAL18_1
 E  BAL18_2
 E  BAL18_3
 E  BAL18_4
 E  BAL18_5
 E  BAL18_6
 E  BAL18_7
 E  BAL18_8
 E  BAL18_9
 E  BAL18_10
 E  BAL18_11
 E  BAL18_12
 E  BAL18_13
 E  BAL18_14
 E  BAL18_15
 E  BAL18_16
 E  BAL18_17
 E  BAL18_18
 E  BAL18_19
 E  BAL18_20
 E  BAL18_21
 E  BAL18_22
 E  BAL18_23
 E  BAL18_24
 E  BAL18_25
 E  BAL18_26
 E  BAL18_27
 E  BAL18_28
 E  BAL18_29
 E  BAL18_30
 E  BAL18_31
 E  BAL18_32
 E  BAL18_33
 E  BAL18_34
 E  BAL18_35
 L  DEM18_0
 L  DEM18_1
 L  DEM18_2
 L  DEM18_3
 L  DEM18_4
 L  DEM18_5
 L  DEM18_6
 L  DEM18_7
 L  DEM18_8
 L  DEM18_9
 L  DEM18_10
 L  DEM18_11
 L  DEM18_12
 L  DEM18_13
 L  DEM18_14
 L  DEM18_15
 L  DEM18_16
 L  DEM18_17
 L  DEM18_18
 L  DEM18_19
 L  DEM18_20
 L  DEM18_21
 L  DEM18_22
 L  DEM18_23
 L  DEM18_24
 L  DEM18_25
 L  DEM18_26
 L  DEM18_27
 L  DEM18_28
 L  DEM18_29
 L  DEM18_30
 L  DEM18_31
 L  DEM18_32
 L  DEM18_33
 L  DEM18_34
 L  DEM18_35
 E  BAL19_0
 E  BAL19_1
 E  BAL19_2
 E  BAL19_3
 E  BAL19_4
 E  BAL19_5
 E  BAL19_6
 E  BAL19_7
 E  BAL19_8
 E  BAL19_9
 E  BAL19_10
 E  BAL19_11
 E  BAL19_12
 E  BAL19_13
 E  BAL19_14
 E  BAL19_15
 E  BAL19_16
 E  BAL19_17
 E  BAL19_18
 E  BAL19_19
 E  BAL19_20
 E  BAL19_21
 E  BAL19_22
 E  BAL19_23
 E  BAL19_24
 E  BAL19_25
 E  BAL19_26
 E  BAL19_27
 E  BAL19_28
 E  BAL19_29
 E  BAL19_30
 E  BAL19_31
 E  BAL19_32
 E  BAL19_33
 E  BAL19_34
 E  BAL19_35
 L  DEM19_0
 L  DEM19_1
 L  DEM19_2
 L  DEM19_3
 L  DEM19_4
 L  DEM19_5
 L  DEM19_6
 L  DEM19_7
 L  DEM19_8
 L  DEM19_9
 L  DEM19_10
 L  DEM19_11
 L  DEM19_12
 L  DEM19_13
 L  DEM19_14
 L  DEM19_15
 L  DEM19_16
 L  DEM19_17
 L  DEM19_18
 L  DEM19_19
 L  DEM19_20
 L  DEM19_21
 L  DEM19_22
 L  DEM19_23
 L  DEM19_24
 L  DEM19_25
 L  DEM19_26
 L  DEM19_27
 L  DEM19_28
 L  DEM19_29
 L  DEM19_30
 L  DEM19_31
 L  DEM19_32
 L  DEM19_33
 L  DEM19_34
 L  DEM19_35
 E  BAL20_0
 E  BAL20_1
 E  BAL20_2
 E  BAL20_3
 E  BAL20_4
 E  BAL20_5
 E  BAL20_6
 E  BAL20_7
 E  BAL20_8
 E  BAL20_9
 E  BAL20_10
 E  BAL20_11
 E  BAL20_12
 E  BAL20_13
 E  BAL20_14
 E  BAL20_15
 E  BAL20_16
 E  BAL20_17
 E  BAL20_18
 E  BAL20_19
 E  BAL20_20
 E  BAL20_21
 E  BAL20_22
 E  BAL20_23
 E  BAL20_24
 E  BAL20_25
 E  BAL20_26
 E  BAL20_27
 E  BAL20_28
 E  BAL20_29
 E  BAL20_30
 E  BAL20_31
 E  BAL20_32
 E  BAL20_33
 E  BAL20_34
 E  BAL20_35
 L  DEM20_0
 L  DEM20_1
 L  DEM20_2
 L  DEM20_3
 L  DEM20_4
 L  DEM20_5
 L  DEM20_6
 L  DEM20_7
 L  DEM20_8
 L  DEM20_9
 L  DEM20_10
 L  DEM20_11
 L  DEM20_12
 L  DEM20_13
 L  DEM20_14
 L  DEM20_15
 L  DEM20_16
 L  DEM20_17
 L  DEM20_18
 L  DEM20_19
 L  DEM20_20
 L  DEM20_21
 L  DEM20_22
 L  DEM20_23
 L  DEM20_24
 L  DEM20_25
 L  DEM20_26
 L  DEM20_27
 L  DEM20_28
 L  DEM20_29
 L  DEM20_30
 L  DEM20_31
 L  DEM20_32
 L  DEM20_33
 L  DEM20_34
 L  DEM20_35
 E  BAL21_0
 E  BAL21_1
 E  BAL21_2
 E  BAL21_3
 E  BAL21_4
 E  BAL21_5
 E  BAL21_6
 E  BAL21_7
 E  BAL21_8
 E  BAL21_9
 E  BAL21_10
 E  BAL21_11
 E  BAL21_12
 E  BAL21_13
 E  BAL21_14
 E  BAL21_15
 E  BAL21_16
 E  BAL21_17
 E  BAL21_18
 E  BAL21_19
 E  BAL21_20
 E  BAL21_21
 E  BAL21_22
 E  BAL21_23
 E  BAL21_24
 E  BAL21_25
 E  BAL21_26
 E  BAL21_27
 E  BAL21_28
 E  BAL21_29
 E  BAL21_30
 E  BAL21_31
 E  BAL21_32
 E  BAL21_33
 E  BAL21_34
 E  BAL21_35
 L  DEM21_0
 L  DEM21_1
 L  DEM21_2
 L  DEM21_3
 L  DEM21_4
 L  DEM21_5
 L  DEM21_6
 L  DEM21_7
 L  DEM21_8
 L  DEM21_9
 L  DEM21_10
 L  DEM21_11
 L  DEM21_12
 L  DEM21_13
 L  DEM21_14
 L  DEM21_15
 L  DEM21_16
 L  DEM21_17
 L  DEM21_18
 L  DEM21_19
 L  DEM21_20
 L  DEM21_21
 L  DEM21_22
 L  DEM21_23
 L  DEM21_24
 L  DEM21_25
 L  DEM21_26
 L  DEM21_27
 L  DEM21_28
 L  DEM21_29
 L  DEM21_30
 L  DEM21_31
 L  DEM21_32
 L  DEM21_33
 L  DEM21_34
 L  DEM21_35
 E  BAL22_0
 E  BAL22_1
 E  BAL22_2
 E  BAL22_3
 E  BAL22_4
 E  BAL22_5
 E  BAL22_6
 E  BAL22_7
 E  BAL22_8
 E  BAL22_9
 E  BAL22_10
 E  BAL22_11
 E  BAL22_12
 E  BAL22_13
 E  BAL22_14
 E  BAL22_15
 E  BAL22_16
 E  BAL22_17
 E  BAL22_18
 E  BAL22_19
 E  BAL22_20
 E  BAL22_21
 E  BAL22_22
 E  BAL22_23
 E  BAL22_24
 E  BAL22_25
 E  BAL22_26
 E  BAL22_27
 E  BAL22_28
 E  BAL22_29
 E  BAL22_30
 E  BAL22_31
 E  BAL22_32
 E  BAL22_33
 E  BAL22_34
 E  BAL22_35
 L  DEM22_0
 L  DEM22_1
 L  DEM22_2
 L  DEM22_3
 L  DEM22_4
 L  DEM22_5
 L  DEM22_6
 L  DEM22_7
 L  DEM22_8
 L  DEM22_9
 L  DEM22_10
 L  DEM22_11
 L  DEM22_12
 L  DEM22_13
 L  DEM22_14
 L  DEM22_15
 L  DEM22_16
 L  DEM22_17
 L  DEM22_18
 L  DEM22_19
 L  DEM22_20
 L  DEM22_21
 L  DEM22_22
 L  DEM22_23
 L  DEM22_24
 L  DEM22_25
 L  DEM22_26
 L  DEM22_27
 L  DEM22_28
 L  DEM22_29
 L  DEM22_30
 L  DEM22_31
 L  DEM22_32
 L  DEM22_33
 L  DEM22_34
 L  DEM22_35
 E  BAL23_0
 E  BAL23_1
 E  BAL23_2
 E  BAL23_3
 E  BAL23_4
 E  BAL23_5
 E  BAL23_6
 E  BAL23_7
 E  BAL23_8
 E  BAL23_9
 E  BAL23_10
 E  BAL23_11
 E  BAL23_12
 E  BAL23_13
 E  BAL23_14
 E  BAL23_15
 E  BAL23_16
 E  BAL23_17
 E  BAL23_18
 E  BAL23_19
 E  BAL23_20
 E  BAL23_21
 E  BAL23_22
 E  BAL23_23
 E  BAL23_24
 E  BAL23_25
 E  BAL23_26
 E  BAL23_27
 E  BAL23_28
 E  BAL23_29
 E  BAL23_30
 E  BAL23_31
 E  BAL23_32
 E  BAL23_33
 E  BAL23_34
 E  BAL23_35
 L  DEM23_0
 L  DEM23_1
 L  DEM23_2
 L  DEM23_3
 L  DEM23_4
 L  DEM23_5
 L  DEM23_6
 L  DEM23_7
 L  DEM23_8
 L  DEM23_9
 L  DEM23_10
 L  DEM23_11
 L  DEM23_12
 L  DEM23_13
 L  DEM23_14
 L  DEM23_15
 L  DEM23_16
 L  DEM23_17
 L  DEM23_18
 L  DEM23_19
 L  DEM23_20
 L  DEM23_21
 L  DEM23_22
 L  DEM23_23
 L  DEM23_24
 L  DEM23_25
 L  DEM23_26
 L  DEM23_27
 L  DEM23_28
 L  DEM23_29
 L  DEM23_30
 L  DEM23_31
 L  DEM23_32
 L  DEM23_33
 L  DEM23_34
 L  DEM23_35
 E  BAL24_0
 E  BAL24_1
 E  BAL24_2
 E  BAL24_3
 E  BAL24_4
 E  BAL24_5
 E  BAL24_6
 E  BAL24_7
 E  BAL24_8
 E  BAL24_9
 E  BAL24_10
 E  BAL24_11
 E  BAL24_12
 E  BAL24_13
 E  BAL24_14
 E  BAL24_15
 E  BAL24_16
 E  BAL24_17
 E  BAL24_18
 E  BAL24_19
 E  BAL24_20
 E  BAL24_21
 E  BAL24_22
 E  BAL24_23
 E  BAL24_24
 E  BAL24_25
 E  BAL24_26
 E  BAL24_27
 E  BAL24_28
 E  BAL24_29
 E  BAL24_30
 E  BAL24_31
 E  BAL24_32
 E  BAL24_33
 E  BAL24_34
 E  BAL24_35
 L  DEM24_0
 L  DEM24_1
 L  DEM24_2
 L  DEM24_3
 L  DEM24_4
 L  DEM24_5
 L  DEM24_6
 L  DEM24_7
 L  DEM24_8
 L  DEM24_9
 L  DEM24_10
 L  DEM24_11
 L  DEM24_12
 L  DEM24_13
 L  DEM24_14
 L  DEM24_15
 L  DEM24_16
 L  DEM24_17
 L  DEM24_18
 L  DEM24_19
 L  DEM24_20
 L  DEM24_21
 L  DEM24_22
 L  DEM24_23
 L  DEM24_24
 L  DEM24_25
 L  DEM24_26
 L  DEM24_27
 L  DEM24_28
 L  DEM24_29
 L  DEM24_30
 L  DEM24_31
 L  DEM24_32
 L  DEM24_33
 L  DEM24_34
 L  DEM24_35
 E  BAL25_0
 E  BAL25_1
 E  BAL25_2
 E  BAL25_3
 E  BAL25_4
 E  BAL25_5
 E  BAL25_6
 E  BAL25_7
 E  BAL25_8
 E  BAL25_9
 E  BAL25_10
 E  BAL25_11
 E  BAL25_12
 E  BAL25_13
 E  BAL25_14
 E  BAL25_15
 E  BAL25_16
 E  BAL25_17
 E  BAL25_18
 E  BAL25_19
 E  BAL25_20
 E  BAL25_21
 E  BAL25_22
 E  BAL25_23
 E  BAL25_24
 E  BAL25_25
 E  BAL25_26
 E  BAL25_27
 E  BAL25_28
 E  BAL25_29
 E  BAL25_30
 E  BAL25_31
 E  BAL25_32
 E  BAL25_33
 E  BAL25_34
 E  BAL25_35
 L  DEM25_0
 L  DEM25_1
 L  DEM25_2
 L  DEM25_3
 L  DEM25_4
 L  DEM25_5
 L  DEM25_6
 L  DEM25_7
 L  DEM25_8
 L  DEM25_9
 L  DEM25_10
 L  DEM25_11
 L  DEM25_12
 L  DEM25_13
 L  DEM25_14
 L  DEM25_15
 L  DEM25_16
 L  DEM25_17
 L  DEM25_18
 L  DEM25_19
 L  DEM25_20
 L  DEM25_21
 L  DEM25_22
 L  DEM25_23
 L  DEM25_24
 L  DEM25_25
 L  DEM25_26
 L  DEM25_27
 L  DEM25_28
 L  DEM25_29
 L  DEM25_30
 L  DEM25_31
 L  DEM25_32
 L  DEM25_33
 L  DEM25_34
 L  DEM25_35
 E  BAL26_0
 E  BAL26_1
 E  BAL26_2
 E  BAL26_3
 E  BAL26_4
 E  BAL26_5
 E  BAL26_6
 E  BAL26_7
 E  BAL26_8
 E  BAL26_9
 E  BAL26_10
 E  BAL26_11
 E  BAL26_12
 E  BAL26_13
 E  BAL26_14
 E  BAL26_15
 E  BAL26_16
 E  BAL26_17
 E  BAL26_18
 E  BAL26_19
 E  BAL26_20
 E  BAL26_21
 E  BAL26_22
 E  BAL26_23
 E  BAL26_24
 E  BAL26_25
 E  BAL26_26
 E  BAL26_27
 E  BAL26_28
 E  BAL26_29
 E  BAL26_30
 E  BAL26_31
 E  BAL26_32
 E  BAL26_33
 E  BAL26_34
 E  BAL26_35
 L  DEM26_0
 L  DEM26_1
 L  DEM26_2
 L  DEM26_3
 L  DEM26_4
 L  DEM26_5
 L  DEM26_6
 L  DEM26_7
 L  DEM26_8
 L  DEM26_9
 L  DEM26_10
 L  DEM26_11
 L  DEM26_12
 L  DEM26_13
 L  DEM26_14
 L  DEM26_15
 L  DEM26_16
 L  DEM26_17
 L  DEM26_18
 L  DEM26_19
 L  DEM26_20
 L  DEM26_21
 L  DEM26_22
 L  DEM26_23
 L  DEM26_24
 L  DEM26_25
 L  DEM26_26
 L  DEM26_27
 L  DEM26_28
 L  DEM26_29
 L  DEM26_30
 L  DEM26_31
 L  DEM26_32
 L  DEM26_33
 L  DEM26_34
 L  DEM26_35
 E  BAL27_0
 E  BAL27_1
 E  BAL27_2
 E  BAL27_3
 E  BAL27_4
 E  BAL27_5
 E  BAL27_6
 E  BAL27_7
 E  BAL27_8
 E  BAL27_9
 E  BAL27_10
 E  BAL27_11
 E  BAL27_12
 E  BAL27_13
 E  BAL27_14
 E  BAL27_15
 E  BAL27_16
 E  BAL27_17
 E  BAL27_18
 E  BAL27_19
 E  BAL27_20
 E  BAL27_21
 E  BAL27_22
 E  BAL27_23
 E  BAL27_24
 E  BAL27_25
 E  BAL27_26
 E  BAL27_27
 E  BAL27_28
 E  BAL27_29
 E  BAL27_30
 E  BAL27_31
 E  BAL27_32
 E  BAL27_33
 E  BAL27_34
 E  BAL27_35
 L  DEM27_0
 L  DEM27_1
 L  DEM27_2
 L  DEM27_3
 L  DEM27_4
 L  DEM27_5
 L  DEM27_6
 L  DEM27_7
 L  DEM27_8
 L  DEM27_9
 L  DEM27_10
 L  DEM27_11
 L  DEM27_12
 L  DEM27_13
 L  DEM27_14
 L  DEM27_15
 L  DEM27_16
 L  DEM27_17
 L  DEM27_18
 L  DEM27_19
 L  DEM27_20
 L  DEM27_21
 L  DEM27_22
 L  DEM27_23
 L  DEM27_24
 L  DEM27_25
 L  DEM27_26
 L  DEM27_27
 L  DEM27_28
 L  DEM27_29
 L  DEM27_30
 L  DEM27_31
 L  DEM27_32
 L  DEM27_33
 L  DEM27_34
 L  DEM27_35
 E  BAL28_0
 E  BAL28_1
 E  BAL28_2
 E  BAL28_3
 E  BAL28_4
 E  BAL28_5
 E  BAL28_6
 E  BAL28_7
 E  BAL28_8
 E  BAL28_9
 E  BAL28_10
 E  BAL28_11
 E  BAL28_12
 E  BAL28_13
 E  BAL28_14
 E  BAL28_15
 E  BAL28_16
 E  BAL28_17
 E  BAL28_18
 E  BAL28_19
 E  BAL28_20
 E  BAL28_21
 E  BAL28_22
 E  BAL28_23
 E  BAL28_24
 E  BAL28_25
 E  BAL28_26
 E  BAL28_27
 E  BAL28_28
 E  BAL28_29
 E  BAL28_30
 E  BAL28_31
 E  BAL28_32
 E  BAL28_33
 E  BAL28_34
 E  BAL28_35
 L  DEM28_0
 L  DEM28_1
 L  DEM28_2
 L  DEM28_3
 L  DEM28_4
 L  DEM28_5
 L  DEM28_6
 L  DEM28_7
 L  DEM28_8
 L  DEM28_9
 L  DEM28_10
 L  DEM28_11
 L  DEM28_12
 L  DEM28_13
 L  DEM28_14
 L  DEM28_15
 L  DEM28_16
 L  DEM28_17
 L  DEM28_18
 L  DEM28_19
 L  DEM28_20
 L  DEM28_21
 L  DEM28_22
 L  DEM28_23
 L  DEM28_24
 L  DEM28_25
 L  DEM28_26
 L  DEM28_27
 L  DEM28_28
 L  DEM28_29
 L  DEM28_30
 L  DEM28_31
 L  DEM28_32
 L  DEM28_33
 L  DEM28_34
 L  DEM28_35
 E  BAL29_0
 E  BAL29_1
 E  BAL29_2
 E  BAL29_3
 E  BAL29_4
 E  BAL29_5
 E  BAL29_6
 E  BAL29_7
 E  BAL29_8
 E  BAL29_9
 E  BAL29_10
 E  BAL29_11
 E  BAL29_12
 E  BAL29_13
 E  BAL29_14
 E  BAL29_15
 E  BAL29_16
 E  BAL29_17
 E  BAL29_18
 E  BAL29_19
 E  BAL29_20
 E  BAL29_21
 E  BAL29_22
 E  BAL29_23
 E  BAL29_24
 E  BAL29_25
 E  BAL29_26
 E  BAL29_27
 E  BAL29_28
 E  BAL29_29
 E  BAL29_30
 E  BAL29_31
 E  BAL29_32
 E  BAL29_33
 E  BAL29_34
 E  BAL29_35
 L  DEM29_0
 L  DEM29_1
 L  DEM29_2
 L  DEM29_3
 L  DEM29_4
 L  DEM29_5
 L  DEM29_6
 L  DEM29_7
 L  DEM29_8
 L  DEM29_9
 L  DEM29_10
 L  DEM29_11
 L  DEM29_12
 L  DEM29_13
 L  DEM29_14
 L  DEM29_15
 L  DEM29_16
 L  DEM29_17
 L  DEM29_18
 L  DEM29_19
 L  DEM29_20
 L  DEM29_21
 L  DEM29_22
 L  DEM29_23
 L  DEM29_24
 L  DEM29_25
 L  DEM29_26
 L  DEM29_27
 L  DEM29_28
 L  DEM29_29
 L  DEM29_30
 L  DEM29_31
 L  DEM29_32
 L  DEM29_33
 L  DEM29_34
 L  DEM29_35
 L  CAP0
 L  CAP1
 L  CAP2
 L  CAP3
 L  CAP4
 L  CAP5
 L  CAP6
 L  CAP7
 L  CAP8
 L  CAP9
 L  CAP10
 L  CAP11
 L  CAP12
 L  CAP13
 L  CAP14
 L  CAP15
 L  CAP16
 L  CAP17
 L  CAP18
 L  CAP19
 L  CAP20
 L  CAP21
 L  CAP22
 L  CAP23
 L  CAP24
 L  CAP25
 L  CAP26
 L  CAP27
 L  CAP28
 L  CAP29
 L  CAP30
 L  CAP31
 L  CAP32
 L  CAP33
 L  CAP34
 L  CAP35
COLUMNS
    R0_0  COST  8.02632252015
    R0_0  BAL0_0  0.603394514445
    R0_0  BAL4_0  0.52442555598
    R0_0  BAL5_0  0.807088976903
    R0_0  BAL7_0  0.778976632036
    R0_0  BAL10_0  0.503716429788
    R0_0  BAL12_0  0.595619363737
    R0_0  BAL15_0  0.849889750458
    R0_0  BAL17_0  0.794736284657
    R0_0  BAL23_0  0.527723026617
    R0_0  BAL25_0  0.349688955815
    R0_0  BAL26_0  0.545672016206
    R0_0  CAP0  1
    R0_1  COST  8.02632252015
    R0_1  BAL0_1  0.603394514445
    R0_1  BAL4_1  0.52442555598
    R0_1  BAL5_1  0.807088976903
    R0_1  BAL7_1  0.778976632036
    R0_1  BAL10_1  0.503716429788
    R0_1  BAL12_1  0.595619363737
    R0_1  BAL15_1  0.849889750458
    R0_1  BAL17_1  0.794736284657
    R0_1  BAL23_1  0.527723026617
    R0_1  BAL25_1  0.349688955815
    R0_1  BAL26_1  0.545672016206
    R0_1  CAP1  1
    R0_2  COST  8.02632252015
    R0_2  BAL0_2  0.603394514445
    R0_2  BAL4_2  0.52442555598
    R0_2  BAL5_2  0.807088976903
    R0_2  BAL7_2  0.778976632036
    R0_2  BAL10_2  0.503716429788
    R0_2  BAL12_2  0.595619363737
    R0_2  BAL15_2  0.849889750458
    R0_2  BAL17_2  0.794736284657
    R0_2  BAL23_2  0.527723026617
    R0_2  BAL25_2  0.349688955815
    R0_2  BAL26_2  0.545672016206
    R0_2  CAP2  1
    R0_3  COST  8.02632252015
    R0_3  BAL0_3  0.603394514445
    R0_3  BAL4_3  0.52442555598
    R0_3  BAL5_3  0.807088976903
    R0_3  BAL7_3  0.778976632036
    R0_3  BAL10_3  0.503716429788
    R0_3  BAL12_3  0.595619363737
    R0_3  BAL15_3  0.849889750458
    R0_3  BAL17_3  0.794736284657
    R0_3  BAL23_3  0.527723026617
    R0_3  BAL25_3  0.349688955815
    R0_3  BAL26_3  0.545672016206
    R0_3  CAP3  1
    R0_4  COST  8.02632252015
    R0_4  BAL0_4  0.603394514445
    R0_4  BAL4_4  0.52442555598
    R0_4  BAL5_4  0.807088976903
    R0_4  BAL7_4  0.778976632036
    R0_4  BAL10_4  0.503716429788
    R0_4  BAL12_4  0.595619363737
    R0_4  BAL15_4  0.849889750458
    R0_4  BAL17_4  0.794736284657
    R0_4  BAL23_4  0.527723026617
    R0_4  BAL25_4  0.349688955815
    R0_4  BAL26_4  0.545672016206
    R0_4  CAP4  1
    R0_5  COST  8.02632252015
    R0_5  BAL0_5  0.603394514445
    R0_5  BAL4_5  0.52442555598
    R0_5  BAL5_5  0.807088976903
    R0_5  BAL7_5  0.778976632036
    R0_5  BAL10_5  0.503716429788
    R0_5  BAL12_5  0.595619363737
    R0_5  BAL15_5  0.849889750458
    R0_5  BAL17_5  0.794736284657
    R0_5  BAL23_5  0.527723026617
    R0_5  BAL25_5  0.349688955815
    R0_5  BAL26_5  0.545672016206
    R0_5  CAP5  1
    R0_6  COST  8.02632252015
    R0_6  BAL0_6  0.603394514445
    R0_6  BAL4_6  0.52442555598
    R0_6  BAL5_6  0.807088976903
    R0_6  BAL7_6  0.778976632036
    R0_6  BAL10_6  0.503716429788
    R0_6  BAL12_6  0.595619363737
    R0_6  BAL15_6  0.849889750458
    R0_6  BAL17_6  0.794736284657
    R0_6  BAL23_6  0.527723026617
    R0_6  BAL25_6  0.349688955815
    R0_6  BAL26_6  0.545672016206
    R0_6  CAP6  1
    R0_7  COST  8.02632252015
    R0_7  BAL0_7  0.603394514445
    R0_7  BAL4_7  0.52442555598
    R0_7  BAL5_7  0.807088976903
    R0_7  BAL7_7  0.778976632036
    R0_7  BAL10_7  0.503716429788
    R0_7  BAL12_7  0.595619363737
    R0_7  BAL15_7  0.849889750458
    R0_7  BAL17_7  0.794736284657
    R0_7  BAL23_7  0.527723026617
    R0_7  BAL25_7  0.349688955815
    R0_7  BAL26_7  0.545672016206
    R0_7  CAP7  1
    R0_8  COST  8.02632252015
    R0_8  BAL0_8  0.603394514445
    R0_8  BAL4_8  0.52442555598
    R0_8  BAL5_8  0.807088976903
    R0_8  BAL7_8  0.778976632036
    R0_8  BAL10_8  0.503716429788
    R0_8  BAL12_8  0.595619363737
    R0_8  BAL15_8  0.849889750458
    R0_8  BAL17_8  0.794736284657
    R0_8  BAL23_8  0.527723026617
    R0_8  BAL25_8  0.349688955815
    R0_8  BAL26_8  0.545672016206
    R0_8  CAP8  1
    R0_9  COST  8.02632252015
    R0_9  BAL0_9  0.603394514445
    R0_9  BAL4_9  0.52442555598
    R0_9  BAL5_9  0.807088976903
    R0_9  BAL7_9  0.778976632036
    R0_9  BAL10_9  0.503716429788
    R0_9  BAL12_9  0.595619363737
    R0_9  BAL15_9  0.849889750458
    R0_9  BAL17_9  0.794736284657
    R0_9  BAL23_9  0.527723026617
    R0_9  BAL25_9  0.349688955815
    R0_9  BAL26_9  0.545672016206
    R0_9  CAP9  1
    R0_10  COST  8.02632252015
    R0_10  BAL0_10  0.603394514445
    R0_10  BAL4_10  0.52442555598
    R0_10  BAL5_10  0.807088976903
    R0_10  BAL7_10  0.778976632036
    R0_10  BAL10_10  0.503716429788
    R0_10  BAL12_10  0.595619363737
    R0_10  BAL15_10  0.849889750458
    R0_10  BAL17_10  0.794736284657
    R0_10  BAL23_10  0.527723026617
    R0_10  BAL25_10  0.349688955815
    R0_10  BAL26_10  0.545672016206
    R0_10  CAP10  1
    R0_11  COST  8.02632252015
    R0_11  BAL0_11  0.603394514445
    R0_11  BAL4_11  0.52442555598
    R0_11  BAL5_11  0.807088976903
    R0_11  BAL7_11  0.778976632036
    R0_11  BAL10_11  0.503716429788
    R0_11  BAL12_11  0.595619363737
    R0_11  BAL15_11  0.849889750458
    R0_11  BAL17_11  0.794736284657
    R0_11  BAL23_11  0.527723026617
    R0_11  BAL25_11  0.349688955815
    R0_11  BAL26_11  0.545672016206
    R0_11  CAP11  1
    R0_12  COST  8.02632252015
    R0_12  BAL0_12  0.603394514445
    R0_12  BAL4_12  0.52442555598
    R0_12  BAL5_12  0.807088976903
    R0_12  BAL7_12  0.778976632036
    R0_12  BAL10_12  0.503716429788
    R0_12  BAL12_12  0.595619363737
    R0_12  BAL15_12  0.849889750458
    R0_12  BAL17_12  0.794736284657
    R0_12  BAL23_12  0.527723026617
    R0_12  BAL25_12  0.349688955815
    R0_12  BAL26_12  0.545672016206
    R0_12  CAP12  1
    R0_13  COST  8.02632252015
    R0_13  BAL0_13  0.603394514445
    R0_13  BAL4_13  0.52442555598
    R0_13  BAL5_13  0.807088976903
    R0_13  BAL7_13  0.778976632036
    R0_13  BAL10_13  0.503716429788
    R0_13  BAL12_13  0.595619363737
    R0_13  BAL15_13  0.849889750458
    R0_13  BAL17_13  0.794736284657
    R0_13  BAL23_13  0.527723026617
    R0_13  BAL25_13  0.349688955815
    R0_13  BAL26_13  0.545672016206
    R0_13  CAP13  1
    R0_14  COST  8.02632252015
    R0_14  BAL0_14  0.603394514445
    R0_14  BAL4_14  0.52442555598
    R0_14  BAL5_14  0.807088976903
    R0_14  BAL7_14  0.778976632036
    R0_14  BAL10_14  0.503716429788
    R0_14  BAL12_14  0.595619363737
    R0_14  BAL15_14  0.849889750458
    R0_14  BAL17_14  0.794736284657
    R0_14  BAL23_14  0.527723026617
    R0_14  BAL25_14  0.349688955815
    R0_14  BAL26_14  0.545672016206
    R0_14  CAP14  1
    R0_15  COST  8.02632252015
    R0_15  BAL0_15  0.603394514445
    R0_15  BAL4_15  0.52442555598
    R0_15  BAL5_15  0.807088976903
    R0_15  BAL7_15  0.778976632036
    R0_15  BAL10_15  0.503716429788
    R0_15  BAL12_15  0.595619363737
    R0_15  BAL15_15  0.849889750458
    R0_15  BAL17_15  0.794736284657
    R0_15  BAL23_15  0.527723026617
    R0_15  BAL25_15  0.349688955815
    R0_15  BAL26_15  0.545672016206
    R0_15  CAP15  1
    R0_16  COST  8.02632252015
    R0_16  BAL0_16  0.603394514445
    R0_16  BAL4_16  0.52442555598
    R0_16  BAL5_16  0.807088976903
    R0_16  BAL7_16  0.778976632036
    R0_16  BAL10_16  0.503716429788
    R0_16  BAL12_16  0.595619363737
    R0_16  BAL15_16  0.849889750458
    R0_16  BAL17_16  0.794736284657
    R0_16  BAL23_16  0.527723026617
    R0_16  BAL25_16  0.349688955815
    R0_16  BAL26_16  0.545672016206
    R0_16  CAP16  1
    R0_17  COST  8.02632252015
    R0_17  BAL0_17  0.603394514445
    R0_17  BAL4_17  0.52442555598
    R0_17  BAL5_17  0.807088976903
    R0_17  BAL7_17  0.778976632036
    R0_17  BAL10_17  0.503716429788
    R0_17  BAL12_17  0.595619363737
    R0_17  BAL15_17  0.849889750458
    R0_17  BAL17_17  0.794736284657
    R0_17  BAL23_17  0.527723026617
    R0_17  BAL25_17  0.349688955815
    R0_17  BAL26_17  0.545672016206
    R0_17  CAP17  1
    R0_18  COST  8.02632252015
    R0_18  BAL0_18  0.603394514445
    R0_18  BAL4_18  0.52442555598
    R0_18  BAL5_18  0.807088976903
    R0_18  BAL7_18  0.778976632036
    R0_18  BAL10_18  0.503716429788
    R0_18  BAL12_18  0.595619363737
    R0_18  BAL15_18  0.849889750458
    R0_18  BAL17_18  0.794736284657
    R0_18  BAL23_18  0.527723026617
    R0_18  BAL25_18  0.349688955815
    R0_18  BAL26_18  0.545672016206
    R0_18  CAP18  1
    R0_19  COST  8.02632252015
    R0_19  BAL0_19  0.603394514445
    R0_19  BAL4_19  0.52442555598
    R0_19  BAL5_19  0.807088976903
    R0_19  BAL7_19  0.778976632036
    R0_19  BAL10_19  0.503716429788
    R0_19  BAL12_19  0.595619363737
    R0_19  BAL15_19  0.849889750458
    R0_19  BAL17_19  0.794736284657
    R0_19  BAL23_19  0.527723026617
    R0_19  BAL25_19  0.349688955815
    R0_19  BAL26_19  0.545672016206
    R0_19  CAP19  1
    R0_20  COST  8.02632252015
    R0_20  BAL0_20  0.603394514445
    R0_20  BAL4_20  0.52442555598
    R0_20  BAL5_20  0.807088976903
    R0_20  BAL7_20  0.778976632036
    R0_20  BAL10_20  0.503716429788
    R0_20  BAL12_20  0.595619363737
    R0_20  BAL15_20  0.849889750458
    R0_20  BAL17_20  0.794736284657
    R0_20  BAL23_20  0.527723026617
    R0_20  BAL25_20  0.349688955815
    R0_20  BAL26_20  0.545672016206
    R0_20  CAP20  1
    R0_21  COST  8.02632252015
    R0_21  BAL0_21  0.603394514445
    R0_21  BAL4_21  0.52442555598
    R0_21  BAL5_21  0.807088976903
    R0_21  BAL7_21  0.778976632036
    R0_21  BAL10_21  0.503716429788
    R0_21  BAL12_21  0.595619363737
    R0_21  BAL15_21  0.849889750458
    R0_21  BAL17_21  0.794736284657
    R0_21  BAL23_21  0.527723026617
    R0_21  BAL25_21  0.349688955815
    R0_21  BAL26_21  0.545672016206
    R0_21  CAP21  1
    R0_22  COST  8.02632252015
    R0_22  BAL0_22  0.603394514445
    R0_22  BAL4_22  0.52442555598
    R0_22  BAL5_22  0.807088976903
    R0_22  BAL7_22  0.778976632036
    R0_22  BAL10_22  0.503716429788
    R0_22  BAL12_22  0.595619363737
    R0_22  BAL15_22  0.849889750458
    R0_22  BAL17_22  0.794736284657
    R0_22  BAL23_22  0.527723026617
    R0_22  BAL25_22  0.349688955815
    R0_22  BAL26_22  0.545672016206
    R0_22  CAP22  1
    R0_23  COST  8.02632252015
    R0_23  BAL0_23  0.603394514445
    R0_23  BAL4_23  0.52442555598
    R0_23  BAL5_23  0.807088976903
    R0_23  BAL7_23  0.778976632036
    R0_23  BAL10_23  0.503716429788
    R0_23  BAL12_23  0.595619363737
    R0_23  BAL15_23  0.849889750458
    R0_23  BAL17_23  0.794736284657
    R0_23  BAL23_23  0.527723026617
    R0_23  BAL25_23  0.349688955815
    R0_23  BAL26_23  0.545672016206
    R0_23  CAP23  1
    R0_24  COST  8.02632252015
    R0_24  BAL0_24  0.603394514445
    R0_24  BAL4_24  0.52442555598
    R0_24  BAL5_24  0.807088976903
    R0_24  BAL7_24  0.778976632036
    R0_24  BAL10_24  0.503716429788
    R0_24  BAL12_24  0.595619363737
    R0_24  BAL15_24  0.849889750458
    R0_24  BAL17_24  0.794736284657
    R0_24  BAL23_24  0.527723026617
    R0_24  BAL25_24  0.349688955815
    R0_24  BAL26_24  0.545672016206
    R0_24  CAP24  1
    R0_25  COST  8.02632252015
    R0_25  BAL0_25  0.603394514445
    R0_25  BAL4_25  0.52442555598
    R0_25  BAL5_25  0.807088976903
    R0_25  BAL7_25  0.778976632036
    R0_25  BAL10_25  0.503716429788
    R0_25  BAL12_25  0.595619363737
    R0_25  BAL15_25  0.849889750458
    R0_25  BAL17_25  0.794736284657
    R0_25  BAL23_25  0.527723026617
    R0_25  BAL25_25  0.349688955815
    R0_25  BAL26_25  0.545672016206
    R0_25  CAP25  1
    R0_26  COST  8.02632252015
    R0_26  BAL0_26  0.603394514445
    R0_26  BAL4_26  0.52442555598
    R0_26  BAL5_26  0.807088976903
    R0_26  BAL7_26  0.778976632036
    R0_26  BAL10_26  0.503716429788
    R0_26  BAL12_26  0.595619363737
    R0_26  BAL15_26  0.849889750458
    R0_26  BAL17_26  0.794736284657
    R0_26  BAL23_26  0.527723026617
    R0_26  BAL25_26  0.349688955815
    R0_26  BAL26_26  0.545672016206
    R0_26  CAP26  1
    R0_27  COST  8.02632252015
    R0_27  BAL0_27  0.603394514445
    R0_27  BAL4_27  0.52442555598
    R0_27  BAL5_27  0.807088976903
    R0_27  BAL7_27  0.778976632036
    R0_27  BAL10_27  0.503716429788
    R0_27  BAL12_27  0.595619363737
    R0_27  BAL15_27  0.849889750458
    R0_27  BAL17_27  0.794736284657
    R0_27  BAL23_27  0.527723026617
    R0_27  BAL25_27  0.349688955815
    R0_27  BAL26_27  0.545672016206
    R0_27  CAP27  1
    R0_28  COST  8.02632252015
    R0_28  BAL0_28  0.603394514445
    R0_28  BAL4_28  0.52442555598
    R0_28  BAL5_28  0.807088976903
    R0_28  BAL7_28  0.778976632036
    R0_28  BAL10_28  0.503716429788
    R0_28  BAL12_28  0.595619363737
    R0_28  BAL15_28  0.849889750458
    R0_28  BAL17_28  0.794736284657
    R0_28  BAL23_28  0.527723026617
    R0_28  BAL25_28  0.349688955815
    R0_28  BAL26_28  0.545672016206
    R0_28  CAP28  1
    R0_29  COST  8.02632252015
    R0_29  BAL0_29  0.603394514445
    R0_29  BAL4_29  0.52442555598
    R0_29  BAL5_29  0.807088976903
    R0_29  BAL7_29  0.778976632036
    R0_29  BAL10_29  0.503716429788
    R0_29  BAL12_29  0.595619363737
    R0_29  BAL15_29  0.849889750458
    R0_29  BAL17_29  0.794736284657
    R0_29  BAL23_29  0.527723026617
    R0_29  BAL25_29  0.349688955815
    R0_29  BAL26_29  0.545672016206
    R0_29  CAP29  1
    R0_30  COST  8.02632252015
    R0_30  BAL0_30  0.603394514445
    R0_30  BAL4_30  0.52442555598
    R0_30  BAL5_30  0.807088976903
    R0_30  BAL7_30  0.778976632036
    R0_30  BAL10_30  0.503716429788
    R0_30  BAL12_30  0.595619363737
    R0_30  BAL15_30  0.849889750458
    R0_30  BAL17_30  0.794736284657
    R0_30  BAL23_30  0.527723026617
    R0_30  BAL25_30  0.349688955815
    R0_30  BAL26_30  0.545672016206
    R0_30  CAP30  1
    R0_31  COST  8.02632252015
    R0_31  BAL0_31  0.603394514445
    R0_31  BAL4_31  0.52442555598
    R0_31  BAL5_31  0.807088976903
    R0_31  BAL7_31  0.778976632036
    R0_31  BAL10_31  0.503716429788
    R0_31  BAL12_31  0.595619363737
    R0_31  BAL15_31  0.849889750458
    R0_31  BAL17_31  0.794736284657
    R0_31  BAL23_31  0.527723026617
    R0_31  BAL25_31  0.349688955815
    R0_31  BAL26_31  0.545672016206
    R0_31  CAP31  1
    R0_32  COST  8.02632252015
    R0_32  BAL0_32  0.603394514445
    R0_32  BAL4_32  0.52442555598
    R0_32  BAL5_32  0.807088976903
    R0_32  BAL7_32  0.778976632036
    R0_32  BAL10_32  0.503716429788
    R0_32  BAL12_32  0.595619363737
    R0_32  BAL15_32  0.849889750458
    R0_32  BAL17_32  0.794736284657
    R0_32  BAL23_32  0.527723026617
    R0_32  BAL25_32  0.349688955815
    R0_32  BAL26_32  0.545672016206
    R0_32  CAP32  1
    R0_33  COST  8.02632252015
    R0_33  BAL0_33  0.603394514445
    R0_33  BAL4_33  0.52442555598
    R0_33  BAL5_33  0.807088976903
    R0_33  BAL7_33  0.778976632036
    R0_33  BAL10_33  0.503716429788
    R0_33  BAL12_33  0.595619363737
    R0_33  BAL15_33  0.849889750458
    R0_33  BAL17_33  0.794736284657
    R0_33  BAL23_33  0.527723026617
    R0_33  BAL25_33  0.349688955815
    R0_33  BAL26_33  0.545672016206
    R0_33  CAP33  1
    R0_34  COST  8.02632252015
    R0_34  BAL0_34  0.603394514445
    R0_34  BAL4_34  0.52442555598
    R0_34  BAL5_34  0.807088976903
    R0_34  BAL7_34  0.778976632036
    R0_34  BAL10_34  0.503716429788
    R0_34  BAL12_34  0.595619363737
    R0_34  BAL15_34  0.849889750458
    R0_34  BAL17_34  0.794736284657
    R0_34  BAL23_34  0.527723026617
    R0_34  BAL25_34  0.349688955815
    R0_34  BAL26_34  0.545672016206
    R0_34  CAP34  1
    R0_35  COST  8.02632252015
    R0_35  BAL0_35  0.603394514445
    R0_35  BAL4_35  0.52442555598
    R0_35  BAL5_35  0.807088976903
    R0_35  BAL7_35  0.778976632036
    R0_35  BAL10_35  0.503716429788
    R0_35  BAL12_35  0.595619363737
    R0_35  BAL15_35  0.849889750458
    R0_35  BAL17_35  0.794736284657
    R0_35  BAL23_35  0.527723026617
    R0_35  BAL25_35  0.349688955815
    R0_35  BAL26_35  0.545672016206
    R0_35  CAP35  1
    R1_0  COST  8.17575010185
    R1_0  BAL1_0  0.81365148472
    R1_0  BAL3_0  0.63944010558
    R1_0  BAL6_0  0.18747640721
    R1_0  BAL7_0  0.546238836451
    R1_0  BAL11_0  0.223928918446
    R1_0  BAL14_0  0.532016560594
    R1_0  BAL15_0  0.372019945487
    R1_0  BAL18_0  0.23205768951
    R1_0  BAL20_0  0.525024338173
    R1_0  BAL26_0  0.600349311594
    R1_0  BAL27_0  0.905717531814
    R1_0  BAL28_0  0.544972257818
    R1_0  CAP0  1
    R1_1  COST  8.17575010185
    R1_1  BAL1_1  0.81365148472
    R1_1  BAL3_1  0.63944010558
    R1_1  BAL6_1  0.18747640721
    R1_1  BAL7_1  0.546238836451
    R1_1  BAL11_1  0.223928918446
    R1_1  BAL14_1  0.532016560594
    R1_1  BAL15_1  0.372019945487
    R1_1  BAL18_1  0.23205768951
    R1_1  BAL20_1  0.525024338173
    R1_1  BAL26_1  0.600349311594
    R1_1  BAL27_1  0.905717531814
    R1_1  BAL28_1  0.544972257818
    R1_1  CAP1  1
    R1_2  COST  8.17575010185
    R1_2  BAL1_2  0.81365148472
    R1_2  BAL3_2  0.63944010558
    R1_2  BAL6_2  0.18747640721
    R1_2  BAL7_2  0.546238836451
    R1_2  BAL11_2  0.223928918446
    R1_2  BAL14_2  0.532016560594
    R1_2  BAL15_2  0.372019945487
    R1_2  BAL18_2  0.23205768951
    R1_2  BAL20_2  0.525024338173
    R1_2  BAL26_2  0.600349311594
    R1_2  BAL27_2  0.905717531814
    R1_2  BAL28_2  0.544972257818
    R1_2  CAP2  1
    R1_3  COST  8.17575010185
    R1_3  BAL1_3  0.81365148472
    R1_3  BAL3_3  0.63944010558
    R1_3  BAL6_3  0.18747640721
    R1_3  BAL7_3  0.546238836451
    R1_3  BAL11_3  0.223928918446
    R1_3  BAL14_3  0.532016560594
    R1_3  BAL15_3  0.372019945487
    R1_3  BAL18_3  0.23205768951
    R1_3  BAL20_3  0.525024338173
    R1_3  BAL26_3  0.600349311594
    R1_3  BAL27_3  0.905717531814
    R1_3  BAL28_3  0.544972257818
    R1_3  CAP3  1
    R1_4  COST  8.17575010185
    R1_4  BAL1_4  0.81365148472
    R1_4  BAL3_4  0.63944010558
    R1_4  BAL6_4  0.18747640721
    R1_4  BAL7_4  0.546238836451
    R1_4  BAL11_4  0.223928918446
    R1_4  BAL14_4  0.532016560594
    R1_4  BAL15_4  0.372019945487
    R1_4  BAL18_4  0.23205768951
    R1_4  BAL20_4  0.525024338173
    R1_4  BAL26_4  0.600349311594
    R1_4  BAL27_4  0.905717531814
    R1_4  BAL28_4  0.544972257818
    R1_4  CAP4  1
    R1_5  COST  8.17575010185
    R1_5  BAL1_5  0.81365148472
    R1_5  BAL3_5  0.63944010558
    R1_5  BAL6_5  0.18747640721
    R1_5  BAL7_5  0.546238836451
    R1_5  BAL11_5  0.223928918446
    R1_5  BAL14_5  0.532016560594
    R1_5  BAL15_5  0.372019945487
    R1_5  BAL18_5  0.23205768951
    R1_5  BAL20_5  0.525024338173
    R1_5  BAL26_5  0.600349311594
    R1_5  BAL27_5  0.905717531814
    R1_5  BAL28_5  0.544972257818
    R1_5  CAP5  1
    R1_6  COST  8.17575010185
    R1_6  BAL1_6  0.81365148472
    R1_6  BAL3_6  0.63944010558
    R1_6  BAL6_6  0.18747640721
    R1_6  BAL7_6  0.546238836451
    R1_6  BAL11_6  0.223928918446
    R1_6  BAL14_6  0.532016560594
    R1_6  BAL15_6  0.372019945487
    R1_6  BAL18_6  0.23205768951
    R1_6  BAL20_6  0.525024338173
    R1_6  BAL26_6  0.600349311594
    R1_6  BAL27_6  0.905717531814
    R1_6  BAL28_6  0.544972257818
    R1_6  CAP6  1
    R1_7  COST  8.17575010185
    R1_7  BAL1_7  0.81365148472
    R1_7  BAL3_7  0.63944010558
    R1_7  BAL6_7  0.18747640721
    R1_7  BAL7_7  0.546238836451
    R1_7  BAL11_7  0.223928918446
    R1_7  BAL14_7  0.532016560594
    R1_7  BAL15_7  0.372019945487
    R1_7  BAL18_7  0.23205768951
    R1_7  BAL20_7  0.525024338173
    R1_7  BAL26_7  0.600349311594
    R1_7  BAL27_7  0.905717531814
    R1_7  BAL28_7  0.544972257818
    R1_7  CAP7  1
    R1_8  COST  8.17575010185
    R1_8  BAL1_8  0.81365148472
    R1_8  BAL3_8  0.63944010558
    R1_8  BAL6_8  0.18747640721
    R1_8  BAL7_8  0.546238836451
    R1_8  BAL11_8  0.223928918446
    R1_8  BAL14_8  0.532016560594
    R1_8  BAL15_8  0.372019945487
    R1_8  BAL18_8  0.23205768951
    R1_8  BAL20_8  0.525024338173
    R1_8  BAL26_8  0.600349311594
    R1_8  BAL27_8  0.905717531814
    R1_8  BAL28_8  0.544972257818
    R1_8  CAP8  1
    R1_9  COST  8.17575010185
    R1_9  BAL1_9  0.81365148472
    R1_9  BAL3_9  0.63944010558
    R1_9  BAL6_9  0.18747640721
    R1_9  BAL7_9  0.546238836451
    R1_9  BAL11_9  0.223928918446
    R1_9  BAL14_9  0.532016560594
    R1_9  BAL15_9  0.372019945487
    R1_9  BAL18_9  0.23205768951
    R1_9  BAL20_9  0.525024338173
    R1_9  BAL26_9  0.600349311594
    R1_9  BAL27_9  0.905717531814
    R1_9  BAL28_9  0.544972257818
    R1_9  CAP9  1
    R1_10  COST  8.17575010185
    R1_10  BAL1_10  0.81365148472
    R1_10  BAL3_10  0.63944010558
    R1_10  BAL6_10  0.18747640721
    R1_10  BAL7_10  0.546238836451
    R1_10  BAL11_10  0.223928918446
    R1_10  BAL14_10  0.532016560594
    R1_10  BAL15_10  0.372019945487
    R1_10  BAL18_10  0.23205768951
    R1_10  BAL20_10  0.525024338173
    R1_10  BAL26_10  0.600349311594
    R1_10  BAL27_10  0.905717531814
    R1_10  BAL28_10  0.544972257818
    R1_10  CAP10  1
    R1_11  COST  8.17575010185
    R1_11  BAL1_11  0.81365148472
    R1_11  BAL3_11  0.63944010558
    R1_11  BAL6_11  0.18747640721
    R1_11  BAL7_11  0.546238836451
    R1_11  BAL11_11  0.223928918446
    R1_11  BAL14_11  0.532016560594
    R1_11  BAL15_11  0.372019945487
    R1_11  BAL18_11  0.23205768951
    R1_11  BAL20_11  0.525024338173
    R1_11  BAL26_11  0.600349311594
    R1_11  BAL27_11  0.905717531814
    R1_11  BAL28_11  0.544972257818
    R1_11  CAP11  1
    R1_12  COST  8.17575010185
    R1_12  BAL1_12  0.81365148472
    R1_12  BAL3_12  0.63944010558
    R1_12  BAL6_12  0.18747640721
    R1_12  BAL7_12  0.546238836451
    R1_12  BAL11_12  0.223928918446
    R1_12  BAL14_12  0.532016560594
    R1_12  BAL15_12  0.372019945487
    R1_12  BAL18_12  0.23205768951
    R1_12  BAL20_12  0.525024338173
    R1_12  BAL26_12  0.600349311594
    R1_12  BAL27_12  0.905717531814
    R1_12  BAL28_12  0.544972257818
    R1_12  CAP12  1
    R1_13  COST  8.17575010185
    R1_13  BAL1_13  0.81365148472
    R1_13  BAL3_13  0.63944010558
    R1_13  BAL6_13  0.18747640721
    R1_13  BAL7_13  0.546238836451
    R1_13  BAL11_13  0.223928918446
    R1_13  BAL14_13  0.532016560594
    R1_13  BAL15_13  0.372019945487
    R1_13  BAL18_13  0.23205768951
    R1_13  BAL20_13  0.525024338173
    R1_13  BAL26_13  0.600349311594
    R1_13  BAL27_13  0.905717531814
    R1_13  BAL28_13  0.544972257818
    R1_13  CAP13  1
    R1_14  COST  8.17575010185
    R1_14  BAL1_14  0.81365148472
    R1_14  BAL3_14  0.63944010558
    R1_14  BAL6_14  0.18747640721
    R1_14  BAL7_14  0.546238836451
    R1_14  BAL11_14  0.223928918446
    R1_14  BAL14_14  0.532016560594
    R1_14  BAL15_14  0.372019945487
    R1_14  BAL18_14  0.23205768951
    R1_14  BAL20_14  0.525024338173
    R1_14  BAL26_14  0.600349311594
    R1_14  BAL27_14  0.905717531814
    R1_14  BAL28_14  0.544972257818
    R1_14  CAP14  1
    R1_15  COST  8.17575010185
    R1_15  BAL1_15  0.81365148472
    R1_15  BAL3_15  0.63944010558
    R1_15  BAL6_15  0.18747640721
    R1_15  BAL7_15  0.546238836451
    R1_15  BAL11_15  0.223928918446
    R1_15  BAL14_15  0.532016560594
    R1_15  BAL15_15  0.372019945487
    R1_15  BAL18_15  0.23205768951
    R1_15  BAL20_15  0.525024338173
    R1_15  BAL26_15  0.600349311594
    R1_15  BAL27_15  0.905717531814
    R1_15  BAL28_15  0.544972257818
    R1_15  CAP15  1
    R1_16  COST  8.17575010185
    R1_16  BAL1_16  0.81365148472
    R1_16  BAL3_16  0.63944010558
    R1_16  BAL6_16  0.18747640721
    R1_16  BAL7_16  0.546238836451
    R1_16  BAL11_16  0.223928918446
    R1_16  BAL14_16  0.532016560594
    R1_16  BAL15_16  0.372019945487
    R1_16  BAL18_16  0.23205768951
    R1_16  BAL20_16  0.525024338173
    R1_16  BAL26_16  0.600349311594
    R1_16  BAL27_16  0.905717531814
    R1_16  BAL28_16  0.544972257818
    R1_16  CAP16  1
    R1_17  COST  8.17575010185
    R1_17  BAL1_17  0.81365148472
    R1_17  BAL3_17  0.63944010558
    R1_17  BAL6_17  0.18747640721
    R1_17  BAL7_17  0.546238836451
    R1_17  BAL11_17  0.223928918446
    R1_17  BAL14_17  0.532016560594
    R1_17  BAL15_17  0.372019945487
    R1_17  BAL18_17  0.23205768951
    R1_17  BAL20_17  0.525024338173
    R1_17  BAL26_17  0.600349311594
    R1_17  BAL27_17  0.905717531814
    R1_17  BAL28_17  0.544972257818
    R1_17  CAP17  1
    R1_18  COST  8.17575010185
    R1_18  BAL1_18  0.81365148472
    R1_18  BAL3_18  0.63944010558
    R1_18  BAL6_18  0.18747640721
    R1_18  BAL7_18  0.546238836451
    R1_18  BAL11_18  0.223928918446
    R1_18  BAL14_18  0.532016560594
    R1_18  BAL15_18  0.372019945487
    R1_18  BAL18_18  0.23205768951
    R1_18  BAL20_18  0.525024338173
    R1_18  BAL26_18  0.600349311594
    R1_18  BAL27_18  0.905717531814
    R1_18  BAL28_18  0.544972257818
    R1_18  CAP18  1
    R1_19  COST  8.17575010185
    R1_19  BAL1_19  0.81365148472
    R1_19  BAL3_19  0.63944010558
    R1_19  BAL6_19  0.18747640721
    R1_19  BAL7_19  0.546238836451
    R1_19  BAL11_19  0.223928918446
    R1_19  BAL14_19  0.532016560594
    R1_19  BAL15_19  0.372019945487
    R1_19  BAL18_19  0.23205768951
    R1_19  BAL20_19  0.525024338173
    R1_19  BAL26_19  0.600349311594
    R1_19  BAL27_19  0.905717531814
    R1_19  BAL28_19  0.544972257818
    R1_19  CAP19  1
    R1_20  COST  8.17575010185
    R1_20  BAL1_20  0.81365148472
    R1_20  BAL3_20  0.63944010558
    R1_20  BAL6_20  0.18747640721
    R1_20  BAL7_20  0.546238836451
    R1_20  BAL11_20  0.223928918446
    R1_20  BAL14_20  0.532016560594
    R1_20  BAL15_20  0.372019945487
    R1_20  BAL18_20  0.23205768951
    R1_20  BAL20_20  0.525024338173
    R1_20  BAL26_20  0.600349311594
    R1_20  BAL27_20  0.905717531814
    R1_20  BAL28_20  0.544972257818
    R1_20  CAP20  1
    R1_21  COST  8.17575010185
    R1_21  BAL1_21  0.81365148472
    R1_21  BAL3_21  0.63944010558
    R1_21  BAL6_21  0.18747640721
    R1_21  BAL7_21  0.546238836451
    R1_21  BAL11_21  0.223928918446
    R1_21  BAL14_21  0.532016560594
    R1_21  BAL15_21  0.372019945487
    R1_21  BAL18_21  0.23205768951
    R1_21  BAL20_21  0.525024338173
    R1_21  BAL26_21  0.600349311594
    R1_21  BAL27_21  0.905717531814
    R1_21  BAL28_21  0.544972257818
    R1_21  CAP21  1
    R1_22  COST  8.17575010185
    R1_22  BAL1_22  0.81365148472
    R1_22  BAL3_22  0.63944010558
    R1_22  BAL6_22  0.18747640721
    R1_22  BAL7_22  0.546238836451
    R1_22  BAL11_22  0.223928918446
    R1_22  BAL14_22  0.532016560594
    R1_22  BAL15_22  0.372019945487
    R1_22  BAL18_22  0.23205768951
    R1_22  BAL20_22  0.525024338173
    R1_22  BAL26_22  0.600349311594
    R1_22  BAL27_22  0.905717531814
    R1_22  BAL28_22  0.544972257818
    R1_22  CAP22  1
    R1_23  COST  8.17575010185
    R1_23  BAL1_23  0.81365148472
    R1_23  BAL3_23  0.63944010558
    R1_23  BAL6_23  0.18747640721
    R1_23  BAL7_23  0.546238836451
    R1_23  BAL11_23  0.223928918446
    R1_23  BAL14_23  0.532016560594
    R1_23  BAL15_23  0.372019945487
    R1_23  BAL18_23  0.23205768951
    R1_23  BAL20_23  0.525024338173
    R1_23  BAL26_23  0.600349311594
    R1_23  BAL27_23  0.905717531814
    R1_23  BAL28_23  0.544972257818
    R1_23  CAP23  1
    R1_24  COST  8.17575010185
    R1_24  BAL1_24  0.81365148472
    R1_24  BAL3_24  0.63944010558
    R1_24  BAL6_24  0.18747640721
    R1_24  BAL7_24  0.546238836451
    R1_24  BAL11_24  0.223928918446
    R1_24  BAL14_24  0.532016560594
    R1_24  BAL15_24  0.372019945487
    R1_24  BAL18_24  0.23205768951
    R1_24  BAL20_24  0.525024338173
    R1_24  BAL26_24  0.600349311594
    R1_24  BAL27_24  0.905717531814
    R1_24  BAL28_24  0.544972257818
    R1_24  CAP24  1
    R1_25  COST  8.17575010185
    R1_25  BAL1_25  0.81365148472
    R1_25  BAL3_25  0.63944010558
    R1_25  BAL6_25  0.18747640721
    R1_25  BAL7_25  0.546238836451
    R1_25  BAL11_25  0.223928918446
    R1_25  BAL14_25  0.532016560594
    R1_25  BAL15_25  0.372019945487
    R1_25  BAL18_25  0.23205768951
    R1_25  BAL20_25  0.525024338173
    R1_25  BAL26_25  0.600349311594
    R1_25  BAL27_25  0.905717531814
    R1_25  BAL28_25  0.544972257818
    R1_25  CAP25  1
    R1_26  COST  8.17575010185
    R1_26  BAL1_26  0.81365148472
    R1_26  BAL3_26  0.63944010558
    R1_26  BAL6_26  0.18747640721
    R1_26  BAL7_26  0.546238836451
    R1_26  BAL11_26  0.223928918446
    R1_26  BAL14_26  0.532016560594
    R1_26  BAL15_26  0.372019945487
    R1_26  BAL18_26  0.23205768951
    R1_26  BAL20_26  0.525024338173
    R1_26  BAL26_26  0.600349311594
    R1_26  BAL27_26  0.905717531814
    R1_26  BAL28_26  0.544972257818
    R1_26  CAP26  1
    R1_27  COST  8.17575010185
    R1_27  BAL1_27  0.81365148472
    R1_27  BAL3_27  0.63944010558
    R1_27  BAL6_27  0.18747640721
    R1_27  BAL7_27  0.546238836451
    R1_27  BAL11_27  0.223928918446
    R1_27  BAL14_27  0.532016560594
    R1_27  BAL15_27  0.372019945487
    R1_27  BAL18_27  0.23205768951
    R1_27  BAL20_27  0.525024338173
    R1_27  BAL26_27  0.600349311594
    R1_27  BAL27_27  0.905717531814
    R1_27  BAL28_27  0.544972257818
    R1_27  CAP27  1
    R1_28  COST  8.17575010185
    R1_28  BAL1_28  0.81365148472
    R1_28  BAL3_28  0.63944010558
    R1_28  BAL6_28  0.18747640721
    R1_28  BAL7_28  0.546238836451
    R1_28  BAL11_28  0.223928918446
    R1_28  BAL14_28  0.532016560594
    R1_28  BAL15_28  0.372019945487
    R1_28  BAL18_28  0.23205768951
    R1_28  BAL20_28  0.525024338173
    R1_28  BAL26_28  0.600349311594
    R1_28  BAL27_28  0.905717531814
    R1_28  BAL28_28  0.544972257818
    R1_28  CAP28  1
    R1_29  COST  8.17575010185
    R1_29  BAL1_29  0.81365148472
    R1_29  BAL3_29  0.63944010558
    R1_29  BAL6_29  0.18747640721
    R1_29  BAL7_29  0.546238836451
    R1_29  BAL11_29  0.223928918446
    R1_29  BAL14_29  0.532016560594
    R1_29  BAL15_29  0.372019945487
    R1_29  BAL18_29  0.23205768951
    R1_29  BAL20_29  0.525024338173
    R1_29  BAL26_29  0.600349311594
    R1_29  BAL27_29  0.905717531814
    R1_29  BAL28_29  0.544972257818
    R1_29  CAP29  1
    R1_30  COST  8.17575010185
    R1_30  BAL1_30  0.81365148472
    R1_30  BAL3_30  0.63944010558
    R1_30  BAL6_30  0.18747640721
    R1_30  BAL7_30  0.546238836451
    R1_30  BAL11_30  0.223928918446
    R1_30  BAL14_30  0.532016560594
    R1_30  BAL15_30  0.372019945487
    R1_30  BAL18_30  0.23205768951
    R1_30  BAL20_30  0.525024338173
    R1_30  BAL26_30  0.600349311594
    R1_30  BAL27_30  0.905717531814
    R1_30  BAL28_30  0.544972257818
    R1_30  CAP30  1
    R1_31  COST  8.17575010185
    R1_31  BAL1_31  0.81365148472
    R1_31  BAL3_31  0.63944010558
    R1_31  BAL6_31  0.18747640721
    R1_31  BAL7_31  0.546238836451
    R1_31  BAL11_31  0.223928918446
    R1_31  BAL14_31  0.532016560594
    R1_31  BAL15_31  0.372019945487
    R1_31  BAL18_31  0.23205768951
    R1_31  BAL20_31  0.525024338173
    R1_31  BAL26_31  0.600349311594
    R1_31  BAL27_31  0.905717531814
    R1_31  BAL28_31  0.544972257818
    R1_31  CAP31  1
    R1_32  COST  8.17575010185
    R1_32  BAL1_32  0.81365148472
    R1_32  BAL3_32  0.63944010558
    R1_32  BAL6_32  0.18747640721
    R1_32  BAL7_32  0.546238836451
    R1_32  BAL11_32  0.223928918446
    R1_32  BAL14_32  0.532016560594
    R1_32  BAL15_32  0.372019945487
    R1_32  BAL18_32  0.23205768951
    R1_32  BAL20_32  0.525024338173
    R1_32  BAL26_32  0.600349311594
    R1_32  BAL27_32  0.905717531814
    R1_32  BAL28_32  0.544972257818
    R1_32  CAP32  1
    R1_33  COST  8.17575010185
    R1_33  BAL1_33  0.81365148472
    R1_33  BAL3_33  0.63944010558
    R1_33  BAL6_33  0.18747640721
    R1_33  BAL7_33  0.546238836451
    R1_33  BAL11_33  0.223928918446
    R1_33  BAL14_33  0.532016560594
    R1_33  BAL15_33  0.372019945487
    R1_33  BAL18_33  0.23205768951
    R1_33  BAL20_33  0.525024338173
    R1_33  BAL26_33  0.600349311594
    R1_33  BAL27_33  0.905717531814
    R1_33  BAL28_33  0.544972257818
    R1_33  CAP33  1
    R1_34  COST  8.17575010185
    R1_34  BAL1_34  0.81365148472
    R1_34  BAL3_34  0.63944010558
    R1_34  BAL6_34  0.18747640721
    R1_34  BAL7_34  0.546238836451
    R1_34  BAL11_34  0.223928918446
    R1_34  BAL14_34  0.532016560594
    R1_34  BAL15_34  0.372019945487
    R1_34  BAL18_34  0.23205768951
    R1_34  BAL20_34  0.525024338173
    R1_34  BAL26_34  0.600349311594
    R1_34  BAL27_34  0.905717531814
    R1_34  BAL28_34  0.544972257818
    R1_34  CAP34  1
    R1_35  COST  8.17575010185
    R1_35  BAL1_35  0.81365148472
    R1_35  BAL3_35  0.63944010558
    R1_35  BAL6_35  0.18747640721
    R1_35  BAL7_35  0.546238836451
    R1_35  BAL11_35  0.223928918446
    R1_35  BAL14_35  0.532016560594
    R1_35  BAL15_35  0.372019945487
    R1_35  BAL18_35  0.23205768951
    R1_35  BAL20_35  0.525024338173
    R1_35  BAL26_35  0.600349311594
    R1_35  BAL27_35  0.905717531814
    R1_35  BAL28_35  0.544972257818
    R1_35  CAP35  1
    R2_0  COST  8.17325561119
    R2_0  BAL2_0  0.585665710305
    R2_0  BAL3_0  0.438028182861
    R2_0  BAL8_0  0.552085541671
    R2_0  BAL12_0  0.259510058093
    R2_0  BAL13_0  0.416525561819
    R2_0  BAL17_0  0.459733364955
    R2_0  BAL22_0  0.324665442517
    R2_0  BAL24_0  0.544782217437
    R2_0  BAL26_0  0.185374154047
    R2_0  BAL29_0  0.46369847723
    R2_0  CAP0  1
    R2_1  COST  8.17325561119
    R2_1  BAL2_1  0.585665710305
    R2_1  BAL3_1  0.438028182861
    R2_1  BAL8_1  0.552085541671
    R2_1  BAL12_1  0.259510058093
    R2_1  BAL13_1  0.416525561819
    R2_1  BAL17_1  0.459733364955
    R2_1  BAL22_1  0.324665442517
    R2_1  BAL24_1  0.544782217437
    R2_1  BAL26_1  0.185374154047
    R2_1  BAL29_1  0.46369847723
    R2_1  CAP1  1
    R2_2  COST  8.17325561119
    R2_2  BAL2_2  0.585665710305
    R2_2  BAL3_2  0.438028182861
    R2_2  BAL8_2  0.552085541671
    R2_2  BAL12_2  0.259510058093
    R2_2  BAL13_2  0.416525561819
    R2_2  BAL17_2  0.459733364955
    R2_2  BAL22_2  0.324665442517
    R2_2  BAL24_2  0.544782217437
    R2_2  BAL26_2  0.185374154047
    R2_2  BAL29_2  0.46369847723
    R2_2  CAP2  1
    R2_3  COST  8.17325561119
    R2_3  BAL2_3  0.585665710305
    R2_3  BAL3_3  0.438028182861
    R2_3  BAL8_3  0.552085541671
    R2_3  BAL12_3  0.259510058093
    R2_3  BAL13_3  0.416525561819
    R2_3  BAL17_3  0.459733364955
    R2_3  BAL22_3  0.324665442517
    R2_3  BAL24_3  0.544782217437
    R2_3  BAL26_3  0.185374154047
    R2_3  BAL29_3  0.46369847723
    R2_3  CAP3  1
    R2_4  COST  8.17325561119
    R2_4  BAL2_4  0.585665710305
    R2_4  BAL3_4  0.438028182861
    R2_4  BAL8_4  0.552085541671
    R2_4  BAL12_4  0.259510058093
    R2_4  BAL13_4  0.416525561819
    R2_4  BAL17_4  0.459733364955
    R2_4  BAL22_4  0.324665442517
    R2_4  BAL24_4  0.544782217437
    R2_4  BAL26_4  0.185374154047
    R2_4  BAL29_4  0.46369847723
    R2_4  CAP4  1
    R2_5  COST  8.17325561119
    R2_5  BAL2_5  0.585665710305
    R2_5  BAL3_5  0.438028182861
    R2_5  BAL8_5  0.552085541671
    R2_5  BAL12_5  0.259510058093
    R2_5  BAL13_5  0.416525561819
    R2_5  BAL17_5  0.459733364955
    R2_5  BAL22_5  0.324665442517
    R2_5  BAL24_5  0.544782217437
    R2_5  BAL26_5  0.185374154047
    R2_5  BAL29_5  0.46369847723
    R2_5  CAP5  1
    R2_6  COST  8.17325561119
    R2_6  BAL2_6  0.585665710305
    R2_6  BAL3_6  0.438028182861
    R2_6  BAL8_6  0.552085541671
    R2_6  BAL12_6  0.259510058093
    R2_6  BAL13_6  0.416525561819
    R2_6  BAL17_6  0.459733364955
    R2_6  BAL22_6  0.324665442517
    R2_6  BAL24_6  0.544782217437
    R2_6  BAL26_6  0.185374154047
    R2_6  BAL29_6  0.46369847723
    R2_6  CAP6  1
    R2_7  COST  8.17325561119
    R2_7  BAL2_7  0.585665710305
    R2_7  BAL3_7  0.438028182861
    R2_7  BAL8_7  0.552085541671
    R2_7  BAL12_7  0.259510058093
    R2_7  BAL13_7  0.416525561819
    R2_7  BAL17_7  0.459733364955
    R2_7  BAL22_7  0.324665442517
    R2_7  BAL24_7  0.544782217437
    R2_7  BAL26_7  0.185374154047
    R2_7  BAL29_7  0.46369847723
    R2_7  CAP7  1
    R2_8  COST  8.17325561119
    R2_8  BAL2_8  0.585665710305
    R2_8  BAL3_8  0.438028182861
    R2_8  BAL8_8  0.552085541671
    R2_8  BAL12_8  0.259510058093
    R2_8  BAL13_8  0.416525561819
    R2_8  BAL17_8  0.459733364955
    R2_8  BAL22_8  0.324665442517
    R2_8  BAL24_8  0.544782217437
    R2_8  BAL26_8  0.185374154047
    R2_8  BAL29_8  0.46369847723
    R2_8  CAP8  1
    R2_9  COST  8.17325561119
    R2_9  BAL2_9  0.585665710305
    R2_9  BAL3_9  0.438028182861
    R2_9  BAL8_9  0.552085541671
    R2_9  BAL12_9  0.259510058093
    R2_9  BAL13_9  0.416525561819
    R2_9  BAL17_9  0.459733364955
    R2_9  BAL22_9  0.324665442517
    R2_9  BAL24_9  0.544782217437
    R2_9  BAL26_9  0.185374154047
    R2_9  BAL29_9  0.46369847723
    R2_9  CAP9  1
    R2_10  COST  8.17325561119
    R2_10  BAL2_10  0.585665710305
    R2_10  BAL3_10  0.438028182861
    R2_10  BAL8_10  0.552085541671
    R2_10  BAL12_10  0.259510058093
    R2_10  BAL13_10  0.416525561819
    R2_10  BAL17_10  0.459733364955
    R2_10  BAL22_10  0.324665442517
    R2_10  BAL24_10  0.544782217437
    R2_10  BAL26_10  0.185374154047
    R2_10  BAL29_10  0.46369847723
    R2_10  CAP10  1
    R2_11  COST  8.17325561119
    R2_11  BAL2_11  0.585665710305
    R2_11  BAL3_11  0.438028182861
    R2_11  BAL8_11  0.552085541671
    R2_11  BAL12_11  0.259510058093
    R2_11  BAL13_11  0.416525561819
    R2_11  BAL17_11  0.459733364955
    R2_11  BAL22_11  0.324665442517
    R2_11  BAL24_11  0.544782217437
    R2_11  BAL26_11  0.185374154047
    R2_11  BAL29_11  0.46369847723
    R2_11  CAP11  1
    R2_12  COST  8.17325561119
    R2_12  BAL2_12  0.585665710305
    R2_12  BAL3_12  0.438028182861
    R2_12  BAL8_12  0.552085541671
    R2_12  BAL12_12  0.259510058093
    R2_12  BAL13_12  0.416525561819
    R2_12  BAL17_12  0.459733364955
    R2_12  BAL22_12  0.324665442517
    R2_12  BAL24_12  0.544782217437
    R2_12  BAL26_12  0.185374154047
    R2_12  BAL29_12  0.46369847723
    R2_12  CAP12  1
    R2_13  COST  8.17325561119
    R2_13  BAL2_13  0.585665710305
    R2_13  BAL3_13  0.438028182861
    R2_13  BAL8_13  0.552085541671
    R2_13  BAL12_13  0.259510058093
    R2_13  BAL13_13  0.416525561819
    R2_13  BAL17_13  0.459733364955
    R2_13  BAL22_13  0.324665442517
    R2_13  BAL24_13  0.544782217437
    R2_13  BAL26_13  0.185374154047
    R2_13  BAL29_13  0.46369847723
    R2_13  CAP13  1
    R2_14  COST  8.17325561119
    R2_14  BAL2_14  0.585665710305
    R2_14  BAL3_14  0.438028182861
    R2_14  BAL8_14  0.552085541671
    R2_14  BAL12_14  0.259510058093
    R2_14  BAL13_14  0.416525561819
    R2_14  BAL17_14  0.459733364955
    R2_14  BAL22_14  0.324665442517
    R2_14  BAL24_14  0.544782217437
    R2_14  BAL26_14  0.185374154047
    R2_14  BAL29_14  0.46369847723
    R2_14  CAP14  1
    R2_15  COST  8.17325561119
    R2_15  BAL2_15  0.585665710305
    R2_15  BAL3_15  0.438028182861
    R2_15  BAL8_15  0.552085541671
    R2_15  BAL12_15  0.259510058093
    R2_15  BAL13_15  0.416525561819
    R2_15  BAL17_15  0.459733364955
    R2_15  BAL22_15  0.324665442517
    R2_15  BAL24_15  0.544782217437
    R2_15  BAL26_15  0.185374154047
    R2_15  BAL29_15  0.46369847723
    R2_15  CAP15  1
    R2_16  COST  8.17325561119
    R2_16  BAL2_16  0.585665710305
    R2_16  BAL3_16  0.438028182861
    R2_16  BAL8_16  0.552085541671
    R2_16  BAL12_16  0.259510058093
    R2_16  BAL13_16  0.416525561819
    R2_16  BAL17_16  0.459733364955
    R2_16  BAL22_16  0.324665442517
    R2_16  BAL24_16  0.544782217437
    R2_16  BAL26_16  0.185374154047
    R2_16  BAL29_16  0.46369847723
    R2_16  CAP16  1
    R2_17  COST  8.17325561119
    R2_17  BAL2_17  0.585665710305
    R2_17  BAL3_17  0.438028182861
    R2_17  BAL8_17  0.552085541671
    R2_17  BAL12_17  0.259510058093
    R2_17  BAL13_17  0.416525561819
    R2_17  BAL17_17  0.459733364955
    R2_17  BAL22_17  0.324665442517
    R2_17  BAL24_17  0.544782217437
    R2_17  BAL26_17  0.185374154047
    R2_17  BAL29_17  0.46369847723
    R2_17  CAP17  1
    R2_18  COST  8.17325561119
    R2_18  BAL2_18  0.585665710305
    R2_18  BAL3_18  0.438028182861
    R2_18  BAL8_18  0.552085541671
    R2_18  BAL12_18  0.259510058093
    R2_18  BAL13_18  0.416525561819
    R2_18  BAL17_18  0.459733364955
    R2_18  BAL22_18  0.324665442517
    R2_18  BAL24_18  0.544782217437
    R2_18  BAL26_18  0.185374154047
    R2_18  BAL29_18  0.46369847723
    R2_18  CAP18  1
    R2_19  COST  8.17325561119
    R2_19  BAL2_19  0.585665710305
    R2_19  BAL3_19  0.438028182861
    R2_19  BAL8_19  0.552085541671
    R2_19  BAL12_19  0.259510058093
    R2_19  BAL13_19  0.416525561819
    R2_19  BAL17_19  0.459733364955
    R2_19  BAL22_19  0.324665442517
    R2_19  BAL24_19  0.544782217437
    R2_19  BAL26_19  0.185374154047
    R2_19  BAL29_19  0.46369847723
    R2_19  CAP19  1
    R2_20  COST  8.17325561119
    R2_20  BAL2_20  0.585665710305
    R2_20  BAL3_20  0.438028182861
    R2_20  BAL8_20  0.552085541671
    R2_20  BAL12_20  0.259510058093
    R2_20  BAL13_20  0.416525561819
    R2_20  BAL17_20  0.459733364955
    R2_20  BAL22_20  0.324665442517
    R2_20  BAL24_20  0.544782217437
    R2_20  BAL26_20  0.185374154047
    R2_20  BAL29_20  0.46369847723
    R2_20  CAP20  1
    R2_21  COST  8.17325561119
    R2_21  BAL2_21  0.585665710305
    R2_21  BAL3_21  0.438028182861
    R2_21  BAL8_21  0.552085541671
    R2_21  BAL12_21  0.259510058093
    R2_21  BAL13_21  0.416525561819
    R2_21  BAL17_21  0.459733364955
    R2_21  BAL22_21  0.324665442517
    R2_21  BAL24_21  0.544782217437
    R2_21  BAL26_21  0.185374154047
    R2_21  BAL29_21  0.46369847723
    R2_21  CAP21  1
    R2_22  COST  8.17325561119
    R2_22  BAL2_22  0.585665710305
    R2_22  BAL3_22  0.438028182861
    R2_22  BAL8_22  0.552085541671
    R2_22  BAL12_22  0.259510058093
    R2_22  BAL13_22  0.416525561819
    R2_22  BAL17_22  0.459733364955
    R2_22  BAL22_22  0.324665442517
    R2_22  BAL24_22  0.544782217437
    R2_22  BAL26_22  0.185374154047
    R2_22  BAL29_22  0.46369847723
    R2_22  CAP22  1
    R2_23  COST  8.17325561119
    R2_23  BAL2_23  0.585665710305
    R2_23  BAL3_23  0.438028182861
    R2_23  BAL8_23  0.552085541671
    R2_23  BAL12_23  0.259510058093
    R2_23  BAL13_23  0.416525561819
    R2_23  BAL17_23  0.459733364955
    R2_23  BAL22_23  0.324665442517
    R2_23  BAL24_23  0.544782217437
    R2_23  BAL26_23  0.185374154047
    R2_23  BAL29_23  0.46369847723
    R2_23  CAP23  1
    R2_24  COST  8.17325561119
    R2_24  BAL2_24  0.585665710305
    R2_24  BAL3_24  0.438028182861
    R2_24  BAL8_24  0.552085541671
    R2_24  BAL12_24  0.259510058093
    R2_24  BAL13_24  0.416525561819
    R2_24  BAL17_24  0.459733364955
    R2_24  BAL22_24  0.324665442517
    R2_24  BAL24_24  0.544782217437
    R2_24  BAL26_24  0.185374154047
    R2_24  BAL29_24  0.46369847723
    R2_24  CAP24  1
    R2_25  COST  8.17325561119
    R2_25  BAL2_25  0.585665710305
    R2_25  BAL3_25  0.438028182861
    R2_25  BAL8_25  0.552085541671
    R2_25  BAL12_25  0.259510058093
    R2_25  BAL13_25  0.416525561819
    R2_25  BAL17_25  0.459733364955
    R2_25  BAL22_25  0.324665442517
    R2_25  BAL24_25  0.544782217437
    R2_25  BAL26_25  0.185374154047
    R2_25  BAL29_25  0.46369847723
    R2_25  CAP25  1
    R2_26  COST  8.17325561119
    R2_26  BAL2_26  0.585665710305
    R2_26  BAL3_26  0.438028182861
    R2_26  BAL8_26  0.552085541671
    R2_26  BAL12_26  0.259510058093
    R2_26  BAL13_26  0.416525561819
    R2_26  BAL17_26  0.459733364955
    R2_26  BAL22_26  0.324665442517
    R2_26  BAL24_26  0.544782217437
    R2_26  BAL26_26  0.185374154047
    R2_26  BAL29_26  0.46369847723
    R2_26  CAP26  1
    R2_27  COST  8.17325561119
    R2_27  BAL2_27  0.585665710305
    R2_27  BAL3_27  0.438028182861
    R2_27  BAL8_27  0.552085541671
    R2_27  BAL12_27  0.259510058093
    R2_27  BAL13_27  0.416525561819
    R2_27  BAL17_27  0.459733364955
    R2_27  BAL22_27  0.324665442517
    R2_27  BAL24_27  0.544782217437
    R2_27  BAL26_27  0.185374154047
    R2_27  BAL29_27  0.46369847723
    R2_27  CAP27  1
    R2_28  COST  8.17325561119
    R2_28  BAL2_28  0.585665710305
    R2_28  BAL3_28  0.438028182861
    R2_28  BAL8_28  0.552085541671
    R2_28  BAL12_28  0.259510058093
    R2_28  BAL13_28  0.416525561819
    R2_28  BAL17_28  0.459733364955
    R2_28  BAL22_28  0.324665442517
    R2_28  BAL24_28  0.544782217437
    R2_28  BAL26_28  0.185374154047
    R2_28  BAL29_28  0.46369847723
    R2_28  CAP28  1
    R2_29  COST  8.17325561119
    R2_29  BAL2_29  0.585665710305
    R2_29  BAL3_29  0.438028182861
    R2_29  BAL8_29  0.552085541671
    R2_29  BAL12_29  0.259510058093
    R2_29  BAL13_29  0.416525561819
    R2_29  BAL17_29  0.459733364955
    R2_29  BAL22_29  0.324665442517
    R2_29  BAL24_29  0.544782217437
    R2_29  BAL26_29  0.185374154047
    R2_29  BAL29_29  0.46369847723
    R2_29  CAP29  1
    R2_30  COST  8.17325561119
    R2_30  BAL2_30  0.585665710305
    R2_30  BAL3_30  0.438028182861
    R2_30  BAL8_30  0.552085541671
    R2_30  BAL12_30  0.259510058093
    R2_30  BAL13_30  0.416525561819
    R2_30  BAL17_30  0.459733364955
    R2_30  BAL22_30  0.324665442517
    R2_30  BAL24_30  0.544782217437
    R2_30  BAL26_30  0.185374154047
    R2_30  BAL29_30  0.46369847723
    R2_30  CAP30  1
    R2_31  COST  8.17325561119
    R2_31  BAL2_31  0.585665710305
    R2_31  BAL3_31  0.438028182861
    R2_31  BAL8_31  0.552085541671
    R2_31  BAL12_31  0.259510058093
    R2_31  BAL13_31  0.416525561819
    R2_31  BAL17_31  0.459733364955
    R2_31  BAL22_31  0.324665442517
    R2_31  BAL24_31  0.544782217437
    R2_31  BAL26_31  0.185374154047
    R2_31  BAL29_31  0.46369847723
    R2_31  CAP31  1
    R2_32  COST  8.17325561119
    R2_32  BAL2_32  0.585665710305
    R2_32  BAL3_32  0.438028182861
    R2_32  BAL8_32  0.552085541671
    R2_32  BAL12_32  0.259510058093
    R2_32  BAL13_32  0.416525561819
    R2_32  BAL17_32  0.459733364955
    R2_32  BAL22_32  0.324665442517
    R2_32  BAL24_32  0.544782217437
    R2_32  BAL26_32  0.185374154047
    R2_32  BAL29_32  0.46369847723
    R2_32  CAP32  1
    R2_33  COST  8.17325561119
    R2_33  BAL2_33  0.585665710305
    R2_33  BAL3_33  0.438028182861
    R2_33  BAL8_33  0.552085541671
    R2_33  BAL12_33  0.259510058093
    R2_33  BAL13_33  0.416525561819
    R2_33  BAL17_33  0.459733364955
    R2_33  BAL22_33  0.324665442517
    R2_33  BAL24_33  0.544782217437
    R2_33  BAL26_33  0.185374154047
    R2_33  BAL29_33  0.46369847723
    R2_33  CAP33  1
    R2_34  COST  8.17325561119
    R2_34  BAL2_34  0.585665710305
    R2_34  BAL3_34  0.438028182861
    R2_34  BAL8_34  0.552085541671
    R2_34  BAL12_34  0.259510058093
    R2_34  BAL13_34  0.416525561819
    R2_34  BAL17_34  0.459733364955
    R2_34  BAL22_34  0.324665442517
    R2_34  BAL24_34  0.544782217437
    R2_34  BAL26_34  0.185374154047
    R2_34  BAL29_34  0.46369847723
    R2_34  CAP34  1
    R2_35  COST  8.17325561119
    R2_35  BAL2_35  0.585665710305
    R2_35  BAL3_35  0.438028182861
    R2_35  BAL8_35  0.552085541671
    R2_35  BAL12_35  0.259510058093
    R2_35  BAL13_35  0.416525561819
    R2_35  BAL17_35  0.459733364955
    R2_35  BAL22_35  0.324665442517
    R2_35  BAL24_35  0.544782217437
    R2_35  BAL26_35  0.185374154047
    R2_35  BAL29_35  0.46369847723
    R2_35  CAP35  1
    R3_0  COST  8.01618076443
    R3_0  BAL2_0  0.449096943608
    R3_0  BAL5_0  0.685710915121
    R3_0  BAL7_0  0.16817905917
    R3_0  BAL11_0  0.945152696228
    R3_0  BAL17_0  0.474882734146
    R3_0  BAL18_0  0.260396571732
    R3_0  BAL20_0  0.840919966167
    R3_0  BAL21_0  0.417961210089
    R3_0  BAL23_0  0.745081547074
    R3_0  BAL25_0  0.899476753301
    R3_0  BAL27_0  0.829913637655
    R3_0  CAP0  1
    R3_1  COST  8.01618076443
    R3_1  BAL2_1  0.449096943608
    R3_1  BAL5_1  0.685710915121
    R3_1  BAL7_1  0.16817905917
    R3_1  BAL11_1  0.945152696228
    R3_1  BAL17_1  0.474882734146
    R3_1  BAL18_1  0.260396571732
    R3_1  BAL20_1  0.840919966167
    R3_1  BAL21_1  0.417961210089
    R3_1  BAL23_1  0.745081547074
    R3_1  BAL25_1  0.899476753301
    R3_1  BAL27_1  0.829913637655
    R3_1  CAP1  1
    R3_2  COST  8.01618076443
    R3_2  BAL2_2  0.449096943608
    R3_2  BAL5_2  0.685710915121
    R3_2  BAL7_2  0.16817905917
    R3_2  BAL11_2  0.945152696228
    R3_2  BAL17_2  0.474882734146
    R3_2  BAL18_2  0.260396571732
    R3_2  BAL20_2  0.840919966167
    R3_2  BAL21_2  0.417961210089
    R3_2  BAL23_2  0.745081547074
    R3_2  BAL25_2  0.899476753301
    R3_2  BAL27_2  0.829913637655
    R3_2  CAP2  1
    R3_3  COST  8.01618076443
    R3_3  BAL2_3  0.449096943608
    R3_3  BAL5_3  0.685710915121
    R3_3  BAL7_3  0.16817905917
    R3_3  BAL11_3  0.945152696228
    R3_3  BAL17_3  0.474882734146
    R3_3  BAL18_3  0.260396571732
    R3_3  BAL20_3  0.840919966167
    R3_3  BAL21_3  0.417961210089
    R3_3  BAL23_3  0.745081547074
    R3_3  BAL25_3  0.899476753301
    R3_3  BAL27_3  0.829913637655
    R3_3  CAP3  1
    R3_4  COST  8.01618076443
    R3_4  BAL2_4  0.449096943608
    R3_4  BAL5_4  0.685710915121
    R3_4  BAL7_4  0.16817905917
    R3_4  BAL11_4  0.945152696228
    R3_4  BAL17_4  0.474882734146
    R3_4  BAL18_4  0.260396571732
    R3_4  BAL20_4  0.840919966167
    R3_4  BAL21_4  0.417961210089
    R3_4  BAL23_4  0.745081547074
    R3_4  BAL25_4  0.899476753301
    R3_4  BAL27_4  0.829913637655
    R3_4  CAP4  1
    R3_5  COST  8.01618076443
    R3_5  BAL2_5  0.449096943608
    R3_5  BAL5_5  0.685710915121
    R3_5  BAL7_5  0.16817905917
    R3_5  BAL11_5  0.945152696228
    R3_5  BAL17_5  0.474882734146
    R3_5  BAL18_5  0.260396571732
    R3_5  BAL20_5  0.840919966167
    R3_5  BAL21_5  0.417961210089
    R3_5  BAL23_5  0.745081547074
    R3_5  BAL25_5  0.899476753301
    R3_5  BAL27_5  0.829913637655
    R3_5  CAP5  1
    R3_6  COST  8.01618076443
    R3_6  BAL2_6  0.449096943608
    R3_6  BAL5_6  0.685710915121
    R3_6  BAL7_6  0.16817905917
    R3_6  BAL11_6  0.945152696228
    R3_6  BAL17_6  0.474882734146
    R3_6  BAL18_6  0.260396571732
    R3_6  BAL20_6  0.840919966167
    R3_6  BAL21_6  0.417961210089
    R3_6  BAL23_6  0.745081547074
    R3_6  BAL25_6  0.899476753301
    R3_6  BAL27_6  0.829913637655
    R3_6  CAP6  1
    R3_7  COST  8.01618076443
    R3_7  BAL2_7  0.449096943608
    R3_7  BAL5_7  0.685710915121
    R3_7  BAL7_7  0.16817905917
    R3_7  BAL11_7  0.945152696228
    R3_7  BAL17_7  0.474882734146
    R3_7  BAL18_7  0.260396571732
    R3_7  BAL20_7  0.840919966167
    R3_7  BAL21_7  0.417961210089
    R3_7  BAL23_7  0.745081547074
    R3_7  BAL25_7  0.899476753301
    R3_7  BAL27_7  0.829913637655
    R3_7  CAP7  1
    R3_8  COST  8.01618076443
    R3_8  BAL2_8  0.449096943608
    R3_8  BAL5_8  0.685710915121
    R3_8  BAL7_8  0.16817905917
    R3_8  BAL11_8  0.945152696228
    R3_8  BAL17_8  0.474882734146
    R3_8  BAL18_8  0.260396571732
    R3_8  BAL20_8  0.840919966167
    R3_8  BAL21_8  0.417961210089
    R3_8  BAL23_8  0.745081547074
    R3_8  BAL25_8  0.899476753301
    R3_8  BAL27_8  0.829913637655
    R3_8  CAP8  1
    R3_9  COST  8.01618076443
    R3_9  BAL2_9  0.449096943608
    R3_9  BAL5_9  0.685710915121
    R3_9  BAL7_9  0.16817905917
    R3_9  BAL11_9  0.945152696228
    R3_9  BAL17_9  0.474882734146
    R3_9  BAL18_9  0.260396571732
    R3_9  BAL20_9  0.840919966167
    R3_9  BAL21_9  0.417961210089
    R3_9  BAL23_9  0.745081547074
    R3_9  BAL25_9  0.899476753301
    R3_9  BAL27_9  0.829913637655
    R3_9  CAP9  1
    R3_10  COST  8.01618076443
    R3_10  BAL2_10  0.449096943608
    R3_10  BAL5_10  0.685710915121
    R3_10  BAL7_10  0.16817905917
    R3_10  BAL11_10  0.945152696228
    R3_10  BAL17_10  0.474882734146
    R3_10  BAL18_10  0.260396571732
    R3_10  BAL20_10  0.840919966167
    R3_10  BAL21_10  0.417961210089
    R3_10  BAL23_10  0.745081547074
    R3_10  BAL25_10  0.899476753301
    R3_10  BAL27_10  0.829913637655
    R3_10  CAP10  1
    R3_11  COST  8.01618076443
    R3_11  BAL2_11  0.449096943608
    R3_11  BAL5_11  0.685710915121
    R3_11  BAL7_11  0.16817905917
    R3_11  BAL11_11  0.945152696228
    R3_11  BAL17_11  0.474882734146
    R3_11  BAL18_11  0.260396571732
    R3_11  BAL20_11  0.840919966167
    R3_11  BAL21_11  0.417961210089
    R3_11  BAL23_11  0.745081547074
    R3_11  BAL25_11  0.899476753301
    R3_11  BAL27_11  0.829913637655
    R3_11  CAP11  1
    R3_12  COST  8.01618076443
    R3_12  BAL2_12  0.449096943608
    R3_12  BAL5_12  0.685710915121
    R3_12  BAL7_12  0.16817905917
    R3_12  BAL11_12  0.945152696228
    R3_12  BAL17_12  0.474882734146
    R3_12  BAL18_12  0.260396571732
    R3_12  BAL20_12  0.840919966167
    R3_12  BAL21_12  0.417961210089
    R3_12  BAL23_12  0.745081547074
    R3_12  BAL25_12  0.899476753301
    R3_12  BAL27_12  0.829913637655
    R3_12  CAP12  1
    R3_13  COST  8.01618076443
    R3_13  BAL2_13  0.449096943608
    R3_13  BAL5_13  0.685710915121
    R3_13  BAL7_13  0.16817905917
    R3_13  BAL11_13  0.945152696228
    R3_13  BAL17_13  0.474882734146
    R3_13  BAL18_13  0.260396571732
    R3_13  BAL20_13  0.840919966167
    R3_13  BAL21_13  0.417961210089
    R3_13  BAL23_13  0.745081547074
    R3_13  BAL25_13  0.899476753301
    R3_13  BAL27_13  0.829913637655
    R3_13  CAP13  1
    R3_14  COST  8.01618076443
    R3_14  BAL2_14  0.449096943608
    R3_14  BAL5_14  0.685710915121
    R3_14  BAL7_14  0.16817905917
    R3_14  BAL11_14  0.945152696228
    R3_14  BAL17_14  0.474882734146
    R3_14  BAL18_14  0.260396571732
    R3_14  BAL20_14  0.840919966167
    R3_14  BAL21_14  0.417961210089
    R3_14  BAL23_14  0.745081547074
    R3_14  BAL25_14  0.899476753301
    R3_14  BAL27_14  0.829913637655
    R3_14  CAP14  1
    R3_15  COST  8.01618076443
    R3_15  BAL2_15  0.449096943608
    R3_15  BAL5_15  0.685710915121
    R3_15  BAL7_15  0.16817905917
    R3_15  BAL11_15  0.945152696228
    R3_15  BAL17_15  0.474882734146
    R3_15  BAL18_15  0.260396571732
    R3_15  BAL20_15  0.840919966167
    R3_15  BAL21_15  0.417961210089
    R3_15  BAL23_15  0.745081547074
    R3_15  BAL25_15  0.899476753301
    R3_15  BAL27_15  0.829913637655
    R3_15  CAP15  1
    R3_16  COST  8.01618076443
    R3_16  BAL2_16  0.449096943608
    R3_16  BAL5_16  0.685710915121
    R3_16  BAL7_16  0.16817905917
    R3_16  BAL11_16  0.945152696228
    R3_16  BAL17_16  0.474882734146
    R3_16  BAL18_16  0.260396571732
    R3_16  BAL20_16  0.840919966167
    R3_16  BAL21_16  0.417961210089
    R3_16  BAL23_16  0.745081547074
    R3_16  BAL25_16  0.899476753301
    R3_16  BAL27_16  0.829913637655
    R3_16  CAP16  1
    R3_17  COST  8.01618076443
    R3_17  BAL2_17  0.449096943608
    R3_17  BAL5_17  0.685710915121
    R3_17  BAL7_17  0.16817905917
    R3_17  BAL11_17  0.945152696228
    R3_17  BAL17_17  0.474882734146
    R3_17  BAL18_17  0.260396571732
    R3_17  BAL20_17  0.840919966167
    R3_17  BAL21_17  0.417961210089
    R3_17  BAL23_17  0.745081547074
    R3_17  BAL25_17  0.899476753301
    R3_17  BAL27_17  0.829913637655
    R3_17  CAP17  1
    R3_18  COST  8.01618076443
    R3_18  BAL2_18  0.449096943608
    R3_18  BAL5_18  0.685710915121
    R3_18  BAL7_18  0.16817905917
    R3_18  BAL11_18  0.945152696228
    R3_18  BAL17_18  0.474882734146
    R3_18  BAL18_18  0.260396571732
    R3_18  BAL20_18  0.840919966167
    R3_18  BAL21_18  0.417961210089
    R3_18  BAL23_18  0.745081547074
    R3_18  BAL25_18  0.899476753301
    R3_18  BAL27_18  0.829913637655
    R3_18  CAP18  1
    R3_19  COST  8.01618076443
    R3_19  BAL2_19  0.449096943608
    R3_19  BAL5_19  0.685710915121
    R3_19  BAL7_19  0.16817905917
    R3_19  BAL11_19  0.945152696228
    R3_19  BAL17_19  0.474882734146
    R3_19  BAL18_19  0.260396571732
    R3_19  BAL20_19  0.840919966167
    R3_19  BAL21_19  0.417961210089
    R3_19  BAL23_19  0.745081547074
    R3_19  BAL25_19  0.899476753301
    R3_19  BAL27_19  0.829913637655
    R3_19  CAP19  1
    R3_20  COST  8.01618076443
    R3_20  BAL2_20  0.449096943608
    R3_20  BAL5_20  0.685710915121
    R3_20  BAL7_20  0.16817905917
    R3_20  BAL11_20  0.945152696228
    R3_20  BAL17_20  0.474882734146
    R3_20  BAL18_20  0.260396571732
    R3_20  BAL20_20  0.840919966167
    R3_20  BAL21_20  0.417961210089
    R3_20  BAL23_20  0.745081547074
    R3_20  BAL25_20  0.899476753301
    R3_20  BAL27_20  0.829913637655
    R3_20  CAP20  1
    R3_21  COST  8.01618076443
    R3_21  BAL2_21  0.449096943608
    R3_21  BAL5_21  0.685710915121
    R3_21  BAL7_21  0.16817905917
    R3_21  BAL11_21  0.945152696228
    R3_21  BAL17_21  0.474882734146
    R3_21  BAL18_21  0.260396571732
    R3_21  BAL20_21  0.840919966167
    R3_21  BAL21_21  0.417961210089
    R3_21  BAL23_21  0.745081547074
    R3_21  BAL25_21  0.899476753301
    R3_21  BAL27_21  0.829913637655
    R3_21  CAP21  1
    R3_22  COST  8.01618076443
    R3_22  BAL2_22  0.449096943608
    R3_22  BAL5_22  0.685710915121
    R3_22  BAL7_22  0.16817905917
    R3_22  BAL11_22  0.945152696228
    R3_22  BAL17_22  0.474882734146
    R3_22  BAL18_22  0.260396571732
    R3_22  BAL20_22  0.840919966167
    R3_22  BAL21_22  0.417961210089
    R3_22  BAL23_22  0.745081547074
    R3_22  BAL25_22  0.899476753301
    R3_22  BAL27_22  0.829913637655
    R3_22  CAP22  1
    R3_23  COST  8.01618076443
    R3_23  BAL2_23  0.449096943608
    R3_23  BAL5_23  0.685710915121
    R3_23  BAL7_23  0.16817905917
    R3_23  BAL11_23  0.945152696228
    R3_23  BAL17_23  0.474882734146
    R3_23  BAL18_23  0.260396571732
    R3_23  BAL20_23  0.840919966167
    R3_23  BAL21_23  0.417961210089
    R3_23  BAL23_23  0.745081547074
    R3_23  BAL25_23  0.899476753301
    R3_23  BAL27_23  0.829913637655
    R3_23  CAP23  1
    R3_24  COST  8.01618076443
    R3_24  BAL2_24  0.449096943608
    R3_24  BAL5_24  0.685710915121
    R3_24  BAL7_24  0.16817905917
    R3_24  BAL11_24  0.945152696228
    R3_24  BAL17_24  0.474882734146
    R3_24  BAL18_24  0.260396571732
    R3_24  BAL20_24  0.840919966167
    R3_24  BAL21_24  0.417961210089
    R3_24  BAL23_24  0.745081547074
    R3_24  BAL25_24  0.899476753301
    R3_24  BAL27_24  0.829913637655
    R3_24  CAP24  1
    R3_25  COST  8.01618076443
    R3_25  BAL2_25  0.449096943608
    R3_25  BAL5_25  0.685710915121
    R3_25  BAL7_25  0.16817905917
    R3_25  BAL11_25  0.945152696228
    R3_25  BAL17_25  0.474882734146
    R3_25  BAL18_25  0.260396571732
    R3_25  BAL20_25  0.840919966167
    R3_25  BAL21_25  0.417961210089
    R3_25  BAL23_25  0.745081547074
    R3_25  BAL25_25  0.899476753301
    R3_25  BAL27_25  0.829913637655
    R3_25  CAP25  1
    R3_26  COST  8.01618076443
    R3_26  BAL2_26  0.449096943608
    R3_26  BAL5_26  0.685710915121
    R3_26  BAL7_26  0.16817905917
    R3_26  BAL11_26  0.945152696228
    R3_26  BAL17_26  0.474882734146
    R3_26  BAL18_26  0.260396571732
    R3_26  BAL20_26  0.840919966167
    R3_26  BAL21_26  0.417961210089
    R3_26  BAL23_26  0.745081547074
    R3_26  BAL25_26  0.899476753301
    R3_26  BAL27_26  0.829913637655
    R3_26  CAP26  1
    R3_27  COST  8.01618076443
    R3_27  BAL2_27  0.449096943608
    R3_27  BAL5_27  0.685710915121
    R3_27  BAL7_27  0.16817905917
    R3_27  BAL11_27  0.945152696228
    R3_27  BAL17_27  0.474882734146
    R3_27  BAL18_27  0.260396571732
    R3_27  BAL20_27  0.840919966167
    R3_27  BAL21_27  0.417961210089
    R3_27  BAL23_27  0.745081547074
    R3_27  BAL25_27  0.899476753301
    R3_27  BAL27_27  0.829913637655
    R3_27  CAP27  1
    R3_28  COST  8.01618076443
    R3_28  BAL2_28  0.449096943608
    R3_28  BAL5_28  0.685710915121
    R3_28  BAL7_28  0.16817905917
    R3_28  BAL11_28  0.945152696228
    R3_28  BAL17_28  0.474882734146
    R3_28  BAL18_28  0.260396571732
    R3_28  BAL20_28  0.840919966167
    R3_28  BAL21_28  0.417961210089
    R3_28  BAL23_28  0.745081547074
    R3_28  BAL25_28  0.899476753301
    R3_28  BAL27_28  0.829913637655
    R3_28  CAP28  1
    R3_29  COST  8.01618076443
    R3_29  BAL2_29  0.449096943608
    R3_29  BAL5_29  0.685710915121
    R3_29  BAL7_29  0.16817905917
    R3_29  BAL11_29  0.945152696228
    R3_29  BAL17_29  0.474882734146
    R3_29  BAL18_29  0.260396571732
    R3_29  BAL20_29  0.840919966167
    R3_29  BAL21_29  0.417961210089
    R3_29  BAL23_29  0.745081547074
    R3_29  BAL25_29  0.899476753301
    R3_29  BAL27_29  0.829913637655
    R3_29  CAP29  1
    R3_30  COST  8.01618076443
    R3_30  BAL2_30  0.449096943608
    R3_30  BAL5_30  0.685710915121
    R3_30  BAL7_30  0.16817905917
    R3_30  BAL11_30  0.945152696228
    R3_30  BAL17_30  0.474882734146
    R3_30  BAL18_30  0.260396571732
    R3_30  BAL20_30  0.840919966167
    R3_30  BAL21_30  0.417961210089
    R3_30  BAL23_30  0.745081547074
    R3_30  BAL25_30  0.899476753301
    R3_30  BAL27_30  0.829913637655
    R3_30  CAP30  1
    R3_31  COST  8.01618076443
    R3_31  BAL2_31  0.449096943608
    R3_31  BAL5_31  0.685710915121
    R3_31  BAL7_31  0.16817905917
    R3_31  BAL11_31  0.945152696228
    R3_31  BAL17_31  0.474882734146
    R3_31  BAL18_31  0.260396571732
    R3_31  BAL20_31  0.840919966167
    R3_31  BAL21_31  0.417961210089
    R3_31  BAL23_31  0.745081547074
    R3_31  BAL25_31  0.899476753301
    R3_31  BAL27_31  0.829913637655
    R3_31  CAP31  1
    R3_32  COST  8.01618076443
    R3_32  BAL2_32  0.449096943608
    R3_32  BAL5_32  0.685710915121
    R3_32  BAL7_32  0.16817905917
    R3_32  BAL11_32  0.945152696228
    R3_32  BAL17_32  0.474882734146
    R3_32  BAL18_32  0.260396571732
    R3_32  BAL20_32  0.840919966167
    R3_32  BAL21_32  0.417961210089
    R3_32  BAL23_32  0.745081547074
    R3_32  BAL25_32  0.899476753301
    R3_32  BAL27_32  0.829913637655
    R3_32  CAP32  1
    R3_33  COST  8.01618076443
    R3_33  BAL2_33  0.449096943608
    R3_33  BAL5_33  0.685710915121
    R3_33  BAL7_33  0.16817905917
    R3_33  BAL11_33  0.945152696228
    R3_33  BAL17_33  0.474882734146
    R3_33  BAL18_33  0.260396571732
    R3_33  BAL20_33  0.840919966167
    R3_33  BAL21_33  0.417961210089
    R3_33  BAL23_33  0.745081547074
    R3_33  BAL25_33  0.899476753301
    R3_33  BAL27_33  0.829913637655
    R3_33  CAP33  1
    R3_34  COST  8.01618076443
    R3_34  BAL2_34  0.449096943608
    R3_34  BAL5_34  0.685710915121
    R3_34  BAL7_34  0.16817905917
    R3_34  BAL11_34  0.945152696228
    R3_34  BAL17_34  0.474882734146
    R3_34  BAL18_34  0.260396571732
    R3_34  BAL20_34  0.840919966167
    R3_34  BAL21_34  0.417961210089
    R3_34  BAL23_34  0.745081547074
    R3_34  BAL25_34  0.899476753301
    R3_34  BAL27_34  0.829913637655
    R3_34  CAP34  1
    R3_35  COST  8.01618076443
    R3_35  BAL2_35  0.449096943608
    R3_35  BAL5_35  0.685710915121
    R3_35  BAL7_35  0.16817905917
    R3_35  BAL11_35  0.945152696228
    R3_35  BAL17_35  0.474882734146
    R3_35  BAL18_35  0.260396571732
    R3_35  BAL20_35  0.840919966167
    R3_35  BAL21_35  0.417961210089
    R3_35  BAL23_35  0.745081547074
    R3_35  BAL25_35  0.899476753301
    R3_35  BAL27_35  0.829913637655
    R3_35  CAP35  1
    R4_0  COST  19.7195044351
    R4_0  BAL0_0  0.37241429372
    R4_0  BAL1_0  0.651623120405
    R4_0  BAL5_0  0.712463304969
    R4_0  BAL9_0  0.588245647699
    R4_0  BAL10_0  0.661865327859
    R4_0  BAL12_0  0.866444782228
    R4_0  BAL13_0  0.550285529118
    R4_0  BAL16_0  0.274301616943
    R4_0  BAL19_0  0.834659617112
    R4_0  BAL20_0  0.409988662113
    R4_0  BAL22_0  0.518920351911
    R4_0  BAL25_0  0.870854866748
    R4_0  BAL26_0  0.69803748356
    R4_0  BAL28_0  0.92583329256
    R4_0  CAP0  1
    R4_1  COST  19.7195044351
    R4_1  BAL0_1  0.37241429372
    R4_1  BAL1_1  0.651623120405
    R4_1  BAL5_1  0.712463304969
    R4_1  BAL9_1  0.588245647699
    R4_1  BAL10_1  0.661865327859
    R4_1  BAL12_1  0.866444782228
    R4_1  BAL13_1  0.550285529118
    R4_1  BAL16_1  0.274301616943
    R4_1  BAL19_1  0.834659617112
    R4_1  BAL20_1  0.409988662113
    R4_1  BAL22_1  0.518920351911
    R4_1  BAL25_1  0.870854866748
    R4_1  BAL26_1  0.69803748356
    R4_1  BAL28_1  0.92583329256
    R4_1  CAP1  1
    R4_2  COST  19.7195044351
    R4_2  BAL0_2  0.37241429372
    R4_2  BAL1_2  0.651623120405
    R4_2  BAL5_2  0.712463304969
    R4_2  BAL9_2  0.588245647699
    R4_2  BAL10_2  0.661865327859
    R4_2  BAL12_2  0.866444782228
    R4_2  BAL13_2  0.550285529118
    R4_2  BAL16_2  0.274301616943
    R4_2  BAL19_2  0.834659617112
    R4_2  BAL20_2  0.409988662113
    R4_2  BAL22_2  0.518920351911
    R4_2  BAL25_2  0.870854866748
    R4_2  BAL26_2  0.69803748356
    R4_2  BAL28_2  0.92583329256
    R4_2  CAP2  1
    R4_3  COST  19.7195044351
    R4_3  BAL0_3  0.37241429372
    R4_3  BAL1_3  0.651623120405
    R4_3  BAL5_3  0.712463304969
    R4_3  BAL9_3  0.588245647699
    R4_3  BAL10_3  0.661865327859
    R4_3  BAL12_3  0.866444782228
    R4_3  BAL13_3  0.550285529118
    R4_3  BAL16_3  0.274301616943
    R4_3  BAL19_3  0.834659617112
    R4_3  BAL20_3  0.409988662113
    R4_3  BAL22_3  0.518920351911
    R4_3  BAL25_3  0.870854866748
    R4_3  BAL26_3  0.69803748356
    R4_3  BAL28_3  0.92583329256
    R4_3  CAP3  1
    R4_4  COST  19.7195044351
    R4_4  BAL0_4  0.37241429372
    R4_4  BAL1_4  0.651623120405
    R4_4  BAL5_4  0.712463304969
    R4_4  BAL9_4  0.588245647699
    R4_4  BAL10_4  0.661865327859
    R4_4  BAL12_4  0.866444782228
    R4_4  BAL13_4  0.550285529118
    R4_4  BAL16_4  0.274301616943
    R4_4  BAL19_4  0.834659617112
    R4_4  BAL20_4  0.409988662113
    R4_4  BAL22_4  0.518920351911
    R4_4  BAL25_4  0.870854866748
    R4_4  BAL26_4  0.69803748356
    R4_4  BAL28_4  0.92583329256
    R4_4  CAP4  1
    R4_5  COST  19.7195044351
    R4_5  BAL0_5  0.37241429372
    R4_5  BAL1_5  0.651623120405
    R4_5  BAL5_5  0.712463304969
    R4_5  BAL9_5  0.588245647699
    R4_5  BAL10_5  0.661865327859
    R4_5  BAL12_5  0.866444782228
    R4_5  BAL13_5  0.550285529118
    R4_5  BAL16_5  0.274301616943
    R4_5  BAL19_5  0.834659617112
    R4_5  BAL20_5  0.409988662113
    R4_5  BAL22_5  0.518920351911
    R4_5  BAL25_5  0.870854866748
    R4_5  BAL26_5  0.69803748356
    R4_5  BAL28_5  0.92583329256
    R4_5  CAP5  1
    R4_6  COST  19.7195044351
    R4_6  BAL0_6  0.37241429372
    R4_6  BAL1_6  0.651623120405
    R4_6  BAL5_6  0.712463304969
    R4_6  BAL9_6  0.588245647699
    R4_6  BAL10_6  0.661865327859
    R4_6  BAL12_6  0.866444782228
    R4_6  BAL13_6  0.550285529118
    R4_6  BAL16_6  0.274301616943
    R4_6  BAL19_6  0.834659617112
    R4_6  BAL20_6  0.409988662113
    R4_6  BAL22_6  0.518920351911
    R4_6  BAL25_6  0.870854866748
    R4_6  BAL26_6  0.69803748356
    R4_6  BAL28_6  0.92583329256
    R4_6  CAP6  1
    R4_7  COST  19.7195044351
    R4_7  BAL0_7  0.37241429372
    R4_7  BAL1_7  0.651623120405
    R4_7  BAL5_7  0.712463304969
    R4_7  BAL9_7  0.588245647699
    R4_7  BAL10_7  0.661865327859
    R4_7  BAL12_7  0.866444782228
    R4_7  BAL13_7  0.550285529118
    R4_7  BAL16_7  0.274301616943
    R4_7  BAL19_7  0.834659617112
    R4_7  BAL20_7  0.409988662113
    R4_7  BAL22_7  0.518920351911
    R4_7  BAL25_7  0.870854866748
    R4_7  BAL26_7  0.69803748356
    R4_7  BAL28_7  0.92583329256
    R4_7  CAP7  1
    R4_8  COST  19.7195044351
    R4_8  BAL0_8  0.37241429372
    R4_8  BAL1_8  0.651623120405
    R4_8  BAL5_8  0.712463304969
    R4_8  BAL9_8  0.588245647699
    R4_8  BAL10_8  0.661865327859
    R4_8  BAL12_8  0.866444782228
    R4_8  BAL13_8  0.550285529118
    R4_8  BAL16_8  0.274301616943
    R4_8  BAL19_8  0.834659617112
    R4_8  BAL20_8  0.409988662113
    R4_8  BAL22_8  0.518920351911
    R4_8  BAL25_8  0.870854866748
    R4_8  BAL26_8  0.69803748356
    R4_8  BAL28_8  0.92583329256
    R4_8  CAP8  1
    R4_9  COST  19.7195044351
    R4_9  BAL0_9  0.37241429372
    R4_9  BAL1_9  0.651623120405
    R4_9  BAL5_9  0.712463304969
    R4_9  BAL9_9  0.588245647699
    R4_9  BAL10_9  0.661865327859
    R4_9  BAL12_9  0.866444782228
    R4_9  BAL13_9  0.550285529118
    R4_9  BAL16_9  0.274301616943
    R4_9  BAL19_9  0.834659617112
    R4_9  BAL20_9  0.409988662113
    R4_9  BAL22_9  0.518920351911
    R4_9  BAL25_9  0.870854866748
    R4_9  BAL26_9  0.69803748356
    R4_9  BAL28_9  0.92583329256
    R4_9  CAP9  1
    R4_10  COST  19.7195044351
    R4_10  BAL0_10  0.37241429372
    R4_10  BAL1_10  0.651623120405
    R4_10  BAL5_10  0.712463304969
    R4_10  BAL9_10  0.588245647699
    R4_10  BAL10_10  0.661865327859
    R4_10  BAL12_10  0.866444782228
    R4_10  BAL13_10  0.550285529118
    R4_10  BAL16_10  0.274301616943
    R4_10  BAL19_10  0.834659617112
    R4_10  BAL20_10  0.409988662113
    R4_10  BAL22_10  0.518920351911
    R4_10  BAL25_10  0.870854866748
    R4_10  BAL26_10  0.69803748356
    R4_10  BAL28_10  0.92583329256
    R4_10  CAP10  1
    R4_11  COST  19.7195044351
    R4_11  BAL0_11  0.37241429372
    R4_11  BAL1_11  0.651623120405
    R4_11  BAL5_11  0.712463304969
    R4_11  BAL9_11  0.588245647699
    R4_11  BAL10_11  0.661865327859
    R4_11  BAL12_11  0.866444782228
    R4_11  BAL13_11  0.550285529118
    R4_11  BAL16_11  0.274301616943
    R4_11  BAL19_11  0.834659617112
    R4_11  BAL20_11  0.409988662113
    R4_11  BAL22_11  0.518920351911
    R4_11  BAL25_11  0.870854866748
    R4_11  BAL26_11  0.69803748356
    R4_11  BAL28_11  0.92583329256
    R4_11  CAP11  1
    R4_12  COST  19.7195044351
    R4_12  BAL0_12  0.37241429372
    R4_12  BAL1_12  0.651623120405
    R4_12  BAL5_12  0.712463304969
    R4_12  BAL9_12  0.588245647699
    R4_12  BAL10_12  0.661865327859
    R4_12  BAL12_12  0.866444782228
    R4_12  BAL13_12  0.550285529118
    R4_12  BAL16_12  0.274301616943
    R4_12  BAL19_12  0.834659617112
    R4_12  BAL20_12  0.409988662113
    R4_12  BAL22_12  0.518920351911
    R4_12  BAL25_12  0.870854866748
    R4_12  BAL26_12  0.69803748356
    R4_12  BAL28_12  0.92583329256
    R4_12  CAP12  1
    R4_13  COST  19.7195044351
    R4_13  BAL0_13  0.37241429372
    R4_13  BAL1_13  0.651623120405
    R4_13  BAL5_13  0.712463304969
    R4_13  BAL9_13  0.588245647699
    R4_13  BAL10_13  0.661865327859
    R4_13  BAL12_13  0.866444782228
    R4_13  BAL13_13  0.550285529118
    R4_13  BAL16_13  0.274301616943
    R4_13  BAL19_13  0.834659617112
    R4_13  BAL20_13  0.409988662113
    R4_13  BAL22_13  0.518920351911
    R4_13  BAL25_13  0.870854866748
    R4_13  BAL26_13  0.69803748356
    R4_13  BAL28_13  0.92583329256
    R4_13  CAP13  1
    R4_14  COST  19.7195044351
    R4_14  BAL0_14  0.37241429372
    R4_14  BAL1_14  0.651623120405
    R4_14  BAL5_14  0.712463304969
    R4_14  BAL9_14  0.588245647699
    R4_14  BAL10_14  0.661865327859
    R4_14  BAL12_14  0.866444782228
    R4_14  BAL13_14  0.550285529118
    R4_14  BAL16_14  0.274301616943
    R4_14  BAL19_14  0.834659617112
    R4_14  BAL20_14  0.409988662113
    R4_14  BAL22_14  0.518920351911
    R4_14  BAL25_14  0.870854866748
    R4_14  BAL26_14  0.69803748356
    R4_14  BAL28_14  0.92583329256
    R4_14  CAP14  1
    R4_15  COST  19.7195044351
    R4_15  BAL0_15  0.37241429372
    R4_15  BAL1_15  0.651623120405
    R4_15  BAL5_15  0.712463304969
    R4_15  BAL9_15  0.588245647699
    R4_15  BAL10_15  0.661865327859
    R4_15  BAL12_15  0.866444782228
    R4_15  BAL13_15  0.550285529118
    R4_15  BAL16_15  0.274301616943
    R4_15  BAL19_15  0.834659617112
    R4_15  BAL20_15  0.409988662113
    R4_15  BAL22_15  0.518920351911
    R4_15  BAL25_15  0.870854866748
    R4_15  BAL26_15  0.69803748356
    R4_15  BAL28_15  0.92583329256
    R4_15  CAP15  1
    R4_16  COST  19.7195044351
    R4_16  BAL0_16  0.37241429372
    R4_16  BAL1_16  0.651623120405
    R4_16  BAL5_16  0.712463304969
    R4_16  BAL9_16  0.588245647699
    R4_16  BAL10_16  0.661865327859
    R4_16  BAL12_16  0.866444782228
    R4_16  BAL13_16  0.550285529118
    R4_16  BAL16_16  0.274301616943
    R4_16  BAL19_16  0.834659617112
    R4_16  BAL20_16  0.409988662113
    R4_16  BAL22_16  0.518920351911
    R4_16  BAL25_16  0.870854866748
    R4_16  BAL26_16  0.69803748356
    R4_16  BAL28_16  0.92583329256
    R4_16  CAP16  1
    R4_17  COST  19.7195044351
    R4_17  BAL0_17  0.37241429372
    R4_17  BAL1_17  0.651623120405
    R4_17  BAL5_17  0.712463304969
    R4_17  BAL9_17  0.588245647699
    R4_17  BAL10_17  0.661865327859
    R4_17  BAL12_17  0.866444782228
    R4_17  BAL13_17  0.550285529118
    R4_17  BAL16_17  0.274301616943
    R4_17  BAL19_17  0.834659617112
    R4_17  BAL20_17  0.409988662113
    R4_17  BAL22_17  0.518920351911
    R4_17  BAL25_17  0.870854866748
    R4_17  BAL26_17  0.69803748356
    R4_17  BAL28_17  0.92583329256
    R4_17  CAP17  1
    R4_18  COST  19.7195044351
    R4_18  BAL0_18  0.37241429372
    R4_18  BAL1_18  0.651623120405
    R4_18  BAL5_18  0.712463304969
    R4_18  BAL9_18  0.588245647699
    R4_18  BAL10_18  0.661865327859
    R4_18  BAL12_18  0.866444782228
    R4_18  BAL13_18  0.550285529118
    R4_18  BAL16_18  0.274301616943
    R4_18  BAL19_18  0.834659617112
    R4_18  BAL20_18  0.409988662113
    R4_18  BAL22_18  0.518920351911
    R4_18  BAL25_18  0.870854866748
    R4_18  BAL26_18  0.69803748356
    R4_18  BAL28_18  0.92583329256
    R4_18  CAP18  1
    R4_19  COST  19.7195044351
    R4_19  BAL0_19  0.37241429372
    R4_19  BAL1_19  0.651623120405
    R4_19  BAL5_19  0.712463304969
    R4_19  BAL9_19  0.588245647699
    R4_19  BAL10_19  0.661865327859
    R4_19  BAL12_19  0.866444782228
    R4_19  BAL13_19  0.550285529118
    R4_19  BAL16_19  0.274301616943
    R4_19  BAL19_19  0.834659617112
    R4_19  BAL20_19  0.409988662113
    R4_19  BAL22_19  0.518920351911
    R4_19  BAL25_19  0.870854866748
    R4_19  BAL26_19  0.69803748356
    R4_19  BAL28_19  0.92583329256
    R4_19  CAP19  1
    R4_20  COST  19.7195044351
    R4_20  BAL0_20  0.37241429372
    R4_20  BAL1_20  0.651623120405
    R4_20  BAL5_20  0.712463304969
    R4_20  BAL9_20  0.588245647699
    R4_20  BAL10_20  0.661865327859
    R4_20  BAL12_20  0.866444782228
    R4_20  BAL13_20  0.550285529118
    R4_20  BAL16_20  0.274301616943
    R4_20  BAL19_20  0.834659617112
    R4_20  BAL20_20  0.409988662113
    R4_20  BAL22_20  0.518920351911
    R4_20  BAL25_20  0.870854866748
    R4_20  BAL26_20  0.69803748356
    R4_20  BAL28_20  0.92583329256
    R4_20  CAP20  1
    R4_21  COST  19.7195044351
    R4_21  BAL0_21  0.37241429372
    R4_21  BAL1_21  0.651623120405
    R4_21  BAL5_21  0.712463304969
    R4_21  BAL9_21  0.588245647699
    R4_21  BAL10_21  0.661865327859
    R4_21  BAL12_21  0.866444782228
    R4_21  BAL13_21  0.550285529118
    R4_21  BAL16_21  0.274301616943
    R4_21  BAL19_21  0.834659617112
    R4_21  BAL20_21  0.409988662113
    R4_21  BAL22_21  0.518920351911
    R4_21  BAL25_21  0.870854866748
    R4_21  BAL26_21  0.69803748356
    R4_21  BAL28_21  0.92583329256
    R4_21  CAP21  1
    R4_22  COST  19.7195044351
    R4_22  BAL0_22  0.37241429372
    R4_22  BAL1_22  0.651623120405
    R4_22  BAL5_22  0.712463304969
    R4_22  BAL9_22  0.588245647699
    R4_22  BAL10_22  0.661865327859
    R4_22  BAL12_22  0.866444782228
    R4_22  BAL13_22  0.550285529118
    R4_22  BAL16_22  0.274301616943
    R4_22  BAL19_22  0.834659617112
    R4_22  BAL20_22  0.409988662113
    R4_22  BAL22_22  0.518920351911
    R4_22  BAL25_22  0.870854866748
    R4_22  BAL26_22  0.69803748356
    R4_22  BAL28_22  0.92583329256
    R4_22  CAP22  1
    R4_23  COST  19.7195044351
    R4_23  BAL0_23  0.37241429372
    R4_23  BAL1_23  0.651623120405
    R4_23  BAL5_23  0.712463304969
    R4_23  BAL9_23  0.588245647699
    R4_23  BAL10_23  0.661865327859
    R4_23  BAL12_23  0.866444782228
    R4_23  BAL13_23  0.550285529118
    R4_23  BAL16_23  0.274301616943
    R4_23  BAL19_23  0.834659617112
    R4_23  BAL20_23  0.409988662113
    R4_23  BAL22_23  0.518920351911
    R4_23  BAL25_23  0.870854866748
    R4_23  BAL26_23  0.69803748356
    R4_23  BAL28_23  0.92583329256
    R4_23  CAP23  1
    R4_24  COST  19.7195044351
    R4_24  BAL0_24  0.37241429372
    R4_24  BAL1_24  0.651623120405
    R4_24  BAL5_24  0.712463304969
    R4_24  BAL9_24  0.588245647699
    R4_24  BAL10_24  0.661865327859
    R4_24  BAL12_24  0.866444782228
    R4_24  BAL13_24  0.550285529118
    R4_24  BAL16_24  0.274301616943
    R4_24  BAL19_24  0.834659617112
    R4_24  BAL20_24  0.409988662113
    R4_24  BAL22_24  0.518920351911
    R4_24  BAL25_24  0.870854866748
    R4_24  BAL26_24  0.69803748356
    R4_24  BAL28_24  0.92583329256
    R4_24  CAP24  1
    R4_25  COST  19.7195044351
    R4_25  BAL0_25  0.37241429372
    R4_25  BAL1_25  0.651623120405
    R4_25  BAL5_25  0.712463304969
    R4_25  BAL9_25  0.588245647699
    R4_25  BAL10_25  0.661865327859
    R4_25  BAL12_25  0.866444782228
    R4_25  BAL13_25  0.550285529118
    R4_25  BAL16_25  0.274301616943
    R4_25  BAL19_25  0.834659617112
    R4_25  BAL20_25  0.409988662113
    R4_25  BAL22_25  0.518920351911
    R4_25  BAL25_25  0.870854866748
    R4_25  BAL26_25  0.69803748356
    R4_25  BAL28_25  0.92583329256
    R4_25  CAP25  1
    R4_26  COST  19.7195044351
    R4_26  BAL0_26  0.37241429372
    R4_26  BAL1_26  0.651623120405
    R4_26  BAL5_26  0.712463304969
    R4_26  BAL9_26  0.588245647699
    R4_26  BAL10_26  0.661865327859
    R4_26  BAL12_26  0.866444782228
    R4_26  BAL13_26  0.550285529118
    R4_26  BAL16_26  0.274301616943
    R4_26  BAL19_26  0.834659617112
    R4_26  BAL20_26  0.409988662113
    R4_26  BAL22_26  0.518920351911
    R4_26  BAL25_26  0.870854866748
    R4_26  BAL26_26  0.69803748356
    R4_26  BAL28_26  0.92583329256
    R4_26  CAP26  1
    R4_27  COST  19.7195044351
    R4_27  BAL0_27  0.37241429372
    R4_27  BAL1_27  0.651623120405
    R4_27  BAL5_27  0.712463304969
    R4_27  BAL9_27  0.588245647699
    R4_27  BAL10_27  0.661865327859
    R4_27  BAL12_27  0.866444782228
    R4_27  BAL13_27  0.550285529118
    R4_27  BAL16_27  0.274301616943
    R4_27  BAL19_27  0.834659617112
    R4_27  BAL20_27  0.409988662113
    R4_27  BAL22_27  0.518920351911
    R4_27  BAL25_27  0.870854866748
    R4_27  BAL26_27  0.69803748356
    R4_27  BAL28_27  0.92583329256
    R4_27  CAP27  1
    R4_28  COST  19.7195044351
    R4_28  BAL0_28  0.37241429372
    R4_28  BAL1_28  0.651623120405
    R4_28  BAL5_28  0.712463304969
    R4_28  BAL9_28  0.588245647699
    R4_28  BAL10_28  0.661865327859
    R4_28  BAL12_28  0.866444782228
    R4_28  BAL13_28  0.550285529118
    R4_28  BAL16_28  0.274301616943
    R4_28  BAL19_28  0.834659617112
    R4_28  BAL20_28  0.409988662113
    R4_28  BAL22_28  0.518920351911
    R4_28  BAL25_28  0.870854866748
    R4_28  BAL26_28  0.69803748356
    R4_28  BAL28_28  0.92583329256
    R4_28  CAP28  1
    R4_29  COST  19.7195044351
    R4_29  BAL0_29  0.37241429372
    R4_29  BAL1_29  0.651623120405
    R4_29  BAL5_29  0.712463304969
    R4_29  BAL9_29  0.588245647699
    R4_29  BAL10_29  0.661865327859
    R4_29  BAL12_29  0.866444782228
    R4_29  BAL13_29  0.550285529118
    R4_29  BAL16_29  0.274301616943
    R4_29  BAL19_29  0.834659617112
    R4_29  BAL20_29  0.409988662113
    R4_29  BAL22_29  0.518920351911
    R4_29  BAL25_29  0.870854866748
    R4_29  BAL26_29  0.69803748356
    R4_29  BAL28_29  0.92583329256
    R4_29  CAP29  1
    R4_30  COST  19.7195044351
    R4_30  BAL0_30  0.37241429372
    R4_30  BAL1_30  0.651623120405
    R4_30  BAL5_30  0.712463304969
    R4_30  BAL9_30  0.588245647699
    R4_30  BAL10_30  0.661865327859
    R4_30  BAL12_30  0.866444782228
    R4_30  BAL13_30  0.550285529118
    R4_30  BAL16_30  0.274301616943
    R4_30  BAL19_30  0.834659617112
    R4_30  BAL20_30  0.409988662113
    R4_30  BAL22_30  0.518920351911
    R4_30  BAL25_30  0.870854866748
    R4_30  BAL26_30  0.69803748356
    R4_30  BAL28_30  0.92583329256
    R4_30  CAP30  1
    R4_31  COST  19.7195044351
    R4_31  BAL0_31  0.37241429372
    R4_31  BAL1_31  0.651623120405
    R4_31  BAL5_31  0.712463304969
    R4_31  BAL9_31  0.588245647699
    R4_31  BAL10_31  0.661865327859
    R4_31  BAL12_31  0.866444782228
    R4_31  BAL13_31  0.550285529118
    R4_31  BAL16_31  0.274301616943
    R4_31  BAL19_31  0.834659617112
    R4_31  BAL20_31  0.409988662113
    R4_31  BAL22_31  0.518920351911
    R4_31  BAL25_31  0.870854866748
    R4_31  BAL26_31  0.69803748356
    R4_31  BAL28_31  0.92583329256
    R4_31  CAP31  1
    R4_32  COST  19.7195044351
    R4_32  BAL0_32  0.37241429372
    R4_32  BAL1_32  0.651623120405
    R4_32  BAL5_32  0.712463304969
    R4_32  BAL9_32  0.588245647699
    R4_32  BAL10_32  0.661865327859
    R4_32  BAL12_32  0.866444782228
    R4_32  BAL13_32  0.550285529118
    R4_32  BAL16_32  0.274301616943
    R4_32  BAL19_32  0.834659617112
    R4_32  BAL20_32  0.409988662113
    R4_32  BAL22_32  0.518920351911
    R4_32  BAL25_32  0.870854866748
    R4_32  BAL26_32  0.69803748356
    R4_32  BAL28_32  0.92583329256
    R4_32  CAP32  1
    R4_33  COST  19.7195044351
    R4_33  BAL0_33  0.37241429372
    R4_33  BAL1_33  0.651623120405
    R4_33  BAL5_33  0.712463304969
    R4_33  BAL9_33  0.588245647699
    R4_33  BAL10_33  0.661865327859
    R4_33  BAL12_33  0.866444782228
    R4_33  BAL13_33  0.550285529118
    R4_33  BAL16_33  0.274301616943
    R4_33  BAL19_33  0.834659617112
    R4_33  BAL20_33  0.409988662113
    R4_33  BAL22_33  0.518920351911
    R4_33  BAL25_33  0.870854866748
    R4_33  BAL26_33  0.69803748356
    R4_33  BAL28_33  0.92583329256
    R4_33  CAP33  1
    R4_34  COST  19.7195044351
    R4_34  BAL0_34  0.37241429372
    R4_34  BAL1_34  0.651623120405
    R4_34  BAL5_34  0.712463304969
    R4_34  BAL9_34  0.588245647699
    R4_34  BAL10_34  0.661865327859
    R4_34  BAL12_34  0.866444782228
    R4_34  BAL13_34  0.550285529118
    R4_34  BAL16_34  0.274301616943
    R4_34  BAL19_34  0.834659617112
    R4_34  BAL20_34  0.409988662113
    R4_34  BAL22_34  0.518920351911
    R4_34  BAL25_34  0.870854866748
    R4_34  BAL26_34  0.69803748356
    R4_34  BAL28_34  0.92583329256
    R4_34  CAP34  1
    R4_35  COST  19.7195044351
    R4_35  BAL0_35  0.37241429372
    R4_35  BAL1_35  0.651623120405
    R4_35  BAL5_35  0.712463304969
    R4_35  BAL9_35  0.588245647699
    R4_35  BAL10_35  0.661865327859
    R4_35  BAL12_35  0.866444782228
    R4_35  BAL13_35  0.550285529118
    R4_35  BAL16_35  0.274301616943
    R4_35  BAL19_35  0.834659617112
    R4_35  BAL20_35  0.409988662113
    R4_35  BAL22_35  0.518920351911
    R4_35  BAL25_35  0.870854866748
    R4_35  BAL26_35  0.69803748356
    R4_35  BAL28_35  0.92583329256
    R4_35  CAP35  1
    R5_0  COST  5.65226649243
    R5_0  BAL3_0  0.794056384435
    R5_0  BAL7_0  0.271734747144
    R5_0  BAL9_0  0.805428466004
    R5_0  BAL11_0  0.532969836413
    R5_0  BAL12_0  0.214896359071
    R5_0  BAL18_0  0.179937222175
    R5_0  BAL20_0  0.390291232458
    R5_0  BAL22_0  0.623832181955
    R5_0  CAP0  1
    R5_1  COST  5.65226649243
    R5_1  BAL3_1  0.794056384435
    R5_1  BAL7_1  0.271734747144
    R5_1  BAL9_1  0.805428466004
    R5_1  BAL11_1  0.532969836413
    R5_1  BAL12_1  0.214896359071
    R5_1  BAL18_1  0.179937222175
    R5_1  BAL20_1  0.390291232458
    R5_1  BAL22_1  0.623832181955
    R5_1  CAP1  1
    R5_2  COST  5.65226649243
    R5_2  BAL3_2  0.794056384435
    R5_2  BAL7_2  0.271734747144
    R5_2  BAL9_2  0.805428466004
    R5_2  BAL11_2  0.532969836413
    R5_2  BAL12_2  0.214896359071
    R5_2  BAL18_2  0.179937222175
    R5_2  BAL20_2  0.390291232458
    R5_2  BAL22_2  0.623832181955
    R5_2  CAP2  1
    R5_3  COST  5.65226649243
    R5_3  BAL3_3  0.794056384435
    R5_3  BAL7_3  0.271734747144
    R5_3  BAL9_3  0.805428466004
    R5_3  BAL11_3  0.532969836413
    R5_3  BAL12_3  0.214896359071
    R5_3  BAL18_3  0.179937222175
    R5_3  BAL20_3  0.390291232458
    R5_3  BAL22_3  0.623832181955
    R5_3  CAP3  1
    R5_4  COST  5.65226649243
    R5_4  BAL3_4  0.794056384435
    R5_4  BAL7_4  0.271734747144
    R5_4  BAL9_4  0.805428466004
    R5_4  BAL11_4  0.532969836413
    R5_4  BAL12_4  0.214896359071
    R5_4  BAL18_4  0.179937222175
    R5_4  BAL20_4  0.390291232458
    R5_4  BAL22_4  0.623832181955
    R5_4  CAP4  1
    R5_5  COST  5.65226649243
    R5_5  BAL3_5  0.794056384435
    R5_5  BAL7_5  0.271734747144
    R5_5  BAL9_5  0.805428466004
    R5_5  BAL11_5  0.532969836413
    R5_5  BAL12_5  0.214896359071
    R5_5  BAL18_5  0.179937222175
    R5_5  BAL20_5  0.390291232458
    R5_5  BAL22_5  0.623832181955
    R5_5  CAP5  1
    R5_6  COST  5.65226649243
    R5_6  BAL3_6  0.794056384435
    R5_6  BAL7_6  0.271734747144
    R5_6  BAL9_6  0.805428466004
    R5_6  BAL11_6  0.532969836413
    R5_6  BAL12_6  0.214896359071
    R5_6  BAL18_6  0.179937222175
    R5_6  BAL20_6  0.390291232458
    R5_6  BAL22_6  0.623832181955
    R5_6  CAP6  1
    R5_7  COST  5.65226649243
    R5_7  BAL3_7  0.794056384435
    R5_7  BAL7_7  0.271734747144
    R5_7  BAL9_7  0.805428466004
    R5_7  BAL11_7  0.532969836413
    R5_7  BAL12_7  0.214896359071
    R5_7  BAL18_7  0.179937222175
    R5_7  BAL20_7  0.390291232458
    R5_7  BAL22_7  0.623832181955
    R5_7  CAP7  1
    R5_8  COST  5.65226649243
    R5_8  BAL3_8  0.794056384435
    R5_8  BAL7_8  0.271734747144
    R5_8  BAL9_8  0.805428466004
    R5_8  BAL11_8  0.532969836413
    R5_8  BAL12_8  0.214896359071
    R5_8  BAL18_8  0.179937222175
    R5_8  BAL20_8  0.390291232458
    R5_8  BAL22_8  0.623832181955
    R5_8  CAP8  1
    R5_9  COST  5.65226649243
    R5_9  BAL3_9  0.794056384435
    R5_9  BAL7_9  0.271734747144
    R5_9  BAL9_9  0.805428466004
    R5_9  BAL11_9  0.532969836413
    R5_9  BAL12_9  0.214896359071
    R5_9  BAL18_9  0.179937222175
    R5_9  BAL20_9  0.390291232458
    R5_9  BAL22_9  0.623832181955
    R5_9  CAP9  1
    R5_10  COST  5.65226649243
    R5_10  BAL3_10  0.794056384435
    R5_10  BAL7_10  0.271734747144
    R5_10  BAL9_10  0.805428466004
    R5_10  BAL11_10  0.532969836413
    R5_10  BAL12_10  0.214896359071
    R5_10  BAL18_10  0.179937222175
    R5_10  BAL20_10  0.390291232458
    R5_10  BAL22_10  0.623832181955
    R5_10  CAP10  1
    R5_11  COST  5.65226649243
    R5_11  BAL3_11  0.794056384435
    R5_11  BAL7_11  0.271734747144
    R5_11  BAL9_11  0.805428466004
    R5_11  BAL11_11  0.532969836413
    R5_11  BAL12_11  0.214896359071
    R5_11  BAL18_11  0.179937222175
    R5_11  BAL20_11  0.390291232458
    R5_11  BAL22_11  0.623832181955
    R5_11  CAP11  1
    R5_12  COST  5.65226649243
    R5_12  BAL3_12  0.794056384435
    R5_12  BAL7_12  0.271734747144
    R5_12  BAL9_12  0.805428466004
    R5_12  BAL11_12  0.532969836413
    R5_12  BAL12_12  0.214896359071
    R5_12  BAL18_12  0.179937222175
    R5_12  BAL20_12  0.390291232458
    R5_12  BAL22_12  0.623832181955
    R5_12  CAP12  1
    R5_13  COST  5.65226649243
    R5_13  BAL3_13  0.794056384435
    R5_13  BAL7_13  0.271734747144
    R5_13  BAL9_13  0.805428466004
    R5_13  BAL11_13  0.532969836413
    R5_13  BAL12_13  0.214896359071
    R5_13  BAL18_13  0.179937222175
    R5_13  BAL20_13  0.390291232458
    R5_13  BAL22_13  0.623832181955
    R5_13  CAP13  1
    R5_14  COST  5.65226649243
    R5_14  BAL3_14  0.794056384435
    R5_14  BAL7_14  0.271734747144
    R5_14  BAL9_14  0.805428466004
    R5_14  BAL11_14  0.532969836413
    R5_14  BAL12_14  0.214896359071
    R5_14  BAL18_14  0.179937222175
    R5_14  BAL20_14  0.390291232458
    R5_14  BAL22_14  0.623832181955
    R5_14  CAP14  1
    R5_15  COST  5.65226649243
    R5_15  BAL3_15  0.794056384435
    R5_15  BAL7_15  0.271734747144
    R5_15  BAL9_15  0.805428466004
    R5_15  BAL11_15  0.532969836413
    R5_15  BAL12_15  0.214896359071
    R5_15  BAL18_15  0.179937222175
    R5_15  BAL20_15  0.390291232458
    R5_15  BAL22_15  0.623832181955
    R5_15  CAP15  1
    R5_16  COST  5.65226649243
    R5_16  BAL3_16  0.794056384435
    R5_16  BAL7_16  0.271734747144
    R5_16  BAL9_16  0.805428466004
    R5_16  BAL11_16  0.532969836413
    R5_16  BAL12_16  0.214896359071
    R5_16  BAL18_16  0.179937222175
    R5_16  BAL20_16  0.390291232458
    R5_16  BAL22_16  0.623832181955
    R5_16  CAP16  1
    R5_17  COST  5.65226649243
    R5_17  BAL3_17  0.794056384435
    R5_17  BAL7_17  0.271734747144
    R5_17  BAL9_17  0.805428466004
    R5_17  BAL11_17  0.532969836413
    R5_17  BAL12_17  0.214896359071
    R5_17  BAL18_17  0.179937222175
    R5_17  BAL20_17  0.390291232458
    R5_17  BAL22_17  0.623832181955
    R5_17  CAP17  1
    R5_18  COST  5.65226649243
    R5_18  BAL3_18  0.794056384435
    R5_18  BAL7_18  0.271734747144
    R5_18  BAL9_18  0.805428466004
    R5_18  BAL11_18  0.532969836413
    R5_18  BAL12_18  0.214896359071
    R5_18  BAL18_18  0.179937222175
    R5_18  BAL20_18  0.390291232458
    R5_18  BAL22_18  0.623832181955
    R5_18  CAP18  1
    R5_19  COST  5.65226649243
    R5_19  BAL3_19  0.794056384435
    R5_19  BAL7_19  0.271734747144
    R5_19  BAL9_19  0.805428466004
    R5_19  BAL11_19  0.532969836413
    R5_19  BAL12_19  0.214896359071
    R5_19  BAL18_19  0.179937222175
    R5_19  BAL20_19  0.390291232458
    R5_19  BAL22_19  0.623832181955
    R5_19  CAP19  1
    R5_20  COST  5.65226649243
    R5_20  BAL3_20  0.794056384435
    R5_20  BAL7_20  0.271734747144
    R5_20  BAL9_20  0.805428466004
    R5_20  BAL11_20  0.532969836413
    R5_20  BAL12_20  0.214896359071
    R5_20  BAL18_20  0.179937222175
    R5_20  BAL20_20  0.390291232458
    R5_20  BAL22_20  0.623832181955
    R5_20  CAP20  1
    R5_21  COST  5.65226649243
    R5_21  BAL3_21  0.794056384435
    R5_21  BAL7_21  0.271734747144
    R5_21  BAL9_21  0.805428466004
    R5_21  BAL11_21  0.532969836413
    R5_21  BAL12_21  0.214896359071
    R5_21  BAL18_21  0.179937222175
    R5_21  BAL20_21  0.390291232458
    R5_21  BAL22_21  0.623832181955
    R5_21  CAP21  1
    R5_22  COST  5.65226649243
    R5_22  BAL3_22  0.794056384435
    R5_22  BAL7_22  0.271734747144
    R5_22  BAL9_22  0.805428466004
    R5_22  BAL11_22  0.532969836413
    R5_22  BAL12_22  0.214896359071
    R5_22  BAL18_22  0.179937222175
    R5_22  BAL20_22  0.390291232458
    R5_22  BAL22_22  0.623832181955
    R5_22  CAP22  1
    R5_23  COST  5.65226649243
    R5_23  BAL3_23  0.794056384435
    R5_23  BAL7_23  0.271734747144
    R5_23  BAL9_23  0.805428466004
    R5_23  BAL11_23  0.532969836413
    R5_23  BAL12_23  0.214896359071
    R5_23  BAL18_23  0.179937222175
    R5_23  BAL20_23  0.390291232458
    R5_23  BAL22_23  0.623832181955
    R5_23  CAP23  1
    R5_24  COST  5.65226649243
    R5_24  BAL3_24  0.794056384435
    R5_24  BAL7_24  0.271734747144
    R5_24  BAL9_24  0.805428466004
    R5_24  BAL11_24  0.532969836413
    R5_24  BAL12_24  0.214896359071
    R5_24  BAL18_24  0.179937222175
    R5_24  BAL20_24  0.390291232458
    R5_24  BAL22_24  0.623832181955
    R5_24  CAP24  1
    R5_25  COST  5.65226649243
    R5_25  BAL3_25  0.794056384435
    R5_25  BAL7_25  0.271734747144
    R5_25  BAL9_25  0.805428466004
    R5_25  BAL11_25  0.532969836413
    R5_25  BAL12_25  0.214896359071
    R5_25  BAL18_25  0.179937222175
    R5_25  BAL20_25  0.390291232458
    R5_25  BAL22_25  0.623832181955
    R5_25  CAP25  1
    R5_26  COST  5.65226649243
    R5_26  BAL3_26  0.794056384435
    R5_26  BAL7_26  0.271734747144
    R5_26  BAL9_26  0.805428466004
    R5_26  BAL11_26  0.532969836413
    R5_26  BAL12_26  0.214896359071
    R5_26  BAL18_26  0.179937222175
    R5_26  BAL20_26  0.390291232458
    R5_26  BAL22_26  0.623832181955
    R5_26  CAP26  1
    R5_27  COST  5.65226649243
    R5_27  BAL3_27  0.794056384435
    R5_27  BAL7_27  0.271734747144
    R5_27  BAL9_27  0.805428466004
    R5_27  BAL11_27  0.532969836413
    R5_27  BAL12_27  0.214896359071
    R5_27  BAL18_27  0.179937222175
    R5_27  BAL20_27  0.390291232458
    R5_27  BAL22_27  0.623832181955
    R5_27  CAP27  1
    R5_28  COST  5.65226649243
    R5_28  BAL3_28  0.794056384435
    R5_28  BAL7_28  0.271734747144
    R5_28  BAL9_28  0.805428466004
    R5_28  BAL11_28  0.532969836413
    R5_28  BAL12_28  0.214896359071
    R5_28  BAL18_28  0.179937222175
    R5_28  BAL20_28  0.390291232458
    R5_28  BAL22_28  0.623832181955
    R5_28  CAP28  1
    R5_29  COST  5.65226649243
    R5_29  BAL3_29  0.794056384435
    R5_29  BAL7_29  0.271734747144
    R5_29  BAL9_29  0.805428466004
    R5_29  BAL11_29  0.532969836413
    R5_29  BAL12_29  0.214896359071
    R5_29  BAL18_29  0.179937222175
    R5_29  BAL20_29  0.390291232458
    R5_29  BAL22_29  0.623832181955
    R5_29  CAP29  1
    R5_30  COST  5.65226649243
    R5_30  BAL3_30  0.794056384435
    R5_30  BAL7_30  0.271734747144
    R5_30  BAL9_30  0.805428466004
    R5_30  BAL11_30  0.532969836413
    R5_30  BAL12_30  0.214896359071
    R5_30  BAL18_30  0.179937222175
    R5_30  BAL20_30  0.390291232458
    R5_30  BAL22_30  0.623832181955
    R5_30  CAP30  1
    R5_31  COST  5.65226649243
    R5_31  BAL3_31  0.794056384435
    R5_31  BAL7_31  0.271734747144
    R5_31  BAL9_31  0.805428466004
    R5_31  BAL11_31  0.532969836413
    R5_31  BAL12_31  0.214896359071
    R5_31  BAL18_31  0.179937222175
    R5_31  BAL20_31  0.390291232458
    R5_31  BAL22_31  0.623832181955
    R5_31  CAP31  1
    R5_32  COST  5.65226649243
    R5_32  BAL3_32  0.794056384435
    R5_32  BAL7_32  0.271734747144
    R5_32  BAL9_32  0.805428466004
    R5_32  BAL11_32  0.532969836413
    R5_32  BAL12_32  0.214896359071
    R5_32  BAL18_32  0.179937222175
    R5_32  BAL20_32  0.390291232458
    R5_32  BAL22_32  0.623832181955
    R5_32  CAP32  1
    R5_33  COST  5.65226649243
    R5_33  BAL3_33  0.794056384435
    R5_33  BAL7_33  0.271734747144
    R5_33  BAL9_33  0.805428466004
    R5_33  BAL11_33  0.532969836413
    R5_33  BAL12_33  0.214896359071
    R5_33  BAL18_33  0.179937222175
    R5_33  BAL20_33  0.390291232458
    R5_33  BAL22_33  0.623832181955
    R5_33  CAP33  1
    R5_34  COST  5.65226649243
    R5_34  BAL3_34  0.794056384435
    R5_34  BAL7_34  0.271734747144
    R5_34  BAL9_34  0.805428466004
    R5_34  BAL11_34  0.532969836413
    R5_34  BAL12_34  0.214896359071
    R5_34  BAL18_34  0.179937222175
    R5_34  BAL20_34  0.390291232458
    R5_34  BAL22_34  0.623832181955
    R5_34  CAP34  1
    R5_35  COST  5.65226649243
    R5_35  BAL3_35  0.794056384435
    R5_35  BAL7_35  0.271734747144
    R5_35  BAL9_35  0.805428466004
    R5_35  BAL11_35  0.532969836413
    R5_35  BAL12_35  0.214896359071
    R5_35  BAL18_35  0.179937222175
    R5_35  BAL20_35  0.390291232458
    R5_35  BAL22_35  0.623832181955
    R5_35  CAP35  1
    R6_0  COST  15.9538533502
    R6_0  BAL0_0  0.437417919539
    R6_0  BAL3_0  0.162903581991
    R6_0  BAL4_0  0.392198635184
    R6_0  BAL5_0  0.527375226486
    R6_0  BAL6_0  0.722115770723
    R6_0  BAL9_0  0.296936289604
    R6_0  BAL10_0  0.613812005752
    R6_0  BAL13_0  0.254970134222
    R6_0  BAL16_0  0.914839870541
    R6_0  BAL20_0  0.586180186065
    R6_0  BAL21_0  0.317923299179
    R6_0  BAL28_0  0.801788170049
    R6_0  CAP0  1
    R6_1  COST  15.9538533502
    R6_1  BAL0_1  0.437417919539
    R6_1  BAL3_1  0.162903581991
    R6_1  BAL4_1  0.392198635184
    R6_1  BAL5_1  0.527375226486
    R6_1  BAL6_1  0.722115770723
    R6_1  BAL9_1  0.296936289604
    R6_1  BAL10_1  0.613812005752
    R6_1  BAL13_1  0.254970134222
    R6_1  BAL16_1  0.914839870541
    R6_1  BAL20_1  0.586180186065
    R6_1  BAL21_1  0.317923299179
    R6_1  BAL28_1  0.801788170049
    R6_1  CAP1  1
    R6_2  COST  15.9538533502
    R6_2  BAL0_2  0.437417919539
    R6_2  BAL3_2  0.162903581991
    R6_2  BAL4_2  0.392198635184
    R6_2  BAL5_2  0.527375226486
    R6_2  BAL6_2  0.722115770723
    R6_2  BAL9_2  0.296936289604
    R6_2  BAL10_2  0.613812005752
    R6_2  BAL13_2  0.254970134222
    R6_2  BAL16_2  0.914839870541
    R6_2  BAL20_2  0.586180186065
    R6_2  BAL21_2  0.317923299179
    R6_2  BAL28_2  0.801788170049
    R6_2  CAP2  1
    R6_3  COST  15.9538533502
    R6_3  BAL0_3  0.437417919539
    R6_3  BAL3_3  0.162903581991
    R6_3  BAL4_3  0.392198635184
    R6_3  BAL5_3  0.527375226486
    R6_3  BAL6_3  0.722115770723
    R6_3  BAL9_3  0.296936289604
    R6_3  BAL10_3  0.613812005752
    R6_3  BAL13_3  0.254970134222
    R6_3  BAL16_3  0.914839870541
    R6_3  BAL20_3  0.586180186065
    R6_3  BAL21_3  0.317923299179
    R6_3  BAL28_3  0.801788170049
    R6_3  CAP3  1
    R6_4  COST  15.9538533502
    R6_4  BAL0_4  0.437417919539
    R6_4  BAL3_4  0.162903581991
    R6_4  BAL4_4  0.392198635184
    R6_4  BAL5_4  0.527375226486
    R6_4  BAL6_4  0.722115770723
    R6_4  BAL9_4  0.296936289604
    R6_4  BAL10_4  0.613812005752
    R6_4  BAL13_4  0.254970134222
    R6_4  BAL16_4  0.914839870541
    R6_4  BAL20_4  0.586180186065
    R6_4  BAL21_4  0.317923299179
    R6_4  BAL28_4  0.801788170049
    R6_4  CAP4  1
    R6_5  COST  15.9538533502
    R6_5  BAL0_5  0.437417919539
    R6_5  BAL3_5  0.162903581991
    R6_5  BAL4_5  0.392198635184
    R6_5  BAL5_5  0.527375226486
    R6_5  BAL6_5  0.722115770723
    R6_5  BAL9_5  0.296936289604
    R6_5  BAL10_5  0.613812005752
    R6_5  BAL13_5  0.254970134222
    R6_5  BAL16_5  0.914839870541
    R6_5  BAL20_5  0.586180186065
    R6_5  BAL21_5  0.317923299179
    R6_5  BAL28_5  0.801788170049
    R6_5  CAP5  1
    R6_6  COST  15.9538533502
    R6_6  BAL0_6  0.437417919539
    R6_6  BAL3_6  0.162903581991
    R6_6  BAL4_6  0.392198635184
    R6_6  BAL5_6  0.527375226486
    R6_6  BAL6_6  0.722115770723
    R6_6  BAL9_6  0.296936289604
    R6_6  BAL10_6  0.613812005752
    R6_6  BAL13_6  0.254970134222
    R6_6  BAL16_6  0.914839870541
    R6_6  BAL20_6  0.586180186065
    R6_6  BAL21_6  0.317923299179
    R6_6  BAL28_6  0.801788170049
    R6_6  CAP6  1
    R6_7  COST  15.9538533502
    R6_7  BAL0_7  0.437417919539
    R6_7  BAL3_7  0.162903581991
    R6_7  BAL4_7  0.392198635184
    R6_7  BAL5_7  0.527375226486
    R6_7  BAL6_7  0.722115770723
    R6_7  BAL9_7  0.296936289604
    R6_7  BAL10_7  0.613812005752
    R6_7  BAL13_7  0.254970134222
    R6_7  BAL16_7  0.914839870541
    R6_7  BAL20_7  0.586180186065
    R6_7  BAL21_7  0.317923299179
    R6_7  BAL28_7  0.801788170049
    R6_7  CAP7  1
    R6_8  COST  15.9538533502
    R6_8  BAL0_8  0.437417919539
    R6_8  BAL3_8  0.162903581991
    R6_8  BAL4_8  0.392198635184
    R6_8  BAL5_8  0.527375226486
    R6_8  BAL6_8  0.722115770723
    R6_8  BAL9_8  0.296936289604
    R6_8  BAL10_8  0.613812005752
    R6_8  BAL13_8  0.254970134222
    R6_8  BAL16_8  0.914839870541
    R6_8  BAL20_8  0.586180186065
    R6_8  BAL21_8  0.317923299179
    R6_8  BAL28_8  0.801788170049
    R6_8  CAP8  1
    R6_9  COST  15.9538533502
    R6_9  BAL0_9  0.437417919539
    R6_9  BAL3_9  0.162903581991
    R6_9  BAL4_9  0.392198635184
    R6_9  BAL5_9  0.527375226486
    R6_9  BAL6_9  0.722115770723
    R6_9  BAL9_9  0.296936289604
    R6_9  BAL10_9  0.613812005752
    R6_9  BAL13_9  0.254970134222
    R6_9  BAL16_9  0.914839870541
    R6_9  BAL20_9  0.586180186065
    R6_9  BAL21_9  0.317923299179
    R6_9  BAL28_9  0.801788170049
    R6_9  CAP9  1
    R6_10  COST  15.9538533502
    R6_10  BAL0_10  0.437417919539
    R6_10  BAL3_10  0.162903581991
    R6_10  BAL4_10  0.392198635184
    R6_10  BAL5_10  0.527375226486
    R6_10  BAL6_10  0.722115770723
    R6_10  BAL9_10  0.296936289604
    R6_10  BAL10_10  0.613812005752
    R6_10  BAL13_10  0.254970134222
    R6_10  BAL16_10  0.914839870541
    R6_10  BAL20_10  0.586180186065
    R6_10  BAL21_10  0.317923299179
    R6_10  BAL28_10  0.801788170049
    R6_10  CAP10  1
    R6_11  COST  15.9538533502
    R6_11  BAL0_11  0.437417919539
    R6_11  BAL3_11  0.162903581991
    R6_11  BAL4_11  0.392198635184
    R6_11  BAL5_11  0.527375226486
    R6_11  BAL6_11  0.722115770723
    R6_11  BAL9_11  0.296936289604
    R6_11  BAL10_11  0.613812005752
    R6_11  BAL13_11  0.254970134222
    R6_11  BAL16_11  0.914839870541
    R6_11  BAL20_11  0.586180186065
    R6_11  BAL21_11  0.317923299179
    R6_11  BAL28_11  0.801788170049
    R6_11  CAP11  1
    R6_12  COST  15.9538533502
    R6_12  BAL0_12  0.437417919539
    R6_12  BAL3_12  0.162903581991
    R6_12  BAL4_12  0.392198635184
    R6_12  BAL5_12  0.527375226486
    R6_12  BAL6_12  0.722115770723
    R6_12  BAL9_12  0.296936289604
    R6_12  BAL10_12  0.613812005752
    R6_12  BAL13_12  0.254970134222
    R6_12  BAL16_12  0.914839870541
    R6_12  BAL20_12  0.586180186065
    R6_12  BAL21_12  0.317923299179
    R6_12  BAL28_12  0.801788170049
    R6_12  CAP12  1
    R6_13  COST  15.9538533502
    R6_13  BAL0_13  0.437417919539
    R6_13  BAL3_13  0.162903581991
    R6_13  BAL4_13  0.392198635184
    R6_13  BAL5_13  0.527375226486
    R6_13  BAL6_13  0.722115770723
    R6_13  BAL9_13  0.296936289604
    R6_13  BAL10_13  0.613812005752
    R6_13  BAL13_13  0.254970134222
    R6_13  BAL16_13  0.914839870541
    R6_13  BAL20_13  0.586180186065
    R6_13  BAL21_13  0.317923299179
    R6_13  BAL28_13  0.801788170049
    R6_13  CAP13  1
    R6_14  COST  15.9538533502
    R6_14  BAL0_14  0.437417919539
    R6_14  BAL3_14  0.162903581991
    R6_14  BAL4_14  0.392198635184
    R6_14  BAL5_14  0.527375226486
    R6_14  BAL6_14  0.722115770723
    R6_14  BAL9_14  0.296936289604
    R6_14  BAL10_14  0.613812005752
    R6_14  BAL13_14  0.254970134222
    R6_14  BAL16_14  0.914839870541
    R6_14  BAL20_14  0.586180186065
    R6_14  BAL21_14  0.317923299179
    R6_14  BAL28_14  0.801788170049
    R6_14  CAP14  1
    R6_15  COST  15.9538533502
    R6_15  BAL0_15  0.437417919539
    R6_15  BAL3_15  0.162903581991
    R6_15  BAL4_15  0.392198635184
    R6_15  BAL5_15  0.527375226486
    R6_15  BAL6_15  0.722115770723
    R6_15  BAL9_15  0.296936289604
    R6_15  BAL10_15  0.613812005752
    R6_15  BAL13_15  0.254970134222
    R6_15  BAL16_15  0.914839870541
    R6_15  BAL20_15  0.586180186065
    R6_15  BAL21_15  0.317923299179
    R6_15  BAL28_15  0.801788170049
    R6_15  CAP15  1
    R6_16  COST  15.9538533502
    R6_16  BAL0_16  0.437417919539
    R6_16  BAL3_16  0.162903581991
    R6_16  BAL4_16  0.392198635184
    R6_16  BAL5_16  0.527375226486
    R6_16  BAL6_16  0.722115770723
    R6_16  BAL9_16  0.296936289604
    R6_16  BAL10_16  0.613812005752
    R6_16  BAL13_16  0.254970134222
    R6_16  BAL16_16  0.914839870541
    R6_16  BAL20_16  0.586180186065
    R6_16  BAL21_16  0.317923299179
    R6_16  BAL28_16  0.801788170049
    R6_16  CAP16  1
    R6_17  COST  15.9538533502
    R6_17  BAL0_17  0.437417919539
    R6_17  BAL3_17  0.162903581991
    R6_17  BAL4_17  0.392198635184
    R6_17  BAL5_17  0.527375226486
    R6_17  BAL6_17  0.722115770723
    R6_17  BAL9_17  0.296936289604
    R6_17  BAL10_17  0.613812005752
    R6_17  BAL13_17  0.254970134222
    R6_17  BAL16_17  0.914839870541
    R6_17  BAL20_17  0.586180186065
    R6_17  BAL21_17  0.317923299179
    R6_17  BAL28_17  0.801788170049
    R6_17  CAP17  1
    R6_18  COST  15.9538533502
    R6_18  BAL0_18  0.437417919539
    R6_18  BAL3_18  0.162903581991
    R6_18  BAL4_18  0.392198635184
    R6_18  BAL5_18  0.527375226486
    R6_18  BAL6_18  0.722115770723
    R6_18  BAL9_18  0.296936289604
    R6_18  BAL10_18  0.613812005752
    R6_18  BAL13_18  0.254970134222
    R6_18  BAL16_18  0.914839870541
    R6_18  BAL20_18  0.586180186065
    R6_18  BAL21_18  0.317923299179
    R6_18  BAL28_18  0.801788170049
    R6_18  CAP18  1
    R6_19  COST  15.9538533502
    R6_19  BAL0_19  0.437417919539
    R6_19  BAL3_19  0.162903581991
    R6_19  BAL4_19  0.392198635184
    R6_19  BAL5_19  0.527375226486
    R6_19  BAL6_19  0.722115770723
    R6_19  BAL9_19  0.296936289604
    R6_19  BAL10_19  0.613812005752
    R6_19  BAL13_19  0.254970134222
    R6_19  BAL16_19  0.914839870541
    R6_19  BAL20_19  0.586180186065
    R6_19  BAL21_19  0.317923299179
    R6_19  BAL28_19  0.801788170049
    R6_19  CAP19  1
    R6_20  COST  15.9538533502
    R6_20  BAL0_20  0.437417919539
    R6_20  BAL3_20  0.162903581991
    R6_20  BAL4_20  0.392198635184
    R6_20  BAL5_20  0.527375226486
    R6_20  BAL6_20  0.722115770723
    R6_20  BAL9_20  0.296936289604
    R6_20  BAL10_20  0.613812005752
    R6_20  BAL13_20  0.254970134222
    R6_20  BAL16_20  0.914839870541
    R6_20  BAL20_20  0.586180186065
    R6_20  BAL21_20  0.317923299179
    R6_20  BAL28_20  0.801788170049
    R6_20  CAP20  1
    R6_21  COST  15.9538533502
    R6_21  BAL0_21  0.437417919539
    R6_21  BAL3_21  0.162903581991
    R6_21  BAL4_21  0.392198635184
    R6_21  BAL5_21  0.527375226486
    R6_21  BAL6_21  0.722115770723
    R6_21  BAL9_21  0.296936289604
    R6_21  BAL10_21  0.613812005752
    R6_21  BAL13_21  0.254970134222
    R6_21  BAL16_21  0.914839870541
    R6_21  BAL20_21  0.586180186065
    R6_21  BAL21_21  0.317923299179
    R6_21  BAL28_21  0.801788170049
    R6_21  CAP21  1
    R6_22  COST  15.9538533502
    R6_22  BAL0_22  0.437417919539
    R6_22  BAL3_22  0.162903581991
    R6_22  BAL4_22  0.392198635184
    R6_22  BAL5_22  0.527375226486
    R6_22  BAL6_22  0.722115770723
    R6_22  BAL9_22  0.296936289604
    R6_22  BAL10_22  0.613812005752
    R6_22  BAL13_22  0.254970134222
    R6_22  BAL16_22  0.914839870541
    R6_22  BAL20_22  0.586180186065
    R6_22  BAL21_22  0.317923299179
    R6_22  BAL28_22  0.801788170049
    R6_22  CAP22  1
    R6_23  COST  15.9538533502
    R6_23  BAL0_23  0.437417919539
    R6_23  BAL3_23  0.162903581991
    R6_23  BAL4_23  0.392198635184
    R6_23  BAL5_23  0.527375226486
    R6_23  BAL6_23  0.722115770723
    R6_23  BAL9_23  0.296936289604
    R6_23  BAL10_23  0.613812005752
    R6_23  BAL13_23  0.254970134222
    R6_23  BAL16_23  0.914839870541
    R6_23  BAL20_23  0.586180186065
    R6_23  BAL21_23  0.317923299179
    R6_23  BAL28_23  0.801788170049
    R6_23  CAP23  1
    R6_24  COST  15.9538533502
    R6_24  BAL0_24  0.437417919539
    R6_24  BAL3_24  0.162903581991
    R6_24  BAL4_24  0.392198635184
    R6_24  BAL5_24  0.527375226486
    R6_24  BAL6_24  0.722115770723
    R6_24  BAL9_24  0.296936289604
    R6_24  BAL10_24  0.613812005752
    R6_24  BAL13_24  0.254970134222
    R6_24  BAL16_24  0.914839870541
    R6_24  BAL20_24  0.586180186065
    R6_24  BAL21_24  0.317923299179
    R6_24  BAL28_24  0.801788170049
    R6_24  CAP24  1
    R6_25  COST  15.9538533502
    R6_25  BAL0_25  0.437417919539
    R6_25  BAL3_25  0.162903581991
    R6_25  BAL4_25  0.392198635184
    R6_25  BAL5_25  0.527375226486
    R6_25  BAL6_25  0.722115770723
    R6_25  BAL9_25  0.296936289604
    R6_25  BAL10_25  0.613812005752
    R6_25  BAL13_25  0.254970134222
    R6_25  BAL16_25  0.914839870541
    R6_25  BAL20_25  0.586180186065
    R6_25  BAL21_25  0.317923299179
    R6_25  BAL28_25  0.801788170049
    R6_25  CAP25  1
    R6_26  COST  15.9538533502
    R6_26  BAL0_26  0.437417919539
    R6_26  BAL3_26  0.162903581991
    R6_26  BAL4_26  0.392198635184
    R6_26  BAL5_26  0.527375226486
    R6_26  BAL6_26  0.722115770723
    R6_26  BAL9_26  0.296936289604
    R6_26  BAL10_26  0.613812005752
    R6_26  BAL13_26  0.254970134222
    R6_26  BAL16_26  0.914839870541
    R6_26  BAL20_26  0.586180186065
    R6_26  BAL21_26  0.317923299179
    R6_26  BAL28_26  0.801788170049
    R6_26  CAP26  1
    R6_27  COST  15.9538533502
    R6_27  BAL0_27  0.437417919539
    R6_27  BAL3_27  0.162903581991
    R6_27  BAL4_27  0.392198635184
    R6_27  BAL5_27  0.527375226486
    R6_27  BAL6_27  0.722115770723
    R6_27  BAL9_27  0.296936289604
    R6_27  BAL10_27  0.613812005752
    R6_27  BAL13_27  0.254970134222
    R6_27  BAL16_27  0.914839870541
    R6_27  BAL20_27  0.586180186065
    R6_27  BAL21_27  0.317923299179
    R6_27  BAL28_27  0.801788170049
    R6_27  CAP27  1
    R6_28  COST  15.9538533502
    R6_28  BAL0_28  0.437417919539
    R6_28  BAL3_28  0.162903581991
    R6_28  BAL4_28  0.392198635184
    R6_28  BAL5_28  0.527375226486
    R6_28  BAL6_28  0.722115770723
    R6_28  BAL9_28  0.296936289604
    R6_28  BAL10_28  0.613812005752
    R6_28  BAL13_28  0.254970134222
    R6_28  BAL16_28  0.914839870541
    R6_28  BAL20_28  0.586180186065
    R6_28  BAL21_28  0.317923299179
    R6_28  BAL28_28  0.801788170049
    R6_28  CAP28  1
    R6_29  COST  15.9538533502
    R6_29  BAL0_29  0.437417919539
    R6_29  BAL3_29  0.162903581991
    R6_29  BAL4_29  0.392198635184
    R6_29  BAL5_29  0.527375226486
    R6_29  BAL6_29  0.722115770723
    R6_29  BAL9_29  0.296936289604
    R6_29  BAL10_29  0.613812005752
    R6_29  BAL13_29  0.254970134222
    R6_29  BAL16_29  0.914839870541
    R6_29  BAL20_29  0.586180186065
    R6_29  BAL21_29  0.317923299179
    R6_29  BAL28_29  0.801788170049
    R6_29  CAP29  1
    R6_30  COST  15.9538533502
    R6_30  BAL0_30  0.437417919539
    R6_30  BAL3_30  0.162903581991
    R6_30  BAL4_30  0.392198635184
    R6_30  BAL5_30  0.527375226486
    R6_30  BAL6_30  0.722115770723
    R6_30  BAL9_30  0.296936289604
    R6_30  BAL10_30  0.613812005752
    R6_30  BAL13_30  0.254970134222
    R6_30  BAL16_30  0.914839870541
    R6_30  BAL20_30  0.586180186065
    R6_30  BAL21_30  0.317923299179
    R6_30  BAL28_30  0.801788170049
    R6_30  CAP30  1
    R6_31  COST  15.9538533502
    R6_31  BAL0_31  0.437417919539
    R6_31  BAL3_31  0.162903581991
    R6_31  BAL4_31  0.392198635184
    R6_31  BAL5_31  0.527375226486
    R6_31  BAL6_31  0.722115770723
    R6_31  BAL9_31  0.296936289604
    R6_31  BAL10_31  0.613812005752
    R6_31  BAL13_31  0.254970134222
    R6_31  BAL16_31  0.914839870541
    R6_31  BAL20_31  0.586180186065
    R6_31  BAL21_31  0.317923299179
    R6_31  BAL28_31  0.801788170049
    R6_31  CAP31  1
    R6_32  COST  15.9538533502
    R6_32  BAL0_32  0.437417919539
    R6_32  BAL3_32  0.162903581991
    R6_32  BAL4_32  0.392198635184
    R6_32  BAL5_32  0.527375226486
    R6_32  BAL6_32  0.722115770723
    R6_32  BAL9_32  0.296936289604
    R6_32  BAL10_32  0.613812005752
    R6_32  BAL13_32  0.254970134222
    R6_32  BAL16_32  0.914839870541
    R6_32  BAL20_32  0.586180186065
    R6_32  BAL21_32  0.317923299179
    R6_32  BAL28_32  0.801788170049
    R6_32  CAP32  1
    R6_33  COST  15.9538533502
    R6_33  BAL0_33  0.437417919539
    R6_33  BAL3_33  0.162903581991
    R6_33  BAL4_33  0.392198635184
    R6_33  BAL5_33  0.527375226486
    R6_33  BAL6_33  0.722115770723
    R6_33  BAL9_33  0.296936289604
    R6_33  BAL10_33  0.613812005752
    R6_33  BAL13_33  0.254970134222
    R6_33  BAL16_33  0.914839870541
    R6_33  BAL20_33  0.586180186065
    R6_33  BAL21_33  0.317923299179
    R6_33  BAL28_33  0.801788170049
    R6_33  CAP33  1
    R6_34  COST  15.9538533502
    R6_34  BAL0_34  0.437417919539
    R6_34  BAL3_34  0.162903581991
    R6_34  BAL4_34  0.392198635184
    R6_34  BAL5_34  0.527375226486
    R6_34  BAL6_34  0.722115770723
    R6_34  BAL9_34  0.296936289604
    R6_34  BAL10_34  0.613812005752
    R6_34  BAL13_34  0.254970134222
    R6_34  BAL16_34  0.914839870541
    R6_34  BAL20_34  0.586180186065
    R6_34  BAL21_34  0.317923299179
    R6_34  BAL28_34  0.801788170049
    R6_34  CAP34  1
    R6_35  COST  15.9538533502
    R6_35  BAL0_35  0.437417919539
    R6_35  BAL3_35  0.162903581991
    R6_35  BAL4_35  0.392198635184
    R6_35  BAL5_35  0.527375226486
    R6_35  BAL6_35  0.722115770723
    R6_35  BAL9_35  0.296936289604
    R6_35  BAL10_35  0.613812005752
    R6_35  BAL13_35  0.254970134222
    R6_35  BAL16_35  0.914839870541
    R6_35  BAL20_35  0.586180186065
    R6_35  BAL21_35  0.317923299179
    R6_35  BAL28_35  0.801788170049
    R6_35  CAP35  1
    R7_0  COST  10.8826971857
    R7_0  BAL1_0  0.609030537475
    R7_0  BAL7_0  0.597740114116
    R7_0  BAL13_0  0.922146189144
    R7_0  BAL15_0  0.214574989904
    R7_0  BAL16_0  0.657303538515
    R7_0  BAL17_0  0.910707130838
    R7_0  BAL19_0  0.464026708422
    R7_0  BAL20_0  0.74712971781
    R7_0  BAL21_0  0.677513571191
    R7_0  BAL24_0  0.451607297139
    R7_0  BAL26_0  0.704836548499
    R7_0  CAP0  1
    R7_1  COST  10.8826971857
    R7_1  BAL1_1  0.609030537475
    R7_1  BAL7_1  0.597740114116
    R7_1  BAL13_1  0.922146189144
    R7_1  BAL15_1  0.214574989904
    R7_1  BAL16_1  0.657303538515
    R7_1  BAL17_1  0.910707130838
    R7_1  BAL19_1  0.464026708422
    R7_1  BAL20_1  0.74712971781
    R7_1  BAL21_1  0.677513571191
    R7_1  BAL24_1  0.451607297139
    R7_1  BAL26_1  0.704836548499
    R7_1  CAP1  1
    R7_2  COST  10.8826971857
    R7_2  BAL1_2  0.609030537475
    R7_2  BAL7_2  0.597740114116
    R7_2  BAL13_2  0.922146189144
    R7_2  BAL15_2  0.214574989904
    R7_2  BAL16_2  0.657303538515
    R7_2  BAL17_2  0.910707130838
    R7_2  BAL19_2  0.464026708422
    R7_2  BAL20_2  0.74712971781
    R7_2  BAL21_2  0.677513571191
    R7_2  BAL24_2  0.451607297139
    R7_2  BAL26_2  0.704836548499
    R7_2  CAP2  1
    R7_3  COST  10.8826971857
    R7_3  BAL1_3  0.609030537475
    R7_3  BAL7_3  0.597740114116
    R7_3  BAL13_3  0.922146189144
    R7_3  BAL15_3  0.214574989904
    R7_3  BAL16_3  0.657303538515
    R7_3  BAL17_3  0.910707130838
    R7_3  BAL19_3  0.464026708422
    R7_3  BAL20_3  0.74712971781
    R7_3  BAL21_3  0.677513571191
    R7_3  BAL24_3  0.451607297139
    R7_3  BAL26_3  0.704836548499
    R7_3  CAP3  1
    R7_4  COST  10.8826971857
    R7_4  BAL1_4  0.609030537475
    R7_4  BAL7_4  0.597740114116
    R7_4  BAL13_4  0.922146189144
    R7_4  BAL15_4  0.214574989904
    R7_4  BAL16_4  0.657303538515
    R7_4  BAL17_4  0.910707130838
    R7_4  BAL19_4  0.464026708422
    R7_4  BAL20_4  0.74712971781
    R7_4  BAL21_4  0.677513571191
    R7_4  BAL24_4  0.451607297139
    R7_4  BAL26_4  0.704836548499
    R7_4  CAP4  1
    R7_5  COST  10.8826971857
    R7_5  BAL1_5  0.609030537475
    R7_5  BAL7_5  0.597740114116
    R7_5  BAL13_5  0.922146189144
    R7_5  BAL15_5  0.214574989904
    R7_5  BAL16_5  0.657303538515
    R7_5  BAL17_5  0.910707130838
    R7_5  BAL19_5  0.464026708422
    R7_5  BAL20_5  0.74712971781
    R7_5  BAL21_5  0.677513571191
    R7_5  BAL24_5  0.451607297139
    R7_5  BAL26_5  0.704836548499
    R7_5  CAP5  1
    R7_6  COST  10.8826971857
    R7_6  BAL1_6  0.609030537475
    R7_6  BAL7_6  0.597740114116
    R7_6  BAL13_6  0.922146189144
    R7_6  BAL15_6  0.214574989904
    R7_6  BAL16_6  0.657303538515
    R7_6  BAL17_6  0.910707130838
    R7_6  BAL19_6  0.464026708422
    R7_6  BAL20_6  0.74712971781
    R7_6  BAL21_6  0.677513571191
    R7_6  BAL24_6  0.451607297139
    R7_6  BAL26_6  0.704836548499
    R7_6  CAP6  1
    R7_7  COST  10.8826971857
    R7_7  BAL1_7  0.609030537475
    R7_7  BAL7_7  0.597740114116
    R7_7  BAL13_7  0.922146189144
    R7_7  BAL15_7  0.214574989904
    R7_7  BAL16_7  0.657303538515
    R7_7  BAL17_7  0.910707130838
    R7_7  BAL19_7  0.464026708422
    R7_7  BAL20_7  0.74712971781
    R7_7  BAL21_7  0.677513571191
    R7_7  BAL24_7  0.451607297139
    R7_7  BAL26_7  0.704836548499
    R7_7  CAP7  1
    R7_8  COST  10.8826971857
    R7_8  BAL1_8  0.609030537475
    R7_8  BAL7_8  0.597740114116
    R7_8  BAL13_8  0.922146189144
    R7_8  BAL15_8  0.214574989904
    R7_8  BAL16_8  0.657303538515
    R7_8  BAL17_8  0.910707130838
    R7_8  BAL19_8  0.464026708422
    R7_8  BAL20_8  0.74712971781
    R7_8  BAL21_8  0.677513571191
    R7_8  BAL24_8  0.451607297139
    R7_8  BAL26_8  0.704836548499
    R7_8  CAP8  1
    R7_9  COST  10.8826971857
    R7_9  BAL1_9  0.609030537475
    R7_9  BAL7_9  0.597740114116
    R7_9  BAL13_9  0.922146189144
    R7_9  BAL15_9  0.214574989904
    R7_9  BAL16_9  0.657303538515
    R7_9  BAL17_9  0.910707130838
    R7_9  BAL19_9  0.464026708422
    R7_9  BAL20_9  0.74712971781
    R7_9  BAL21_9  0.677513571191
    R7_9  BAL24_9  0.451607297139
    R7_9  BAL26_9  0.704836548499
    R7_9  CAP9  1
    R7_10  COST  10.8826971857
    R7_10  BAL1_10  0.609030537475
    R7_10  BAL7_10  0.597740114116
    R7_10  BAL13_10  0.922146189144
    R7_10  BAL15_10  0.214574989904
    R7_10  BAL16_10  0.657303538515
    R7_10  BAL17_10  0.910707130838
    R7_10  BAL19_10  0.464026708422
    R7_10  BAL20_10  0.74712971781
    R7_10  BAL21_10  0.677513571191
    R7_10  BAL24_10  0.451607297139
    R7_10  BAL26_10  0.704836548499
    R7_10  CAP10  1
    R7_11  COST  10.8826971857
    R7_11  BAL1_11  0.609030537475
    R7_11  BAL7_11  0.597740114116
    R7_11  BAL13_11  0.922146189144
    R7_11  BAL15_11  0.214574989904
    R7_11  BAL16_11  0.657303538515
    R7_11  BAL17_11  0.910707130838
    R7_11  BAL19_11  0.464026708422
    R7_11  BAL20_11  0.74712971781
    R7_11  BAL21_11  0.677513571191
    R7_11  BAL24_11  0.451607297139
    R7_11  BAL26_11  0.704836548499
    R7_11  CAP11  1
    R7_12  COST  10.8826971857
    R7_12  BAL1_12  0.609030537475
    R7_12  BAL7_12  0.597740114116
    R7_12  BAL13_12  0.922146189144
    R7_12  BAL15_12  0.214574989904
    R7_12  BAL16_12  0.657303538515
    R7_12  BAL17_12  0.910707130838
    R7_12  BAL19_12  0.464026708422
    R7_12  BAL20_12  0.74712971781
    R7_12  BAL21_12  0.677513571191
    R7_12  BAL24_12  0.451607297139
    R7_12  BAL26_12  0.704836548499
    R7_12  CAP12  1
    R7_13  COST  10.8826971857
    R7_13  BAL1_13  0.609030537475
    R7_13  BAL7_13  0.597740114116
    R7_13  BAL13_13  0.922146189144
    R7_13  BAL15_13  0.214574989904
    R7_13  BAL16_13  0.657303538515
    R7_13  BAL17_13  0.910707130838
    R7_13  BAL19_13  0.464026708422
    R7_13  BAL20_13  0.74712971781
    R7_13  BAL21_13  0.677513571191
    R7_13  BAL24_13  0.451607297139
    R7_13  BAL26_13  0.704836548499
    R7_13  CAP13  1
    R7_14  COST  10.8826971857
    R7_14  BAL1_14  0.609030537475
    R7_14  BAL7_14  0.597740114116
    R7_14  BAL13_14  0.922146189144
    R7_14  BAL15_14  0.214574989904
    R7_14  BAL16_14  0.657303538515
    R7_14  BAL17_14  0.910707130838
    R7_14  BAL19_14  0.464026708422
    R7_14  BAL20_14  0.74712971781
    R7_14  BAL21_14  0.677513571191
    R7_14  BAL24_14  0.451607297139
    R7_14  BAL26_14  0.704836548499
    R7_14  CAP14  1
    R7_15  COST  10.8826971857
    R7_15  BAL1_15  0.609030537475
    R7_15  BAL7_15  0.597740114116
    R7_15  BAL13_15  0.922146189144
    R7_15  BAL15_15  0.214574989904
    R7_15  BAL16_15  0.657303538515
    R7_15  BAL17_15  0.910707130838
    R7_15  BAL19_15  0.464026708422
    R7_15  BAL20_15  0.74712971781
    R7_15  BAL21_15  0.677513571191
    R7_15  BAL24_15  0.451607297139
    R7_15  BAL26_15  0.704836548499
    R7_15  CAP15  1
    R7_16  COST  10.8826971857
    R7_16  BAL1_16  0.609030537475
    R7_16  BAL7_16  0.597740114116
    R7_16  BAL13_16  0.922146189144
    R7_16  BAL15_16  0.214574989904
    R7_16  BAL16_16  0.657303538515
    R7_16  BAL17_16  0.910707130838
    R7_16  BAL19_16  0.464026708422
    R7_16  BAL20_16  0.74712971781
    R7_16  BAL21_16  0.677513571191
    R7_16  BAL24_16  0.451607297139
    R7_16  BAL26_16  0.704836548499
    R7_16  CAP16  1
    R7_17  COST  10.8826971857
    R7_17  BAL1_17  0.609030537475
    R7_17  BAL7_17  0.597740114116
    R7_17  BAL13_17  0.922146189144
    R7_17  BAL15_17  0.214574989904
    R7_17  BAL16_17  0.657303538515
    R7_17  BAL17_17  0.910707130838
    R7_17  BAL19_17  0.464026708422
    R7_17  BAL20_17  0.74712971781
    R7_17  BAL21_17  0.677513571191
    R7_17  BAL24_17  0.451607297139
    R7_17  BAL26_17  0.704836548499
    R7_17  CAP17  1
    R7_18  COST  10.8826971857
    R7_18  BAL1_18  0.609030537475
    R7_18  BAL7_18  0.597740114116
    R7_18  BAL13_18  0.922146189144
    R7_18  BAL15_18  0.214574989904
    R7_18  BAL16_18  0.657303538515
    R7_18  BAL17_18  0.910707130838
    R7_18  BAL19_18  0.464026708422
    R7_18  BAL20_18  0.74712971781
    R7_18  BAL21_18  0.677513571191
    R7_18  BAL24_18  0.451607297139
    R7_18  BAL26_18  0.704836548499
    R7_18  CAP18  1
    R7_19  COST  10.8826971857
    R7_19  BAL1_19  0.609030537475
    R7_19  BAL7_19  0.597740114116
    R7_19  BAL13_19  0.922146189144
    R7_19  BAL15_19  0.214574989904
    R7_19  BAL16_19  0.657303538515
    R7_19  BAL17_19  0.910707130838
    R7_19  BAL19_19  0.464026708422
    R7_19  BAL20_19  0.74712971781
    R7_19  BAL21_19  0.677513571191
    R7_19  BAL24_19  0.451607297139
    R7_19  BAL26_19  0.704836548499
    R7_19  CAP19  1
    R7_20  COST  10.8826971857
    R7_20  BAL1_20  0.609030537475
    R7_20  BAL7_20  0.597740114116
    R7_20  BAL13_20  0.922146189144
    R7_20  BAL15_20  0.214574989904
    R7_20  BAL16_20  0.657303538515
    R7_20  BAL17_20  0.910707130838
    R7_20  BAL19_20  0.464026708422
    R7_20  BAL20_20  0.74712971781
    R7_20  BAL21_20  0.677513571191
    R7_20  BAL24_20  0.451607297139
    R7_20  BAL26_20  0.704836548499
    R7_20  CAP20  1
    R7_21  COST  10.8826971857
    R7_21  BAL1_21  0.609030537475
    R7_21  BAL7_21  0.597740114116
    R7_21  BAL13_21  0.922146189144
    R7_21  BAL15_21  0.214574989904
    R7_21  BAL16_21  0.657303538515
    R7_21  BAL17_21  0.910707130838
    R7_21  BAL19_21  0.464026708422
    R7_21  BAL20_21  0.74712971781
    R7_21  BAL21_21  0.677513571191
    R7_21  BAL24_21  0.451607297139
    R7_21  BAL26_21  0.704836548499
    R7_21  CAP21  1
    R7_22  COST  10.8826971857
    R7_22  BAL1_22  0.609030537475
    R7_22  BAL7_22  0.597740114116
    R7_22  BAL13_22  0.922146189144
    R7_22  BAL15_22  0.214574989904
    R7_22  BAL16_22  0.657303538515
    R7_22  BAL17_22  0.910707130838
    R7_22  BAL19_22  0.464026708422
    R7_22  BAL20_22  0.74712971781
    R7_22  BAL21_22  0.677513571191
    R7_22  BAL24_22  0.451607297139
    R7_22  BAL26_22  0.704836548499
    R7_22  CAP22  1
    R7_23  COST  10.8826971857
    R7_23  BAL1_23  0.609030537475
    R7_23  BAL7_23  0.597740114116
    R7_23  BAL13_23  0.922146189144
    R7_23  BAL15_23  0.214574989904
    R7_23  BAL16_23  0.657303538515
    R7_23  BAL17_23  0.910707130838
    R7_23  BAL19_23  0.464026708422
    R7_23  BAL20_23  0.74712971781
    R7_23  BAL21_23  0.677513571191
    R7_23  BAL24_23  0.451607297139
    R7_23  BAL26_23  0.704836548499
    R7_23  CAP23  1
    R7_24  COST  10.8826971857
    R7_24  BAL1_24  0.609030537475
    R7_24  BAL7_24  0.597740114116
    R7_24  BAL13_24  0.922146189144
    R7_24  BAL15_24  0.214574989904
    R7_24  BAL16_24  0.657303538515
    R7_24  BAL17_24  0.910707130838
    R7_24  BAL19_24  0.464026708422
    R7_24  BAL20_24  0.74712971781
    R7_24  BAL21_24  0.677513571191
    R7_24  BAL24_24  0.451607297139
    R7_24  BAL26_24  0.704836548499
    R7_24  CAP24  1
    R7_25  COST  10.8826971857
    R7_25  BAL1_25  0.609030537475
    R7_25  BAL7_25  0.597740114116
    R7_25  BAL13_25  0.922146189144
    R7_25  BAL15_25  0.214574989904
    R7_25  BAL16_25  0.657303538515
    R7_25  BAL17_25  0.910707130838
    R7_25  BAL19_25  0.464026708422
    R7_25  BAL20_25  0.74712971781
    R7_25  BAL21_25  0.677513571191
    R7_25  BAL24_25  0.451607297139
    R7_25  BAL26_25  0.704836548499
    R7_25  CAP25  1
    R7_26  COST  10.8826971857
    R7_26  BAL1_26  0.609030537475
    R7_26  BAL7_26  0.597740114116
    R7_26  BAL13_26  0.922146189144
    R7_26  BAL15_26  0.214574989904
    R7_26  BAL16_26  0.657303538515
    R7_26  BAL17_26  0.910707130838
    R7_26  BAL19_26  0.464026708422
    R7_26  BAL20_26  0.74712971781
    R7_26  BAL21_26  0.677513571191
    R7_26  BAL24_26  0.451607297139
    R7_26  BAL26_26  0.704836548499
    R7_26  CAP26  1
    R7_27  COST  10.8826971857
    R7_27  BAL1_27  0.609030537475
    R7_27  BAL7_27  0.597740114116
    R7_27  BAL13_27  0.922146189144
    R7_27  BAL15_27  0.214574989904
    R7_27  BAL16_27  0.657303538515
    R7_27  BAL17_27  0.910707130838
    R7_27  BAL19_27  0.464026708422
    R7_27  BAL20_27  0.74712971781
    R7_27  BAL21_27  0.677513571191
    R7_27  BAL24_27  0.451607297139
    R7_27  BAL26_27  0.704836548499
    R7_27  CAP27  1
    R7_28  COST  10.8826971857
    R7_28  BAL1_28  0.609030537475
    R7_28  BAL7_28  0.597740114116
    R7_28  BAL13_28  0.922146189144
    R7_28  BAL15_28  0.214574989904
    R7_28  BAL16_28  0.657303538515
    R7_28  BAL17_28  0.910707130838
    R7_28  BAL19_28  0.464026708422
    R7_28  BAL20_28  0.74712971781
    R7_28  BAL21_28  0.677513571191
    R7_28  BAL24_28  0.451607297139
    R7_28  BAL26_28  0.704836548499
    R7_28  CAP28  1
    R7_29  COST  10.8826971857
    R7_29  BAL1_29  0.609030537475
    R7_29  BAL7_29  0.597740114116
    R7_29  BAL13_29  0.922146189144
    R7_29  BAL15_29  0.214574989904
    R7_29  BAL16_29  0.657303538515
    R7_29  BAL17_29  0.910707130838
    R7_29  BAL19_29  0.464026708422
    R7_29  BAL20_29  0.74712971781
    R7_29  BAL21_29  0.677513571191
    R7_29  BAL24_29  0.451607297139
    R7_29  BAL26_29  0.704836548499
    R7_29  CAP29  1
    R7_30  COST  10.8826971857
    R7_30  BAL1_30  0.609030537475
    R7_30  BAL7_30  0.597740114116
    R7_30  BAL13_30  0.922146189144
    R7_30  BAL15_30  0.214574989904
    R7_30  BAL16_30  0.657303538515
    R7_30  BAL17_30  0.910707130838
    R7_30  BAL19_30  0.464026708422
    R7_30  BAL20_30  0.74712971781
    R7_30  BAL21_30  0.677513571191
    R7_30  BAL24_30  0.451607297139
    R7_30  BAL26_30  0.704836548499
    R7_30  CAP30  1
    R7_31  COST  10.8826971857
    R7_31  BAL1_31  0.609030537475
    R7_31  BAL7_31  0.597740114116
    R7_31  BAL13_31  0.922146189144
    R7_31  BAL15_31  0.214574989904
    R7_31  BAL16_31  0.657303538515
    R7_31  BAL17_31  0.910707130838
    R7_31  BAL19_31  0.464026708422
    R7_31  BAL20_31  0.74712971781
    R7_31  BAL21_31  0.677513571191
    R7_31  BAL24_31  0.451607297139
    R7_31  BAL26_31  0.704836548499
    R7_31  CAP31  1
    R7_32  COST  10.8826971857
    R7_32  BAL1_32  0.609030537475
    R7_32  BAL7_32  0.597740114116
    R7_32  BAL13_32  0.922146189144
    R7_32  BAL15_32  0.214574989904
    R7_32  BAL16_32  0.657303538515
    R7_32  BAL17_32  0.910707130838
    R7_32  BAL19_32  0.464026708422
    R7_32  BAL20_32  0.74712971781
    R7_32  BAL21_32  0.677513571191
    R7_32  BAL24_32  0.451607297139
    R7_32  BAL26_32  0.704836548499
    R7_32  CAP32  1
    R7_33  COST  10.8826971857
    R7_33  BAL1_33  0.609030537475
    R7_33  BAL7_33  0.597740114116
    R7_33  BAL13_33  0.922146189144
    R7_33  BAL15_33  0.214574989904
    R7_33  BAL16_33  0.657303538515
    R7_33  BAL17_33  0.910707130838
    R7_33  BAL19_33  0.464026708422
    R7_33  BAL20_33  0.74712971781
    R7_33  BAL21_33  0.677513571191
    R7_33  BAL24_33  0.451607297139
    R7_33  BAL26_33  0.704836548499
    R7_33  CAP33  1
    R7_34  COST  10.8826971857
    R7_34  BAL1_34  0.609030537475
    R7_34  BAL7_34  0.597740114116
    R7_34  BAL13_34  0.922146189144
    R7_34  BAL15_34  0.214574989904
    R7_34  BAL16_34  0.657303538515
    R7_34  BAL17_34  0.910707130838
    R7_34  BAL19_34  0.464026708422
    R7_34  BAL20_34  0.74712971781
    R7_34  BAL21_34  0.677513571191
    R7_34  BAL24_34  0.451607297139
    R7_34  BAL26_34  0.704836548499
    R7_34  CAP34  1
    R7_35  COST  10.8826971857
    R7_35  BAL1_35  0.609030537475
    R7_35  BAL7_35  0.597740114116
    R7_35  BAL13_35  0.922146189144
    R7_35  BAL15_35  0.214574989904
    R7_35  BAL16_35  0.657303538515
    R7_35  BAL17_35  0.910707130838
    R7_35  BAL19_35  0.464026708422
    R7_35  BAL20_35  0.74712971781
    R7_35  BAL21_35  0.677513571191
    R7_35  BAL24_35  0.451607297139
    R7_35  BAL26_35  0.704836548499
    R7_35  CAP35  1
    R8_0  COST  15.7869769091
    R8_0  BAL3_0  0.362973636119
    R8_0  BAL4_0  0.768839770659
    R8_0  BAL5_0  0.790697749238
    R8_0  BAL8_0  0.626437138097
    R8_0  BAL9_0  0.883097444307
    R8_0  BAL14_0  0.652743701568
    R8_0  BAL18_0  0.458712721718
    R8_0  BAL20_0  0.498468858937
    R8_0  BAL26_0  0.72787613091
    R8_0  BAL27_0  0.244512994841
    R8_0  CAP0  1
    R8_1  COST  15.7869769091
    R8_1  BAL3_1  0.362973636119
    R8_1  BAL4_1  0.768839770659
    R8_1  BAL5_1  0.790697749238
    R8_1  BAL8_1  0.626437138097
    R8_1  BAL9_1  0.883097444307
    R8_1  BAL14_1  0.652743701568
    R8_1  BAL18_1  0.458712721718
    R8_1  BAL20_1  0.498468858937
    R8_1  BAL26_1  0.72787613091
    R8_1  BAL27_1  0.244512994841
    R8_1  CAP1  1
    R8_2  COST  15.7869769091
    R8_2  BAL3_2  0.362973636119
    R8_2  BAL4_2  0.768839770659
    R8_2  BAL5_2  0.790697749238
    R8_2  BAL8_2  0.626437138097
    R8_2  BAL9_2  0.883097444307
    R8_2  BAL14_2  0.652743701568
    R8_2  BAL18_2  0.458712721718
    R8_2  BAL20_2  0.498468858937
    R8_2  BAL26_2  0.72787613091
    R8_2  BAL27_2  0.244512994841
    R8_2  CAP2  1
    R8_3  COST  15.7869769091
    R8_3  BAL3_3  0.362973636119
    R8_3  BAL4_3  0.768839770659
    R8_3  BAL5_3  0.790697749238
    R8_3  BAL8_3  0.626437138097
    R8_3  BAL9_3  0.883097444307
    R8_3  BAL14_3  0.652743701568
    R8_3  BAL18_3  0.458712721718
    R8_3  BAL20_3  0.498468858937
    R8_3  BAL26_3  0.72787613091
    R8_3  BAL27_3  0.244512994841
    R8_3  CAP3  1
    R8_4  COST  15.7869769091
    R8_4  BAL3_4  0.362973636119
    R8_4  BAL4_4  0.768839770659
    R8_4  BAL5_4  0.790697749238
    R8_4  BAL8_4  0.626437138097
    R8_4  BAL9_4  0.883097444307
    R8_4  BAL14_4  0.652743701568
    R8_4  BAL18_4  0.458712721718
    R8_4  BAL20_4  0.498468858937
    R8_4  BAL26_4  0.72787613091
    R8_4  BAL27_4  0.244512994841
    R8_4  CAP4  1
    R8_5  COST  15.7869769091
    R8_5  BAL3_5  0.362973636119
    R8_5  BAL4_5  0.768839770659
    R8_5  BAL5_5  0.790697749238
    R8_5  BAL8_5  0.626437138097
    R8_5  BAL9_5  0.883097444307
    R8_5  BAL14_5  0.652743701568
    R8_5  BAL18_5  0.458712721718
    R8_5  BAL20_5  0.498468858937
    R8_5  BAL26_5  0.72787613091
    R8_5  BAL27_5  0.244512994841
    R8_5  CAP5  1
    R8_6  COST  15.7869769091
    R8_6  BAL3_6  0.362973636119
    R8_6  BAL4_6  0.768839770659
    R8_6  BAL5_6  0.790697749238
    R8_6  BAL8_6  0.626437138097
    R8_6  BAL9_6  0.883097444307
    R8_6  BAL14_6  0.652743701568
    R8_6  BAL18_6  0.458712721718
    R8_6  BAL20_6  0.498468858937
    R8_6  BAL26_6  0.72787613091
    R8_6  BAL27_6  0.244512994841
    R8_6  CAP6  1
    R8_7  COST  15.7869769091
    R8_7  BAL3_7  0.362973636119
    R8_7  BAL4_7  0.768839770659
    R8_7  BAL5_7  0.790697749238
    R8_7  BAL8_7  0.626437138097
    R8_7  BAL9_7  0.883097444307
    R8_7  BAL14_7  0.652743701568
    R8_7  BAL18_7  0.458712721718
    R8_7  BAL20_7  0.498468858937
    R8_7  BAL26_7  0.72787613091
    R8_7  BAL27_7  0.244512994841
    R8_7  CAP7  1
    R8_8  COST  15.7869769091
    R8_8  BAL3_8  0.362973636119
    R8_8  BAL4_8  0.768839770659
    R8_8  BAL5_8  0.790697749238
    R8_8  BAL8_8  0.626437138097
    R8_8  BAL9_8  0.883097444307
    R8_8  BAL14_8  0.652743701568
    R8_8  BAL18_8  0.458712721718
    R8_8  BAL20_8  0.498468858937
    R8_8  BAL26_8  0.72787613091
    R8_8  BAL27_8  0.244512994841
    R8_8  CAP8  1
    R8_9  COST  15.7869769091
    R8_9  BAL3_9  0.362973636119
    R8_9  BAL4_9  0.768839770659
    R8_9  BAL5_9  0.790697749238
    R8_9  BAL8_9  0.626437138097
    R8_9  BAL9_9  0.883097444307
    R8_9  BAL14_9  0.652743701568
    R8_9  BAL18_9  0.458712721718
    R8_9  BAL20_9  0.498468858937
    R8_9  BAL26_9  0.72787613091
    R8_9  BAL27_9  0.244512994841
    R8_9  CAP9  1
    R8_10  COST  15.7869769091
    R8_10  BAL3_10  0.362973636119
    R8_10  BAL4_10  0.768839770659
    R8_10  BAL5_10  0.790697749238
    R8_10  BAL8_10  0.626437138097
    R8_10  BAL9_10  0.883097444307
    R8_10  BAL14_10  0.652743701568
    R8_10  BAL18_10  0.458712721718
    R8_10  BAL20_10  0.498468858937
    R8_10  BAL26_10  0.72787613091
    R8_10  BAL27_10  0.244512994841
    R8_10  CAP10  1
    R8_11  COST  15.7869769091
    R8_11  BAL3_11  0.362973636119
    R8_11  BAL4_11  0.768839770659
    R8_11  BAL5_11  0.790697749238
    R8_11  BAL8_11  0.626437138097
    R8_11  BAL9_11  0.883097444307
    R8_11  BAL14_11  0.652743701568
    R8_11  BAL18_11  0.458712721718
    R8_11  BAL20_11  0.498468858937
    R8_11  BAL26_11  0.72787613091
    R8_11  BAL27_11  0.244512994841
    R8_11  CAP11  1
    R8_12  COST  15.7869769091
    R8_12  BAL3_12  0.362973636119
    R8_12  BAL4_12  0.768839770659
    R8_12  BAL5_12  0.790697749238
    R8_12  BAL8_12  0.626437138097
    R8_12  BAL9_12  0.883097444307
    R8_12  BAL14_12  0.652743701568
    R8_12  BAL18_12  0.458712721718
    R8_12  BAL20_12  0.498468858937
    R8_12  BAL26_12  0.72787613091
    R8_12  BAL27_12  0.244512994841
    R8_12  CAP12  1
    R8_13  COST  15.7869769091
    R8_13  BAL3_13  0.362973636119
    R8_13  BAL4_13  0.768839770659
    R8_13  BAL5_13  0.790697749238
    R8_13  BAL8_13  0.626437138097
    R8_13  BAL9_13  0.883097444307
    R8_13  BAL14_13  0.652743701568
    R8_13  BAL18_13  0.458712721718
    R8_13  BAL20_13  0.498468858937
    R8_13  BAL26_13  0.72787613091
    R8_13  BAL27_13  0.244512994841
    R8_13  CAP13  1
    R8_14  COST  15.7869769091
    R8_14  BAL3_14  0.362973636119
    R8_14  BAL4_14  0.768839770659
    R8_14  BAL5_14  0.790697749238
    R8_14  BAL8_14  0.626437138097
    R8_14  BAL9_14  0.883097444307
    R8_14  BAL14_14  0.652743701568
    R8_14  BAL18_14  0.458712721718
    R8_14  BAL20_14  0.498468858937
    R8_14  BAL26_14  0.72787613091
    R8_14  BAL27_14  0.244512994841
    R8_14  CAP14  1
    R8_15  COST  15.7869769091
    R8_15  BAL3_15  0.362973636119
    R8_15  BAL4_15  0.768839770659
    R8_15  BAL5_15  0.790697749238
    R8_15  BAL8_15  0.626437138097
    R8_15  BAL9_15  0.883097444307
    R8_15  BAL14_15  0.652743701568
    R8_15  BAL18_15  0.458712721718
    R8_15  BAL20_15  0.498468858937
    R8_15  BAL26_15  0.72787613091
    R8_15  BAL27_15  0.244512994841
    R8_15  CAP15  1
    R8_16  COST  15.7869769091
    R8_16  BAL3_16  0.362973636119
    R8_16  BAL4_16  0.768839770659
    R8_16  BAL5_16  0.790697749238
    R8_16  BAL8_16  0.626437138097
    R8_16  BAL9_16  0.883097444307
    R8_16  BAL14_16  0.652743701568
    R8_16  BAL18_16  0.458712721718
    R8_16  BAL20_16  0.498468858937
    R8_16  BAL26_16  0.72787613091
    R8_16  BAL27_16  0.244512994841
    R8_16  CAP16  1
    R8_17  COST  15.7869769091
    R8_17  BAL3_17  0.362973636119
    R8_17  BAL4_17  0.768839770659
    R8_17  BAL5_17  0.790697749238
    R8_17  BAL8_17  0.626437138097
    R8_17  BAL9_17  0.883097444307
    R8_17  BAL14_17  0.652743701568
    R8_17  BAL18_17  0.458712721718
    R8_17  BAL20_17  0.498468858937
    R8_17  BAL26_17  0.72787613091
    R8_17  BAL27_17  0.244512994841
    R8_17  CAP17  1
    R8_18  COST  15.7869769091
    R8_18  BAL3_18  0.362973636119
    R8_18  BAL4_18  0.768839770659
    R8_18  BAL5_18  0.790697749238
    R8_18  BAL8_18  0.626437138097
    R8_18  BAL9_18  0.883097444307
    R8_18  BAL14_18  0.652743701568
    R8_18  BAL18_18  0.458712721718
    R8_18  BAL20_18  0.498468858937
    R8_18  BAL26_18  0.72787613091
    R8_18  BAL27_18  0.244512994841
    R8_18  CAP18  1
    R8_19  COST  15.7869769091
    R8_19  BAL3_19  0.362973636119
    R8_19  BAL4_19  0.768839770659
    R8_19  BAL5_19  0.790697749238
    R8_19  BAL8_19  0.626437138097
    R8_19  BAL9_19  0.883097444307
    R8_19  BAL14_19  0.652743701568
    R8_19  BAL18_19  0.458712721718
    R8_19  BAL20_19  0.498468858937
    R8_19  BAL26_19  0.72787613091
    R8_19  BAL27_19  0.244512994841
    R8_19  CAP19  1
    R8_20  COST  15.7869769091
    R8_20  BAL3_20  0.362973636119
    R8_20  BAL4_20  0.768839770659
    R8_20  BAL5_20  0.790697749238
    R8_20  BAL8_20  0.626437138097
    R8_20  BAL9_20  0.883097444307
    R8_20  BAL14_20  0.652743701568
    R8_20  BAL18_20  0.458712721718
    R8_20  BAL20_20  0.498468858937
    R8_20  BAL26_20  0.72787613091
    R8_20  BAL27_20  0.244512994841
    R8_20  CAP20  1
    R8_21  COST  15.7869769091
    R8_21  BAL3_21  0.362973636119
    R8_21  BAL4_21  0.768839770659
    R8_21  BAL5_21  0.790697749238
    R8_21  BAL8_21  0.626437138097
    R8_21  BAL9_21  0.883097444307
    R8_21  BAL14_21  0.652743701568
    R8_21  BAL18_21  0.458712721718
    R8_21  BAL20_21  0.498468858937
    R8_21  BAL26_21  0.72787613091
    R8_21  BAL27_21  0.244512994841
    R8_21  CAP21  1
    R8_22  COST  15.7869769091
    R8_22  BAL3_22  0.362973636119
    R8_22  BAL4_22  0.768839770659
    R8_22  BAL5_22  0.790697749238
    R8_22  BAL8_22  0.626437138097
    R8_22  BAL9_22  0.883097444307
    R8_22  BAL14_22  0.652743701568
    R8_22  BAL18_22  0.458712721718
    R8_22  BAL20_22  0.498468858937
    R8_22  BAL26_22  0.72787613091
    R8_22  BAL27_22  0.244512994841
    R8_22  CAP22  1
    R8_23  COST  15.7869769091
    R8_23  BAL3_23  0.362973636119
    R8_23  BAL4_23  0.768839770659
    R8_23  BAL5_23  0.790697749238
    R8_23  BAL8_23  0.626437138097
    R8_23  BAL9_23  0.883097444307
    R8_23  BAL14_23  0.652743701568
    R8_23  BAL18_23  0.458712721718
    R8_23  BAL20_23  0.498468858937
    R8_23  BAL26_23  0.72787613091
    R8_23  BAL27_23  0.244512994841
    R8_23  CAP23  1
    R8_24  COST  15.7869769091
    R8_24  BAL3_24  0.362973636119
    R8_24  BAL4_24  0.768839770659
    R8_24  BAL5_24  0.790697749238
    R8_24  BAL8_24  0.626437138097
    R8_24  BAL9_24  0.883097444307
    R8_24  BAL14_24  0.652743701568
    R8_24  BAL18_24  0.458712721718
    R8_24  BAL20_24  0.498468858937
    R8_24  BAL26_24  0.72787613091
    R8_24  BAL27_24  0.244512994841
    R8_24  CAP24  1
    R8_25  COST  15.7869769091
    R8_25  BAL3_25  0.362973636119
    R8_25  BAL4_25  0.768839770659
    R8_25  BAL5_25  0.790697749238
    R8_25  BAL8_25  0.626437138097
    R8_25  BAL9_25  0.883097444307
    R8_25  BAL14_25  0.652743701568
    R8_25  BAL18_25  0.458712721718
    R8_25  BAL20_25  0.498468858937
    R8_25  BAL26_25  0.72787613091
    R8_25  BAL27_25  0.244512994841
    R8_25  CAP25  1
    R8_26  COST  15.7869769091
    R8_26  BAL3_26  0.362973636119
    R8_26  BAL4_26  0.768839770659
    R8_26  BAL5_26  0.790697749238
    R8_26  BAL8_26  0.626437138097
    R8_26  BAL9_26  0.883097444307
    R8_26  BAL14_26  0.652743701568
    R8_26  BAL18_26  0.458712721718
    R8_26  BAL20_26  0.498468858937
    R8_26  BAL26_26  0.72787613091
    R8_26  BAL27_26  0.244512994841
    R8_26  CAP26  1
    R8_27  COST  15.7869769091
    R8_27  BAL3_27  0.362973636119
    R8_27  BAL4_27  0.768839770659
    R8_27  BAL5_27  0.790697749238
    R8_27  BAL8_27  0.626437138097
    R8_27  BAL9_27  0.883097444307
    R8_27  BAL14_27  0.652743701568
    R8_27  BAL18_27  0.458712721718
    R8_27  BAL20_27  0.498468858937
    R8_27  BAL26_27  0.72787613091
    R8_27  BAL27_27  0.244512994841
    R8_27  CAP27  1
    R8_28  COST  15.7869769091
    R8_28  BAL3_28  0.362973636119
    R8_28  BAL4_28  0.768839770659
    R8_28  BAL5_28  0.790697749238
    R8_28  BAL8_28  0.626437138097
    R8_28  BAL9_28  0.883097444307
    R8_28  BAL14_28  0.652743701568
    R8_28  BAL18_28  0.458712721718
    R8_28  BAL20_28  0.498468858937
    R8_28  BAL26_28  0.72787613091
    R8_28  BAL27_28  0.244512994841
    R8_28  CAP28  1
    R8_29  COST  15.7869769091
    R8_29  BAL3_29  0.362973636119
    R8_29  BAL4_29  0.768839770659
    R8_29  BAL5_29  0.790697749238
    R8_29  BAL8_29  0.626437138097
    R8_29  BAL9_29  0.883097444307
    R8_29  BAL14_29  0.652743701568
    R8_29  BAL18_29  0.458712721718
    R8_29  BAL20_29  0.498468858937
    R8_29  BAL26_29  0.72787613091
    R8_29  BAL27_29  0.244512994841
    R8_29  CAP29  1
    R8_30  COST  15.7869769091
    R8_30  BAL3_30  0.362973636119
    R8_30  BAL4_30  0.768839770659
    R8_30  BAL5_30  0.790697749238
    R8_30  BAL8_30  0.626437138097
    R8_30  BAL9_30  0.883097444307
    R8_30  BAL14_30  0.652743701568
    R8_30  BAL18_30  0.458712721718
    R8_30  BAL20_30  0.498468858937
    R8_30  BAL26_30  0.72787613091
    R8_30  BAL27_30  0.244512994841
    R8_30  CAP30  1
    R8_31  COST  15.7869769091
    R8_31  BAL3_31  0.362973636119
    R8_31  BAL4_31  0.768839770659
    R8_31  BAL5_31  0.790697749238
    R8_31  BAL8_31  0.626437138097
    R8_31  BAL9_31  0.883097444307
    R8_31  BAL14_31  0.652743701568
    R8_31  BAL18_31  0.458712721718
    R8_31  BAL20_31  0.498468858937
    R8_31  BAL26_31  0.72787613091
    R8_31  BAL27_31  0.244512994841
    R8_31  CAP31  1
    R8_32  COST  15.7869769091
    R8_32  BAL3_32  0.362973636119
    R8_32  BAL4_32  0.768839770659
    R8_32  BAL5_32  0.790697749238
    R8_32  BAL8_32  0.626437138097
    R8_32  BAL9_32  0.883097444307
    R8_32  BAL14_32  0.652743701568
    R8_32  BAL18_32  0.458712721718
    R8_32  BAL20_32  0.498468858937
    R8_32  BAL26_32  0.72787613091
    R8_32  BAL27_32  0.244512994841
    R8_32  CAP32  1
    R8_33  COST  15.7869769091
    R8_33  BAL3_33  0.362973636119
    R8_33  BAL4_33  0.768839770659
    R8_33  BAL5_33  0.790697749238
    R8_33  BAL8_33  0.626437138097
    R8_33  BAL9_33  0.883097444307
    R8_33  BAL14_33  0.652743701568
    R8_33  BAL18_33  0.458712721718
    R8_33  BAL20_33  0.498468858937
    R8_33  BAL26_33  0.72787613091
    R8_33  BAL27_33  0.244512994841
    R8_33  CAP33  1
    R8_34  COST  15.7869769091
    R8_34  BAL3_34  0.362973636119
    R8_34  BAL4_34  0.768839770659
    R8_34  BAL5_34  0.790697749238
    R8_34  BAL8_34  0.626437138097
    R8_34  BAL9_34  0.883097444307
    R8_34  BAL14_34  0.652743701568
    R8_34  BAL18_34  0.458712721718
    R8_34  BAL20_34  0.498468858937
    R8_34  BAL26_34  0.72787613091
    R8_34  BAL27_34  0.244512994841
    R8_34  CAP34  1
    R8_35  COST  15.7869769091
    R8_35  BAL3_35  0.362973636119
    R8_35  BAL4_35  0.768839770659
    R8_35  BAL5_35  0.790697749238
    R8_35  BAL8_35  0.626437138097
    R8_35  BAL9_35  0.883097444307
    R8_35  BAL14_35  0.652743701568
    R8_35  BAL18_35  0.458712721718
    R8_35  BAL20_35  0.498468858937
    R8_35  BAL26_35  0.72787613091
    R8_35  BAL27_35  0.244512994841
    R8_35  CAP35  1
    R9_0  COST  4.09094960212
    R9_0  BAL3_0  0.78901931286
    R9_0  BAL9_0  0.754797424101
    R9_0  BAL13_0  0.768901871625
    R9_0  BAL17_0  0.481596725695
    R9_0  BAL18_0  0.924562629843
    R9_0  BAL19_0  0.611906717429
    R9_0  BAL20_0  0.554747876489
    R9_0  BAL22_0  0.301224671253
    R9_0  BAL29_0  0.925060165089
    R9_0  CAP0  1
    R9_1  COST  4.09094960212
    R9_1  BAL3_1  0.78901931286
    R9_1  BAL9_1  0.754797424101
    R9_1  BAL13_1  0.768901871625
    R9_1  BAL17_1  0.481596725695
    R9_1  BAL18_1  0.924562629843
    R9_1  BAL19_1  0.611906717429
    R9_1  BAL20_1  0.554747876489
    R9_1  BAL22_1  0.301224671253
    R9_1  BAL29_1  0.925060165089
    R9_1  CAP1  1
    R9_2  COST  4.09094960212
    R9_2  BAL3_2  0.78901931286
    R9_2  BAL9_2  0.754797424101
    R9_2  BAL13_2  0.768901871625
    R9_2  BAL17_2  0.481596725695
    R9_2  BAL18_2  0.924562629843
    R9_2  BAL19_2  0.611906717429
    R9_2  BAL20_2  0.554747876489
    R9_2  BAL22_2  0.301224671253
    R9_2  BAL29_2  0.925060165089
    R9_2  CAP2  1
    R9_3  COST  4.09094960212
    R9_3  BAL3_3  0.78901931286
    R9_3  BAL9_3  0.754797424101
    R9_3  BAL13_3  0.768901871625
    R9_3  BAL17_3  0.481596725695
    R9_3  BAL18_3  0.924562629843
    R9_3  BAL19_3  0.611906717429
    R9_3  BAL20_3  0.554747876489
    R9_3  BAL22_3  0.301224671253
    R9_3  BAL29_3  0.925060165089
    R9_3  CAP3  1
    R9_4  COST  4.09094960212
    R9_4  BAL3_4  0.78901931286
    R9_4  BAL9_4  0.754797424101
    R9_4  BAL13_4  0.768901871625
    R9_4  BAL17_4  0.481596725695
    R9_4  BAL18_4  0.924562629843
    R9_4  BAL19_4  0.611906717429
    R9_4  BAL20_4  0.554747876489
    R9_4  BAL22_4  0.301224671253
    R9_4  BAL29_4  0.925060165089
    R9_4  CAP4  1
    R9_5  COST  4.09094960212
    R9_5  BAL3_5  0.78901931286
    R9_5  BAL9_5  0.754797424101
    R9_5  BAL13_5  0.768901871625
    R9_5  BAL17_5  0.481596725695
    R9_5  BAL18_5  0.924562629843
    R9_5  BAL19_5  0.611906717429
    R9_5  BAL20_5  0.554747876489
    R9_5  BAL22_5  0.301224671253
    R9_5  BAL29_5  0.925060165089
    R9_5  CAP5  1
    R9_6  COST  4.09094960212
    R9_6  BAL3_6  0.78901931286
    R9_6  BAL9_6  0.754797424101
    R9_6  BAL13_6  0.768901871625
    R9_6  BAL17_6  0.481596725695
    R9_6  BAL18_6  0.924562629843
    R9_6  BAL19_6  0.611906717429
    R9_6  BAL20_6  0.554747876489
    R9_6  BAL22_6  0.301224671253
    R9_6  BAL29_6  0.925060165089
    R9_6  CAP6  1
    R9_7  COST  4.09094960212
    R9_7  BAL3_7  0.78901931286
    R9_7  BAL9_7  0.754797424101
    R9_7  BAL13_7  0.768901871625
    R9_7  BAL17_7  0.481596725695
    R9_7  BAL18_7  0.924562629843
    R9_7  BAL19_7  0.611906717429
    R9_7  BAL20_7  0.554747876489
    R9_7  BAL22_7  0.301224671253
    R9_7  BAL29_7  0.925060165089
    R9_7  CAP7  1
    R9_8  COST  4.09094960212
    R9_8  BAL3_8  0.78901931286
    R9_8  BAL9_8  0.754797424101
    R9_8  BAL13_8  0.768901871625
    R9_8  BAL17_8  0.481596725695
    R9_8  BAL18_8  0.924562629843
    R9_8  BAL19_8  0.611906717429
    R9_8  BAL20_8  0.554747876489
    R9_8  BAL22_8  0.301224671253
    R9_8  BAL29_8  0.925060165089
    R9_8  CAP8  1
    R9_9  COST  4.09094960212
    R9_9  BAL3_9  0.78901931286
    R9_9  BAL9_9  0.754797424101
    R9_9  BAL13_9  0.768901871625
    R9_9  BAL17_9  0.481596725695
    R9_9  BAL18_9  0.924562629843
    R9_9  BAL19_9  0.611906717429
    R9_9  BAL20_9  0.554747876489
    R9_9  BAL22_9  0.301224671253
    R9_9  BAL29_9  0.925060165089
    R9_9  CAP9  1
    R9_10  COST  4.09094960212
    R9_10  BAL3_10  0.78901931286
    R9_10  BAL9_10  0.754797424101
    R9_10  BAL13_10  0.768901871625
    R9_10  BAL17_10  0.481596725695
    R9_10  BAL18_10  0.924562629843
    R9_10  BAL19_10  0.611906717429
    R9_10  BAL20_10  0.554747876489
    R9_10  BAL22_10  0.301224671253
    R9_10  BAL29_10  0.925060165089
    R9_10  CAP10  1
    R9_11  COST  4.09094960212
    R9_11  BAL3_11  0.78901931286
    R9_11  BAL9_11  0.754797424101
    R9_11  BAL13_11  0.768901871625
    R9_11  BAL17_11  0.481596725695
    R9_11  BAL18_11  0.924562629843
    R9_11  BAL19_11  0.611906717429
    R9_11  BAL20_11  0.554747876489
    R9_11  BAL22_11  0.301224671253
    R9_11  BAL29_11  0.925060165089
    R9_11  CAP11  1
    R9_12  COST  4.09094960212
    R9_12  BAL3_12  0.78901931286
    R9_12  BAL9_12  0.754797424101
    R9_12  BAL13_12  0.768901871625
    R9_12  BAL17_12  0.481596725695
    R9_12  BAL18_12  0.924562629843
    R9_12  BAL19_12  0.611906717429
    R9_12  BAL20_12  0.554747876489
    R9_12  BAL22_12  0.301224671253
    R9_12  BAL29_12  0.925060165089
    R9_12  CAP12  1
    R9_13  COST  4.09094960212
    R9_13  BAL3_13  0.78901931286
    R9_13  BAL9_13  0.754797424101
    R9_13  BAL13_13  0.768901871625
    R9_13  BAL17_13  0.481596725695
    R9_13  BAL18_13  0.924562629843
    R9_13  BAL19_13  0.611906717429
    R9_13  BAL20_13  0.554747876489
    R9_13  BAL22_13  0.301224671253
    R9_13  BAL29_13  0.925060165089
    R9_13  CAP13  1
    R9_14  COST  4.09094960212
    R9_14  BAL3_14  0.78901931286
    R9_14  BAL9_14  0.754797424101
    R9_14  BAL13_14  0.768901871625
    R9_14  BAL17_14  0.481596725695
    R9_14  BAL18_14  0.924562629843
    R9_14  BAL19_14  0.611906717429
    R9_14  BAL20_14  0.554747876489
    R9_14  BAL22_14  0.301224671253
    R9_14  BAL29_14  0.925060165089
    R9_14  CAP14  1
    R9_15  COST  4.09094960212
    R9_15  BAL3_15  0.78901931286
    R9_15  BAL9_15  0.754797424101
    R9_15  BAL13_15  0.768901871625
    R9_15  BAL17_15  0.481596725695
    R9_15  BAL18_15  0.924562629843
    R9_15  BAL19_15  0.611906717429
    R9_15  BAL20_15  0.554747876489
    R9_15  BAL22_15  0.301224671253
    R9_15  BAL29_15  0.925060165089
    R9_15  CAP15  1
    R9_16  COST  4.09094960212
    R9_16  BAL3_16  0.78901931286
    R9_16  BAL9_16  0.754797424101
    R9_16  BAL13_16  0.768901871625
    R9_16  BAL17_16  0.481596725695
    R9_16  BAL18_16  0.924562629843
    R9_16  BAL19_16  0.611906717429
    R9_16  BAL20_16  0.554747876489
    R9_16  BAL22_16  0.301224671253
    R9_16  BAL29_16  0.925060165089
    R9_16  CAP16  1
    R9_17  COST  4.09094960212
    R9_17  BAL3_17  0.78901931286
    R9_17  BAL9_17  0.754797424101
    R9_17  BAL13_17  0.768901871625
    R9_17  BAL17_17  0.481596725695
    R9_17  BAL18_17  0.924562629843
    R9_17  BAL19_17  0.611906717429
    R9_17  BAL20_17  0.554747876489
    R9_17  BAL22_17  0.301224671253
    R9_17  BAL29_17  0.925060165089
    R9_17  CAP17  1
    R9_18  COST  4.09094960212
    R9_18  BAL3_18  0.78901931286
    R9_18  BAL9_18  0.754797424101
    R9_18  BAL13_18  0.768901871625
    R9_18  BAL17_18  0.481596725695
    R9_18  BAL18_18  0.924562629843
    R9_18  BAL19_18  0.611906717429
    R9_18  BAL20_18  0.554747876489
    R9_18  BAL22_18  0.301224671253
    R9_18  BAL29_18  0.925060165089
    R9_18  CAP18  1
    R9_19  COST  4.09094960212
    R9_19  BAL3_19  0.78901931286
    R9_19  BAL9_19  0.754797424101
    R9_19  BAL13_19  0.768901871625
    R9_19  BAL17_19  0.481596725695
    R9_19  BAL18_19  0.924562629843
    R9_19  BAL19_19  0.611906717429
    R9_19  BAL20_19  0.554747876489
    R9_19  BAL22_19  0.301224671253
    R9_19  BAL29_19  0.925060165089
    R9_19  CAP19  1
    R9_20  COST  4.09094960212
    R9_20  BAL3_20  0.78901931286
    R9_20  BAL9_20  0.754797424101
    R9_20  BAL13_20  0.768901871625
    R9_20  BAL17_20  0.481596725695
    R9_20  BAL18_20  0.924562629843
    R9_20  BAL19_20  0.611906717429
    R9_20  BAL20_20  0.554747876489
    R9_20  BAL22_20  0.301224671253
    R9_20  BAL29_20  0.925060165089
    R9_20  CAP20  1
    R9_21  COST  4.09094960212
    R9_21  BAL3_21  0.78901931286
    R9_21  BAL9_21  0.754797424101
    R9_21  BAL13_21  0.768901871625
    R9_21  BAL17_21  0.481596725695
    R9_21  BAL18_21  0.924562629843
    R9_21  BAL19_21  0.611906717429
    R9_21  BAL20_21  0.554747876489
    R9_21  BAL22_21  0.301224671253
    R9_21  BAL29_21  0.925060165089
    R9_21  CAP21  1
    R9_22  COST  4.09094960212
    R9_22  BAL3_22  0.78901931286
    R9_22  BAL9_22  0.754797424101
    R9_22  BAL13_22  0.768901871625
    R9_22  BAL17_22  0.481596725695
    R9_22  BAL18_22  0.924562629843
    R9_22  BAL19_22  0.611906717429
    R9_22  BAL20_22  0.554747876489
    R9_22  BAL22_22  0.301224671253
    R9_22  BAL29_22  0.925060165089
    R9_22  CAP22  1
    R9_23  COST  4.09094960212
    R9_23  BAL3_23  0.78901931286
    R9_23  BAL9_23  0.754797424101
    R9_23  BAL13_23  0.768901871625
    R9_23  BAL17_23  0.481596725695
    R9_23  BAL18_23  0.924562629843
    R9_23  BAL19_23  0.611906717429
    R9_23  BAL20_23  0.554747876489
    R9_23  BAL22_23  0.301224671253
    R9_23  BAL29_23  0.925060165089
    R9_23  CAP23  1
    R9_24  COST  4.09094960212
    R9_24  BAL3_24  0.78901931286
    R9_24  BAL9_24  0.754797424101
    R9_24  BAL13_24  0.768901871625
    R9_24  BAL17_24  0.481596725695
    R9_24  BAL18_24  0.924562629843
    R9_24  BAL19_24  0.611906717429
    R9_24  BAL20_24  0.554747876489
    R9_24  BAL22_24  0.301224671253
    R9_24  BAL29_24  0.925060165089
    R9_24  CAP24  1
    R9_25  COST  4.09094960212
    R9_25  BAL3_25  0.78901931286
    R9_25  BAL9_25  0.754797424101
    R9_25  BAL13_25  0.768901871625
    R9_25  BAL17_25  0.481596725695
    R9_25  BAL18_25  0.924562629843
    R9_25  BAL19_25  0.611906717429
    R9_25  BAL20_25  0.554747876489
    R9_25  BAL22_25  0.301224671253
    R9_25  BAL29_25  0.925060165089
    R9_25  CAP25  1
    R9_26  COST  4.09094960212
    R9_26  BAL3_26  0.78901931286
    R9_26  BAL9_26  0.754797424101
    R9_26  BAL13_26  0.768901871625
    R9_26  BAL17_26  0.481596725695
    R9_26  BAL18_26  0.924562629843
    R9_26  BAL19_26  0.611906717429
    R9_26  BAL20_26  0.554747876489
    R9_26  BAL22_26  0.301224671253
    R9_26  BAL29_26  0.925060165089
    R9_26  CAP26  1
    R9_27  COST  4.09094960212
    R9_27  BAL3_27  0.78901931286
    R9_27  BAL9_27  0.754797424101
    R9_27  BAL13_27  0.768901871625
    R9_27  BAL17_27  0.481596725695
    R9_27  BAL18_27  0.924562629843
    R9_27  BAL19_27  0.611906717429
    R9_27  BAL20_27  0.554747876489
    R9_27  BAL22_27  0.301224671253
    R9_27  BAL29_27  0.925060165089
    R9_27  CAP27  1
    R9_28  COST  4.09094960212
    R9_28  BAL3_28  0.78901931286
    R9_28  BAL9_28  0.754797424101
    R9_28  BAL13_28  0.768901871625
    R9_28  BAL17_28  0.481596725695
    R9_28  BAL18_28  0.924562629843
    R9_28  BAL19_28  0.611906717429
    R9_28  BAL20_28  0.554747876489
    R9_28  BAL22_28  0.301224671253
    R9_28  BAL29_28  0.925060165089
    R9_28  CAP28  1
    R9_29  COST  4.09094960212
    R9_29  BAL3_29  0.78901931286
    R9_29  BAL9_29  0.754797424101
    R9_29  BAL13_29  0.768901871625
    R9_29  BAL17_29  0.481596725695
    R9_29  BAL18_29  0.924562629843
    R9_29  BAL19_29  0.611906717429
    R9_29  BAL20_29  0.554747876489
    R9_29  BAL22_29  0.301224671253
    R9_29  BAL29_29  0.925060165089
    R9_29  CAP29  1
    R9_30  COST  4.09094960212
    R9_30  BAL3_30  0.78901931286
    R9_30  BAL9_30  0.754797424101
    R9_30  BAL13_30  0.768901871625
    R9_30  BAL17_30  0.481596725695
    R9_30  BAL18_30  0.924562629843
    R9_30  BAL19_30  0.611906717429
    R9_30  BAL20_30  0.554747876489
    R9_30  BAL22_30  0.301224671253
    R9_30  BAL29_30  0.925060165089
    R9_30  CAP30  1
    R9_31  COST  4.09094960212
    R9_31  BAL3_31  0.78901931286
    R9_31  BAL9_31  0.754797424101
    R9_31  BAL13_31  0.768901871625
    R9_31  BAL17_31  0.481596725695
    R9_31  BAL18_31  0.924562629843
    R9_31  BAL19_31  0.611906717429
    R9_31  BAL20_31  0.554747876489
    R9_31  BAL22_31  0.301224671253
    R9_31  BAL29_31  0.925060165089
    R9_31  CAP31  1
    R9_32  COST  4.09094960212
    R9_32  BAL3_32  0.78901931286
    R9_32  BAL9_32  0.754797424101
    R9_32  BAL13_32  0.768901871625
    R9_32  BAL17_32  0.481596725695
    R9_32  BAL18_32  0.924562629843
    R9_32  BAL19_32  0.611906717429
    R9_32  BAL20_32  0.554747876489
    R9_32  BAL22_32  0.301224671253
    R9_32  BAL29_32  0.925060165089
    R9_32  CAP32  1
    R9_33  COST  4.09094960212
    R9_33  BAL3_33  0.78901931286
    R9_33  BAL9_33  0.754797424101
    R9_33  BAL13_33  0.768901871625
    R9_33  BAL17_33  0.481596725695
    R9_33  BAL18_33  0.924562629843
    R9_33  BAL19_33  0.611906717429
    R9_33  BAL20_33  0.554747876489
    R9_33  BAL22_33  0.301224671253
    R9_33  BAL29_33  0.925060165089
    R9_33  CAP33  1
    R9_34  COST  4.09094960212
    R9_34  BAL3_34  0.78901931286
    R9_34  BAL9_34  0.754797424101
    R9_34  BAL13_34  0.768901871625
    R9_34  BAL17_34  0.481596725695
    R9_34  BAL18_34  0.924562629843
    R9_34  BAL19_34  0.611906717429
    R9_34  BAL20_34  0.554747876489
    R9_34  BAL22_34  0.301224671253
    R9_34  BAL29_34  0.925060165089
    R9_34  CAP34  1
    R9_35  COST  4.09094960212
    R9_35  BAL3_35  0.78901931286
    R9_35  BAL9_35  0.754797424101
    R9_35  BAL13_35  0.768901871625
    R9_35  BAL17_35  0.481596725695
    R9_35  BAL18_35  0.924562629843
    R9_35  BAL19_35  0.611906717429
    R9_35  BAL20_35  0.554747876489
    R9_35  BAL22_35  0.301224671253
    R9_35  BAL29_35  0.925060165089
    R9_35  CAP35  1
    R10_0  COST  13.7038531327
    R10_0  BAL1_0  0.579563513025
    R10_0  BAL3_0  0.488216643275
    R10_0  BAL5_0  0.226633650248
    R10_0  BAL6_0  0.815254160785
    R10_0  BAL7_0  0.508488208758
    R10_0  BAL12_0  0.742233486383
    R10_0  BAL14_0  0.694032507485
    R10_0  BAL16_0  0.849925304569
    R10_0  BAL18_0  0.785617348463
    R10_0  BAL19_0  0.424363449633
    R10_0  BAL21_0  0.686993459317
    R10_0  BAL24_0  0.920521667261
    R10_0  BAL26_0  0.510452335573
    R10_0  BAL28_0  0.195141358004
    R10_0  BAL29_0  0.404626746649
    R10_0  CAP0  1
    R10_1  COST  13.7038531327
    R10_1  BAL1_1  0.579563513025
    R10_1  BAL3_1  0.488216643275
    R10_1  BAL5_1  0.226633650248
    R10_1  BAL6_1  0.815254160785
    R10_1  BAL7_1  0.508488208758
    R10_1  BAL12_1  0.742233486383
    R10_1  BAL14_1  0.694032507485
    R10_1  BAL16_1  0.849925304569
    R10_1  BAL18_1  0.785617348463
    R10_1  BAL19_1  0.424363449633
    R10_1  BAL21_1  0.686993459317
    R10_1  BAL24_1  0.920521667261
    R10_1  BAL26_1  0.510452335573
    R10_1  BAL28_1  0.195141358004
    R10_1  BAL29_1  0.404626746649
    R10_1  CAP1  1
    R10_2  COST  13.7038531327
    R10_2  BAL1_2  0.579563513025
    R10_2  BAL3_2  0.488216643275
    R10_2  BAL5_2  0.226633650248
    R10_2  BAL6_2  0.815254160785
    R10_2  BAL7_2  0.508488208758
    R10_2  BAL12_2  0.742233486383
    R10_2  BAL14_2  0.694032507485
    R10_2  BAL16_2  0.849925304569
    R10_2  BAL18_2  0.785617348463
    R10_2  BAL19_2  0.424363449633
    R10_2  BAL21_2  0.686993459317
    R10_2  BAL24_2  0.920521667261
    R10_2  BAL26_2  0.510452335573
    R10_2  BAL28_2  0.195141358004
    R10_2  BAL29_2  0.404626746649
    R10_2  CAP2  1
    R10_3  COST  13.7038531327
    R10_3  BAL1_3  0.579563513025
    R10_3  BAL3_3  0.488216643275
    R10_3  BAL5_3  0.226633650248
    R10_3  BAL6_3  0.815254160785
    R10_3  BAL7_3  0.508488208758
    R10_3  BAL12_3  0.742233486383
    R10_3  BAL14_3  0.694032507485
    R10_3  BAL16_3  0.849925304569
    R10_3  BAL18_3  0.785617348463
    R10_3  BAL19_3  0.424363449633
    R10_3  BAL21_3  0.686993459317
    R10_3  BAL24_3  0.920521667261
    R10_3  BAL26_3  0.510452335573
    R10_3  BAL28_3  0.195141358004
    R10_3  BAL29_3  0.404626746649
    R10_3  CAP3  1
    R10_4  COST  13.7038531327
    R10_4  BAL1_4  0.579563513025
    R10_4  BAL3_4  0.488216643275
    R10_4  BAL5_4  0.226633650248
    R10_4  BAL6_4  0.815254160785
    R10_4  BAL7_4  0.508488208758
    R10_4  BAL12_4  0.742233486383
    R10_4  BAL14_4  0.694032507485
    R10_4  BAL16_4  0.849925304569
    R10_4  BAL18_4  0.785617348463
    R10_4  BAL19_4  0.424363449633
    R10_4  BAL21_4  0.686993459317
    R10_4  BAL24_4  0.920521667261
    R10_4  BAL26_4  0.510452335573
    R10_4  BAL28_4  0.195141358004
    R10_4  BAL29_4  0.404626746649
    R10_4  CAP4  1
    R10_5  COST  13.7038531327
    R10_5  BAL1_5  0.579563513025
    R10_5  BAL3_5  0.488216643275
    R10_5  BAL5_5  0.226633650248
    R10_5  BAL6_5  0.815254160785
    R10_5  BAL7_5  0.508488208758
    R10_5  BAL12_5  0.742233486383
    R10_5  BAL14_5  0.694032507485
    R10_5  BAL16_5  0.849925304569
    R10_5  BAL18_5  0.785617348463
    R10_5  BAL19_5  0.424363449633
    R10_5  BAL21_5  0.686993459317
    R10_5  BAL24_5  0.920521667261
    R10_5  BAL26_5  0.510452335573
    R10_5  BAL28_5  0.195141358004
    R10_5  BAL29_5  0.404626746649
    R10_5  CAP5  1
    R10_6  COST  13.7038531327
    R10_6  BAL1_6  0.579563513025
    R10_6  BAL3_6  0.488216643275
    R10_6  BAL5_6  0.226633650248
    R10_6  BAL6_6  0.815254160785
    R10_6  BAL7_6  0.508488208758
    R10_6  BAL12_6  0.742233486383
    R10_6  BAL14_6  0.694032507485
    R10_6  BAL16_6  0.849925304569
    R10_6  BAL18_6  0.785617348463
    R10_6  BAL19_6  0.424363449633
    R10_6  BAL21_6  0.686993459317
    R10_6  BAL24_6  0.920521667261
    R10_6  BAL26_6  0.510452335573
    R10_6  BAL28_6  0.195141358004
    R10_6  BAL29_6  0.404626746649
    R10_6  CAP6  1
    R10_7  COST  13.7038531327
    R10_7  BAL1_7  0.579563513025
    R10_7  BAL3_7  0.488216643275
    R10_7  BAL5_7  0.226633650248
    R10_7  BAL6_7  0.815254160785
    R10_7  BAL7_7  0.508488208758
    R10_7  BAL12_7  0.742233486383
    R10_7  BAL14_7  0.694032507485
    R10_7  BAL16_7  0.849925304569
    R10_7  BAL18_7  0.785617348463
    R10_7  BAL19_7  0.424363449633
    R10_7  BAL21_7  0.686993459317
    R10_7  BAL24_7  0.920521667261
    R10_7  BAL26_7  0.510452335573
    R10_7  BAL28_7  0.195141358004
    R10_7  BAL29_7  0.404626746649
    R10_7  CAP7  1
    R10_8  COST  13.7038531327
    R10_8  BAL1_8  0.579563513025
    R10_8  BAL3_8  0.488216643275
    R10_8  BAL5_8  0.226633650248
    R10_8  BAL6_8  0.815254160785
    R10_8  BAL7_8  0.508488208758
    R10_8  BAL12_8  0.742233486383
    R10_8  BAL14_8  0.694032507485
    R10_8  BAL16_8  0.849925304569
    R10_8  BAL18_8  0.785617348463
    R10_8  BAL19_8  0.424363449633
    R10_8  BAL21_8  0.686993459317
    R10_8  BAL24_8  0.920521667261
    R10_8  BAL26_8  0.510452335573
    R10_8  BAL28_8  0.195141358004
    R10_8  BAL29_8  0.404626746649
    R10_8  CAP8  1
    R10_9  COST  13.7038531327
    R10_9  BAL1_9  0.579563513025
    R10_9  BAL3_9  0.488216643275
    R10_9  BAL5_9  0.226633650248
    R10_9  BAL6_9  0.815254160785
    R10_9  BAL7_9  0.508488208758
    R10_9  BAL12_9  0.742233486383
    R10_9  BAL14_9  0.694032507485
    R10_9  BAL16_9  0.849925304569
    R10_9  BAL18_9  0.785617348463
    R10_9  BAL19_9  0.424363449633
    R10_9  BAL21_9  0.686993459317
    R10_9  BAL24_9  0.920521667261
    R10_9  BAL26_9  0.510452335573
    R10_9  BAL28_9  0.195141358004
    R10_9  BAL29_9  0.404626746649
    R10_9  CAP9  1
    R10_10  COST  13.7038531327
    R10_10  BAL1_10  0.579563513025
    R10_10  BAL3_10  0.488216643275
    R10_10  BAL5_10  0.226633650248
    R10_10  BAL6_10  0.815254160785
    R10_10  BAL7_10  0.508488208758
    R10_10  BAL12_10  0.742233486383
    R10_10  BAL14_10  0.694032507485
    R10_10  BAL16_10  0.849925304569
    R10_10  BAL18_10  0.785617348463
    R10_10  BAL19_10  0.424363449633
    R10_10  BAL21_10  0.686993459317
    R10_10  BAL24_10  0.920521667261
    R10_10  BAL26_10  0.510452335573
    R10_10  BAL28_10  0.195141358004
    R10_10  BAL29_10  0.404626746649
    R10_10  CAP10  1
    R10_11  COST  13.7038531327
    R10_11  BAL1_11  0.579563513025
    R10_11  BAL3_11  0.488216643275
    R10_11  BAL5_11  0.226633650248
    R10_11  BAL6_11  0.815254160785
    R10_11  BAL7_11  0.508488208758
    R10_11  BAL12_11  0.742233486383
    R10_11  BAL14_11  0.694032507485
    R10_11  BAL16_11  0.849925304569
    R10_11  BAL18_11  0.785617348463
    R10_11  BAL19_11  0.424363449633
    R10_11  BAL21_11  0.686993459317
    R10_11  BAL24_11  0.920521667261
    R10_11  BAL26_11  0.510452335573
    R10_11  BAL28_11  0.195141358004
    R10_11  BAL29_11  0.404626746649
    R10_11  CAP11  1
    R10_12  COST  13.7038531327
    R10_12  BAL1_12  0.579563513025
    R10_12  BAL3_12  0.488216643275
    R10_12  BAL5_12  0.226633650248
    R10_12  BAL6_12  0.815254160785
    R10_12  BAL7_12  0.508488208758
    R10_12  BAL12_12  0.742233486383
    R10_12  BAL14_12  0.694032507485
    R10_12  BAL16_12  0.849925304569
    R10_12  BAL18_12  0.785617348463
    R10_12  BAL19_12  0.424363449633
    R10_12  BAL21_12  0.686993459317
    R10_12  BAL24_12  0.920521667261
    R10_12  BAL26_12  0.510452335573
    R10_12  BAL28_12  0.195141358004
    R10_12  BAL29_12  0.404626746649
    R10_12  CAP12  1
    R10_13  COST  13.7038531327
    R10_13  BAL1_13  0.579563513025
    R10_13  BAL3_13  0.488216643275
    R10_13  BAL5_13  0.226633650248
    R10_13  BAL6_13  0.815254160785
    R10_13  BAL7_13  0.508488208758
    R10_13  BAL12_13  0.742233486383
    R10_13  BAL14_13  0.694032507485
    R10_13  BAL16_13  0.849925304569
    R10_13  BAL18_13  0.785617348463
    R10_13  BAL19_13  0.424363449633
    R10_13  BAL21_13  0.686993459317
    R10_13  BAL24_13  0.920521667261
    R10_13  BAL26_13  0.510452335573
    R10_13  BAL28_13  0.195141358004
    R10_13  BAL29_13  0.404626746649
    R10_13  CAP13  1
    R10_14  COST  13.7038531327
    R10_14  BAL1_14  0.579563513025
    R10_14  BAL3_14  0.488216643275
    R10_14  BAL5_14  0.226633650248
    R10_14  BAL6_14  0.815254160785
    R10_14  BAL7_14  0.508488208758
    R10_14  BAL12_14  0.742233486383
    R10_14  BAL14_14  0.694032507485
    R10_14  BAL16_14  0.849925304569
    R10_14  BAL18_14  0.785617348463
    R10_14  BAL19_14  0.424363449633
    R10_14  BAL21_14  0.686993459317
    R10_14  BAL24_14  0.920521667261
    R10_14  BAL26_14  0.510452335573
    R10_14  BAL28_14  0.195141358004
    R10_14  BAL29_14  0.404626746649
    R10_14  CAP14  1
    R10_15  COST  13.7038531327
    R10_15  BAL1_15  0.579563513025
    R10_15  BAL3_15  0.488216643275
    R10_15  BAL5_15  0.226633650248
    R10_15  BAL6_15  0.815254160785
    R10_15  BAL7_15  0.508488208758
    R10_15  BAL12_15  0.742233486383
    R10_15  BAL14_15  0.694032507485
    R10_15  BAL16_15  0.849925304569
    R10_15  BAL18_15  0.785617348463
    R10_15  BAL19_15  0.424363449633
    R10_15  BAL21_15  0.686993459317
    R10_15  BAL24_15  0.920521667261
    R10_15  BAL26_15  0.510452335573
    R10_15  BAL28_15  0.195141358004
    R10_15  BAL29_15  0.404626746649
    R10_15  CAP15  1
    R10_16  COST  13.7038531327
    R10_16  BAL1_16  0.579563513025
    R10_16  BAL3_16  0.488216643275
    R10_16  BAL5_16  0.226633650248
    R10_16  BAL6_16  0.815254160785
    R10_16  BAL7_16  0.508488208758
    R10_16  BAL12_16  0.742233486383
    R10_16  BAL14_16  0.694032507485
    R10_16  BAL16_16  0.849925304569
    R10_16  BAL18_16  0.785617348463
    R10_16  BAL19_16  0.424363449633
    R10_16  BAL21_16  0.686993459317
    R10_16  BAL24_16  0.920521667261
    R10_16  BAL26_16  0.510452335573
    R10_16  BAL28_16  0.195141358004
    R10_16  BAL29_16  0.404626746649
    R10_16  CAP16  1
    R10_17  COST  13.7038531327
    R10_17  BAL1_17  0.579563513025
    R10_17  BAL3_17  0.488216643275
    R10_17  BAL5_17  0.226633650248
    R10_17  BAL6_17  0.815254160785
    R10_17  BAL7_17  0.508488208758
    R10_17  BAL12_17  0.742233486383
    R10_17  BAL14_17  0.694032507485
    R10_17  BAL16_17  0.849925304569
    R10_17  BAL18_17  0.785617348463
    R10_17  BAL19_17  0.424363449633
    R10_17  BAL21_17  0.686993459317
    R10_17  BAL24_17  0.920521667261
    R10_17  BAL26_17  0.510452335573
    R10_17  BAL28_17  0.195141358004
    R10_17  BAL29_17  0.404626746649
    R10_17  CAP17  1
    R10_18  COST  13.7038531327
    R10_18  BAL1_18  0.579563513025
    R10_18  BAL3_18  0.488216643275
    R10_18  BAL5_18  0.226633650248
    R10_18  BAL6_18  0.815254160785
    R10_18  BAL7_18  0.508488208758
    R10_18  BAL12_18  0.742233486383
    R10_18  BAL14_18  0.694032507485
    R10_18  BAL16_18  0.849925304569
    R10_18  BAL18_18  0.785617348463
    R10_18  BAL19_18  0.424363449633
    R10_18  BAL21_18  0.686993459317
    R10_18  BAL24_18  0.920521667261
    R10_18  BAL26_18  0.510452335573
    R10_18  BAL28_18  0.195141358004
    R10_18  BAL29_18  0.404626746649
    R10_18  CAP18  1
    R10_19  COST  13.7038531327
    R10_19  BAL1_19  0.579563513025
    R10_19  BAL3_19  0.488216643275
    R10_19  BAL5_19  0.226633650248
    R10_19  BAL6_19  0.815254160785
    R10_19  BAL7_19  0.508488208758
    R10_19  BAL12_19  0.742233486383
    R10_19  BAL14_19  0.694032507485
    R10_19  BAL16_19  0.849925304569
    R10_19  BAL18_19  0.785617348463
    R10_19  BAL19_19  0.424363449633
    R10_19  BAL21_19  0.686993459317
    R10_19  BAL24_19  0.920521667261
    R10_19  BAL26_19  0.510452335573
    R10_19  BAL28_19  0.195141358004
    R10_19  BAL29_19  0.404626746649
    R10_19  CAP19  1
    R10_20  COST  13.7038531327
    R10_20  BAL1_20  0.579563513025
    R10_20  BAL3_20  0.488216643275
    R10_20  BAL5_20  0.226633650248
    R10_20  BAL6_20  0.815254160785
    R10_20  BAL7_20  0.508488208758
    R10_20  BAL12_20  0.742233486383
    R10_20  BAL14_20  0.694032507485
    R10_20  BAL16_20  0.849925304569
    R10_20  BAL18_20  0.785617348463
    R10_20  BAL19_20  0.424363449633
    R10_20  BAL21_20  0.686993459317
    R10_20  BAL24_20  0.920521667261
    R10_20  BAL26_20  0.510452335573
    R10_20  BAL28_20  0.195141358004
    R10_20  BAL29_20  0.404626746649
    R10_20  CAP20  1
    R10_21  COST  13.7038531327
    R10_21  BAL1_21  0.579563513025
    R10_21  BAL3_21  0.488216643275
    R10_21  BAL5_21  0.226633650248
    R10_21  BAL6_21  0.815254160785
    R10_21  BAL7_21  0.508488208758
    R10_21  BAL12_21  0.742233486383
    R10_21  BAL14_21  0.694032507485
    R10_21  BAL16_21  0.849925304569
    R10_21  BAL18_21  0.785617348463
    R10_21  BAL19_21  0.424363449633
    R10_21  BAL21_21  0.686993459317
    R10_21  BAL24_21  0.920521667261
    R10_21  BAL26_21  0.510452335573
    R10_21  BAL28_21  0.195141358004
    R10_21  BAL29_21  0.404626746649
    R10_21  CAP21  1
    R10_22  COST  13.7038531327
    R10_22  BAL1_22  0.579563513025
    R10_22  BAL3_22  0.488216643275
    R10_22  BAL5_22  0.226633650248
    R10_22  BAL6_22  0.815254160785
    R10_22  BAL7_22  0.508488208758
    R10_22  BAL12_22  0.742233486383
    R10_22  BAL14_22  0.694032507485
    R10_22  BAL16_22  0.849925304569
    R10_22  BAL18_22  0.785617348463
    R10_22  BAL19_22  0.424363449633
    R10_22  BAL21_22  0.686993459317
    R10_22  BAL24_22  0.920521667261
    R10_22  BAL26_22  0.510452335573
    R10_22  BAL28_22  0.195141358004
    R10_22  BAL29_22  0.404626746649
    R10_22  CAP22  1
    R10_23  COST  13.7038531327
    R10_23  BAL1_23  0.579563513025
    R10_23  BAL3_23  0.488216643275
    R10_23  BAL5_23  0.226633650248
    R10_23  BAL6_23  0.815254160785
    R10_23  BAL7_23  0.508488208758
    R10_23  BAL12_23  0.742233486383
    R10_23  BAL14_23  0.694032507485
    R10_23  BAL16_23  0.849925304569
    R10_23  BAL18_23  0.785617348463
    R10_23  BAL19_23  0.424363449633
    R10_23  BAL21_23  0.686993459317
    R10_23  BAL24_23  0.920521667261
    R10_23  BAL26_23  0.510452335573
    R10_23  BAL28_23  0.195141358004
    R10_23  BAL29_23  0.404626746649
    R10_23  CAP23  1
    R10_24  COST  13.7038531327
    R10_24  BAL1_24  0.579563513025
    R10_24  BAL3_24  0.488216643275
    R10_24  BAL5_24  0.226633650248
    R10_24  BAL6_24  0.815254160785
    R10_24  BAL7_24  0.508488208758
    R10_24  BAL12_24  0.742233486383
    R10_24  BAL14_24  0.694032507485
    R10_24  BAL16_24  0.849925304569
    R10_24  BAL18_24  0.785617348463
    R10_24  BAL19_24  0.424363449633
    R10_24  BAL21_24  0.686993459317
    R10_24  BAL24_24  0.920521667261
    R10_24  BAL26_24  0.510452335573
    R10_24  BAL28_24  0.195141358004
    R10_24  BAL29_24  0.404626746649
    R10_24  CAP24  1
    R10_25  COST  13.7038531327
    R10_25  BAL1_25  0.579563513025
    R10_25  BAL3_25  0.488216643275
    R10_25  BAL5_25  0.226633650248
    R10_25  BAL6_25  0.815254160785
    R10_25  BAL7_25  0.508488208758
    R10_25  BAL12_25  0.742233486383
    R10_25  BAL14_25  0.694032507485
    R10_25  BAL16_25  0.849925304569
    R10_25  BAL18_25  0.785617348463
    R10_25  BAL19_25  0.424363449633
    R10_25  BAL21_25  0.686993459317
    R10_25  BAL24_25  0.920521667261
    R10_25  BAL26_25  0.510452335573
    R10_25  BAL28_25  0.195141358004
    R10_25  BAL29_25  0.404626746649
    R10_25  CAP25  1
    R10_26  COST  13.7038531327
    R10_26  BAL1_26  0.579563513025
    R10_26  BAL3_26  0.488216643275
    R10_26  BAL5_26  0.226633650248
    R10_26  BAL6_26  0.815254160785
    R10_26  BAL7_26  0.508488208758
    R10_26  BAL12_26  0.742233486383
    R10_26  BAL14_26  0.694032507485
    R10_26  BAL16_26  0.849925304569
    R10_26  BAL18_26  0.785617348463
    R10_26  BAL19_26  0.424363449633
    R10_26  BAL21_26  0.686993459317
    R10_26  BAL24_26  0.920521667261
    R10_26  BAL26_26  0.510452335573
    R10_26  BAL28_26  0.195141358004
    R10_26  BAL29_26  0.404626746649
    R10_26  CAP26  1
    R10_27  COST  13.7038531327
    R10_27  BAL1_27  0.579563513025
    R10_27  BAL3_27  0.488216643275
    R10_27  BAL5_27  0.226633650248
    R10_27  BAL6_27  0.815254160785
    R10_27  BAL7_27  0.508488208758
    R10_27  BAL12_27  0.742233486383
    R10_27  BAL14_27  0.694032507485
    R10_27  BAL16_27  0.849925304569
    R10_27  BAL18_27  0.785617348463
    R10_27  BAL19_27  0.424363449633
    R10_27  BAL21_27  0.686993459317
    R10_27  BAL24_27  0.920521667261
    R10_27  BAL26_27  0.510452335573
    R10_27  BAL28_27  0.195141358004
    R10_27  BAL29_27  0.404626746649
    R10_27  CAP27  1
    R10_28  COST  13.7038531327
    R10_28  BAL1_28  0.579563513025
    R10_28  BAL3_28  0.488216643275
    R10_28  BAL5_28  0.226633650248
    R10_28  BAL6_28  0.815254160785
    R10_28  BAL7_28  0.508488208758
    R10_28  BAL12_28  0.742233486383
    R10_28  BAL14_28  0.694032507485
    R10_28  BAL16_28  0.849925304569
    R10_28  BAL18_28  0.785617348463
    R10_28  BAL19_28  0.424363449633
    R10_28  BAL21_28  0.686993459317
    R10_28  BAL24_28  0.920521667261
    R10_28  BAL26_28  0.510452335573
    R10_28  BAL28_28  0.195141358004
    R10_28  BAL29_28  0.404626746649
    R10_28  CAP28  1
    R10_29  COST  13.7038531327
    R10_29  BAL1_29  0.579563513025
    R10_29  BAL3_29  0.488216643275
    R10_29  BAL5_29  0.226633650248
    R10_29  BAL6_29  0.815254160785
    R10_29  BAL7_29  0.508488208758
    R10_29  BAL12_29  0.742233486383
    R10_29  BAL14_29  0.694032507485
    R10_29  BAL16_29  0.849925304569
    R10_29  BAL18_29  0.785617348463
    R10_29  BAL19_29  0.424363449633
    R10_29  BAL21_29  0.686993459317
    R10_29  BAL24_29  0.920521667261
    R10_29  BAL26_29  0.510452335573
    R10_29  BAL28_29  0.195141358004
    R10_29  BAL29_29  0.404626746649
    R10_29  CAP29  1
    R10_30  COST  13.7038531327
    R10_30  BAL1_30  0.579563513025
    R10_30  BAL3_30  0.488216643275
    R10_30  BAL5_30  0.226633650248
    R10_30  BAL6_30  0.815254160785
    R10_30  BAL7_30  0.508488208758
    R10_30  BAL12_30  0.742233486383
    R10_30  BAL14_30  0.694032507485
    R10_30  BAL16_30  0.849925304569
    R10_30  BAL18_30  0.785617348463
    R10_30  BAL19_30  0.424363449633
    R10_30  BAL21_30  0.686993459317
    R10_30  BAL24_30  0.920521667261
    R10_30  BAL26_30  0.510452335573
    R10_30  BAL28_30  0.195141358004
    R10_30  BAL29_30  0.404626746649
    R10_30  CAP30  1
    R10_31  COST  13.7038531327
    R10_31  BAL1_31  0.579563513025
    R10_31  BAL3_31  0.488216643275
    R10_31  BAL5_31  0.226633650248
    R10_31  BAL6_31  0.815254160785
    R10_31  BAL7_31  0.508488208758
    R10_31  BAL12_31  0.742233486383
    R10_31  BAL14_31  0.694032507485
    R10_31  BAL16_31  0.849925304569
    R10_31  BAL18_31  0.785617348463
    R10_31  BAL19_31  0.424363449633
    R10_31  BAL21_31  0.686993459317
    R10_31  BAL24_31  0.920521667261
    R10_31  BAL26_31  0.510452335573
    R10_31  BAL28_31  0.195141358004
    R10_31  BAL29_31  0.404626746649
    R10_31  CAP31  1
    R10_32  COST  13.7038531327
    R10_32  BAL1_32  0.579563513025
    R10_32  BAL3_32  0.488216643275
    R10_32  BAL5_32  0.226633650248
    R10_32  BAL6_32  0.815254160785
    R10_32  BAL7_32  0.508488208758
    R10_32  BAL12_32  0.742233486383
    R10_32  BAL14_32  0.694032507485
    R10_32  BAL16_32  0.849925304569
    R10_32  BAL18_32  0.785617348463
    R10_32  BAL19_32  0.424363449633
    R10_32  BAL21_32  0.686993459317
    R10_32  BAL24_32  0.920521667261
    R10_32  BAL26_32  0.510452335573
    R10_32  BAL28_32  0.195141358004
    R10_32  BAL29_32  0.404626746649
    R10_32  CAP32  1
    R10_33  COST  13.7038531327
    R10_33  BAL1_33  0.579563513025
    R10_33  BAL3_33  0.488216643275
    R10_33  BAL5_33  0.226633650248
    R10_33  BAL6_33  0.815254160785
    R10_33  BAL7_33  0.508488208758
    R10_33  BAL12_33  0.742233486383
    R10_33  BAL14_33  0.694032507485
    R10_33  BAL16_33  0.849925304569
    R10_33  BAL18_33  0.785617348463
    R10_33  BAL19_33  0.424363449633
    R10_33  BAL21_33  0.686993459317
    R10_33  BAL24_33  0.920521667261
    R10_33  BAL26_33  0.510452335573
    R10_33  BAL28_33  0.195141358004
    R10_33  BAL29_33  0.404626746649
    R10_33  CAP33  1
    R10_34  COST  13.7038531327
    R10_34  BAL1_34  0.579563513025
    R10_34  BAL3_34  0.488216643275
    R10_34  BAL5_34  0.226633650248
    R10_34  BAL6_34  0.815254160785
    R10_34  BAL7_34  0.508488208758
    R10_34  BAL12_34  0.742233486383
    R10_34  BAL14_34  0.694032507485
    R10_34  BAL16_34  0.849925304569
    R10_34  BAL18_34  0.785617348463
    R10_34  BAL19_34  0.424363449633
    R10_34  BAL21_34  0.686993459317
    R10_34  BAL24_34  0.920521667261
    R10_34  BAL26_34  0.510452335573
    R10_34  BAL28_34  0.195141358004
    R10_34  BAL29_34  0.404626746649
    R10_34  CAP34  1
    R10_35  COST  13.7038531327
    R10_35  BAL1_35  0.579563513025
    R10_35  BAL3_35  0.488216643275
    R10_35  BAL5_35  0.226633650248
    R10_35  BAL6_35  0.815254160785
    R10_35  BAL7_35  0.508488208758
    R10_35  BAL12_35  0.742233486383
    R10_35  BAL14_35  0.694032507485
    R10_35  BAL16_35  0.849925304569
    R10_35  BAL18_35  0.785617348463
    R10_35  BAL19_35  0.424363449633
    R10_35  BAL21_35  0.686993459317
    R10_35  BAL24_35  0.920521667261
    R10_35  BAL26_35  0.510452335573
    R10_35  BAL28_35  0.195141358004
    R10_35  BAL29_35  0.404626746649
    R10_35  CAP35  1
    R11_0  COST  8.63045754067
    R11_0  BAL2_0  0.163931213517
    R11_0  BAL5_0  0.652913603931
    R11_0  BAL8_0  0.460151735441
    R11_0  BAL10_0  0.600851554398
    R11_0  BAL12_0  0.248875753109
    R11_0  BAL14_0  0.167668811285
    R11_0  BAL15_0  0.678672575489
    R11_0  BAL17_0  0.811113719204
    R11_0  BAL19_0  0.587466085579
    R11_0  BAL22_0  0.164852051929
    R11_0  BAL24_0  0.268628751267
    R11_0  BAL25_0  0.358967297118
    R11_0  BAL26_0  0.703875433545
    R11_0  BAL27_0  0.453708120199
    R11_0  CAP0  1
    R11_1  COST  8.63045754067
    R11_1  BAL2_1  0.163931213517
    R11_1  BAL5_1  0.652913603931
    R11_1  BAL8_1  0.460151735441
    R11_1  BAL10_1  0.600851554398
    R11_1  BAL12_1  0.248875753109
    R11_1  BAL14_1  0.167668811285
    R11_1  BAL15_1  0.678672575489
    R11_1  BAL17_1  0.811113719204
    R11_1  BAL19_1  0.587466085579
    R11_1  BAL22_1  0.164852051929
    R11_1  BAL24_1  0.268628751267
    R11_1  BAL25_1  0.358967297118
    R11_1  BAL26_1  0.703875433545
    R11_1  BAL27_1  0.453708120199
    R11_1  CAP1  1
    R11_2  COST  8.63045754067
    R11_2  BAL2_2  0.163931213517
    R11_2  BAL5_2  0.652913603931
    R11_2  BAL8_2  0.460151735441
    R11_2  BAL10_2  0.600851554398
    R11_2  BAL12_2  0.248875753109
    R11_2  BAL14_2  0.167668811285
    R11_2  BAL15_2  0.678672575489
    R11_2  BAL17_2  0.811113719204
    R11_2  BAL19_2  0.587466085579
    R11_2  BAL22_2  0.164852051929
    R11_2  BAL24_2  0.268628751267
    R11_2  BAL25_2  0.358967297118
    R11_2  BAL26_2  0.703875433545
    R11_2  BAL27_2  0.453708120199
    R11_2  CAP2  1
    R11_3  COST  8.63045754067
    R11_3  BAL2_3  0.163931213517
    R11_3  BAL5_3  0.652913603931
    R11_3  BAL8_3  0.460151735441
    R11_3  BAL10_3  0.600851554398
    R11_3  BAL12_3  0.248875753109
    R11_3  BAL14_3  0.167668811285
    R11_3  BAL15_3  0.678672575489
    R11_3  BAL17_3  0.811113719204
    R11_3  BAL19_3  0.587466085579
    R11_3  BAL22_3  0.164852051929
    R11_3  BAL24_3  0.268628751267
    R11_3  BAL25_3  0.358967297118
    R11_3  BAL26_3  0.703875433545
    R11_3  BAL27_3  0.453708120199
    R11_3  CAP3  1
    R11_4  COST  8.63045754067
    R11_4  BAL2_4  0.163931213517
    R11_4  BAL5_4  0.652913603931
    R11_4  BAL8_4  0.460151735441
    R11_4  BAL10_4  0.600851554398
    R11_4  BAL12_4  0.248875753109
    R11_4  BAL14_4  0.167668811285
    R11_4  BAL15_4  0.678672575489
    R11_4  BAL17_4  0.811113719204
    R11_4  BAL19_4  0.587466085579
    R11_4  BAL22_4  0.164852051929
    R11_4  BAL24_4  0.268628751267
    R11_4  BAL25_4  0.358967297118
    R11_4  BAL26_4  0.703875433545
    R11_4  BAL27_4  0.453708120199
    R11_4  CAP4  1
    R11_5  COST  8.63045754067
    R11_5  BAL2_5  0.163931213517
    R11_5  BAL5_5  0.652913603931
    R11_5  BAL8_5  0.460151735441
    R11_5  BAL10_5  0.600851554398
    R11_5  BAL12_5  0.248875753109
    R11_5  BAL14_5  0.167668811285
    R11_5  BAL15_5  0.678672575489
    R11_5  BAL17_5  0.811113719204
    R11_5  BAL19_5  0.587466085579
    R11_5  BAL22_5  0.164852051929
    R11_5  BAL24_5  0.268628751267
    R11_5  BAL25_5  0.358967297118
    R11_5  BAL26_5  0.703875433545
    R11_5  BAL27_5  0.453708120199
    R11_5  CAP5  1
    R11_6  COST  8.63045754067
    R11_6  BAL2_6  0.163931213517
    R11_6  BAL5_6  0.652913603931
    R11_6  BAL8_6  0.460151735441
    R11_6  BAL10_6  0.600851554398
    R11_6  BAL12_6  0.248875753109
    R11_6  BAL14_6  0.167668811285
    R11_6  BAL15_6  0.678672575489
    R11_6  BAL17_6  0.811113719204
    R11_6  BAL19_6  0.587466085579
    R11_6  BAL22_6  0.164852051929
    R11_6  BAL24_6  0.268628751267
    R11_6  BAL25_6  0.358967297118
    R11_6  BAL26_6  0.703875433545
    R11_6  BAL27_6  0.453708120199
    R11_6  CAP6  1
    R11_7  COST  8.63045754067
    R11_7  BAL2_7  0.163931213517
    R11_7  BAL5_7  0.652913603931
    R11_7  BAL8_7  0.460151735441
    R11_7  BAL10_7  0.600851554398
    R11_7  BAL12_7  0.248875753109
    R11_7  BAL14_7  0.167668811285
    R11_7  BAL15_7  0.678672575489
    R11_7  BAL17_7  0.811113719204
    R11_7  BAL19_7  0.587466085579
    R11_7  BAL22_7  0.164852051929
    R11_7  BAL24_7  0.268628751267
    R11_7  BAL25_7  0.358967297118
    R11_7  BAL26_7  0.703875433545
    R11_7  BAL27_7  0.453708120199
    R11_7  CAP7  1
    R11_8  COST  8.63045754067
    R11_8  BAL2_8  0.163931213517
    R11_8  BAL5_8  0.652913603931
    R11_8  BAL8_8  0.460151735441
    R11_8  BAL10_8  0.600851554398
    R11_8  BAL12_8  0.248875753109
    R11_8  BAL14_8  0.167668811285
    R11_8  BAL15_8  0.678672575489
    R11_8  BAL17_8  0.811113719204
    R11_8  BAL19_8  0.587466085579
    R11_8  BAL22_8  0.164852051929
    R11_8  BAL24_8  0.268628751267
    R11_8  BAL25_8  0.358967297118
    R11_8  BAL26_8  0.703875433545
    R11_8  BAL27_8  0.453708120199
    R11_8  CAP8  1
    R11_9  COST  8.63045754067
    R11_9  BAL2_9  0.163931213517
    R11_9  BAL5_9  0.652913603931
    R11_9  BAL8_9  0.460151735441
    R11_9  BAL10_9  0.600851554398
    R11_9  BAL12_9  0.248875753109
    R11_9  BAL14_9  0.167668811285
    R11_9  BAL15_9  0.678672575489
    R11_9  BAL17_9  0.811113719204
    R11_9  BAL19_9  0.587466085579
    R11_9  BAL22_9  0.164852051929
    R11_9  BAL24_9  0.268628751267
    R11_9  BAL25_9  0.358967297118
    R11_9  BAL26_9  0.703875433545
    R11_9  BAL27_9  0.453708120199
    R11_9  CAP9  1
    R11_10  COST  8.63045754067
    R11_10  BAL2_10  0.163931213517
    R11_10  BAL5_10  0.652913603931
    R11_10  BAL8_10  0.460151735441
    R11_10  BAL10_10  0.600851554398
    R11_10  BAL12_10  0.248875753109
    R11_10  BAL14_10  0.167668811285
    R11_10  BAL15_10  0.678672575489
    R11_10  BAL17_10  0.811113719204
    R11_10  BAL19_10  0.587466085579
    R11_10  BAL22_10  0.164852051929
    R11_10  BAL24_10  0.268628751267
    R11_10  BAL25_10  0.358967297118
    R11_10  BAL26_10  0.703875433545
    R11_10  BAL27_10  0.453708120199
    R11_10  CAP10  1
    R11_11  COST  8.63045754067
    R11_11  BAL2_11  0.163931213517
    R11_11  BAL5_11  0.652913603931
    R11_11  BAL8_11  0.460151735441
    R11_11  BAL10_11  0.600851554398
    R11_11  BAL12_11  0.248875753109
    R11_11  BAL14_11  0.167668811285
    R11_11  BAL15_11  0.678672575489
    R11_11  BAL17_11  0.811113719204
    R11_11  BAL19_11  0.587466085579
    R11_11  BAL22_11  0.164852051929
    R11_11  BAL24_11  0.268628751267
    R11_11  BAL25_11  0.358967297118
    R11_11  BAL26_11  0.703875433545
    R11_11  BAL27_11  0.453708120199
    R11_11  CAP11  1
    R11_12  COST  8.63045754067
    R11_12  BAL2_12  0.163931213517
    R11_12  BAL5_12  0.652913603931
    R11_12  BAL8_12  0.460151735441
    R11_12  BAL10_12  0.600851554398
    R11_12  BAL12_12  0.248875753109
    R11_12  BAL14_12  0.167668811285
    R11_12  BAL15_12  0.678672575489
    R11_12  BAL17_12  0.811113719204
    R11_12  BAL19_12  0.587466085579
    R11_12  BAL22_12  0.164852051929
    R11_12  BAL24_12  0.268628751267
    R11_12  BAL25_12  0.358967297118
    R11_12  BAL26_12  0.703875433545
    R11_12  BAL27_12  0.453708120199
    R11_12  CAP12  1
    R11_13  COST  8.63045754067
    R11_13  BAL2_13  0.163931213517
    R11_13  BAL5_13  0.652913603931
    R11_13  BAL8_13  0.460151735441
    R11_13  BAL10_13  0.600851554398
    R11_13  BAL12_13  0.248875753109
    R11_13  BAL14_13  0.167668811285
    R11_13  BAL15_13  0.678672575489
    R11_13  BAL17_13  0.811113719204
    R11_13  BAL19_13  0.587466085579
    R11_13  BAL22_13  0.164852051929
    R11_13  BAL24_13  0.268628751267
    R11_13  BAL25_13  0.358967297118
    R11_13  BAL26_13  0.703875433545
    R11_13  BAL27_13  0.453708120199
    R11_13  CAP13  1
    R11_14  COST  8.63045754067
    R11_14  BAL2_14  0.163931213517
    R11_14  BAL5_14  0.652913603931
    R11_14  BAL8_14  0.460151735441
    R11_14  BAL10_14  0.600851554398
    R11_14  BAL12_14  0.248875753109
    R11_14  BAL14_14  0.167668811285
    R11_14  BAL15_14  0.678672575489
    R11_14  BAL17_14  0.811113719204
    R11_14  BAL19_14  0.587466085579
    R11_14  BAL22_14  0.164852051929
    R11_14  BAL24_14  0.268628751267
    R11_14  BAL25_14  0.358967297118
    R11_14  BAL26_14  0.703875433545
    R11_14  BAL27_14  0.453708120199
    R11_14  CAP14  1
    R11_15  COST  8.63045754067
    R11_15  BAL2_15  0.163931213517
    R11_15  BAL5_15  0.652913603931
    R11_15  BAL8_15  0.460151735441
    R11_15  BAL10_15  0.600851554398
    R11_15  BAL12_15  0.248875753109
    R11_15  BAL14_15  0.167668811285
    R11_15  BAL15_15  0.678672575489
    R11_15  BAL17_15  0.811113719204
    R11_15  BAL19_15  0.587466085579
    R11_15  BAL22_15  0.164852051929
    R11_15  BAL24_15  0.268628751267
    R11_15  BAL25_15  0.358967297118
    R11_15  BAL26_15  0.703875433545
    R11_15  BAL27_15  0.453708120199
    R11_15  CAP15  1
    R11_16  COST  8.63045754067
    R11_16  BAL2_16  0.163931213517
    R11_16  BAL5_16  0.652913603931
    R11_16  BAL8_16  0.460151735441
    R11_16  BAL10_16  0.600851554398
    R11_16  BAL12_16  0.248875753109
    R11_16  BAL14_16  0.167668811285
    R11_16  BAL15_16  0.678672575489
    R11_16  BAL17_16  0.811113719204
    R11_16  BAL19_16  0.587466085579
    R11_16  BAL22_16  0.164852051929
    R11_16  BAL24_16  0.268628751267
    R11_16  BAL25_16  0.358967297118
    R11_16  BAL26_16  0.703875433545
    R11_16  BAL27_16  0.453708120199
    R11_16  CAP16  1
    R11_17  COST  8.63045754067
    R11_17  BAL2_17  0.163931213517
    R11_17  BAL5_17  0.652913603931
    R11_17  BAL8_17  0.460151735441
    R11_17  BAL10_17  0.600851554398
    R11_17  BAL12_17  0.248875753109
    R11_17  BAL14_17  0.167668811285
    R11_17  BAL15_17  0.678672575489
    R11_17  BAL17_17  0.811113719204
    R11_17  BAL19_17  0.587466085579
    R11_17  BAL22_17  0.164852051929
    R11_17  BAL24_17  0.268628751267
    R11_17  BAL25_17  0.358967297118
    R11_17  BAL26_17  0.703875433545
    R11_17  BAL27_17  0.453708120199
    R11_17  CAP17  1
    R11_18  COST  8.63045754067
    R11_18  BAL2_18  0.163931213517
    R11_18  BAL5_18  0.652913603931
    R11_18  BAL8_18  0.460151735441
    R11_18  BAL10_18  0.600851554398
    R11_18  BAL12_18  0.248875753109
    R11_18  BAL14_18  0.167668811285
    R11_18  BAL15_18  0.678672575489
    R11_18  BAL17_18  0.811113719204
    R11_18  BAL19_18  0.587466085579
    R11_18  BAL22_18  0.164852051929
    R11_18  BAL24_18  0.268628751267
    R11_18  BAL25_18  0.358967297118
    R11_18  BAL26_18  0.703875433545
    R11_18  BAL27_18  0.453708120199
    R11_18  CAP18  1
    R11_19  COST  8.63045754067
    R11_19  BAL2_19  0.163931213517
    R11_19  BAL5_19  0.652913603931
    R11_19  BAL8_19  0.460151735441
    R11_19  BAL10_19  0.600851554398
    R11_19  BAL12_19  0.248875753109
    R11_19  BAL14_19  0.167668811285
    R11_19  BAL15_19  0.678672575489
    R11_19  BAL17_19  0.811113719204
    R11_19  BAL19_19  0.587466085579
    R11_19  BAL22_19  0.164852051929
    R11_19  BAL24_19  0.268628751267
    R11_19  BAL25_19  0.358967297118
    R11_19  BAL26_19  0.703875433545
    R11_19  BAL27_19  0.453708120199
    R11_19  CAP19  1
    R11_20  COST  8.63045754067
    R11_20  BAL2_20  0.163931213517
    R11_20  BAL5_20  0.652913603931
    R11_20  BAL8_20  0.460151735441
    R11_20  BAL10_20  0.600851554398
    R11_20  BAL12_20  0.248875753109
    R11_20  BAL14_20  0.167668811285
    R11_20  BAL15_20  0.678672575489
    R11_20  BAL17_20  0.811113719204
    R11_20  BAL19_20  0.587466085579
    R11_20  BAL22_20  0.164852051929
    R11_20  BAL24_20  0.268628751267
    R11_20  BAL25_20  0.358967297118
    R11_20  BAL26_20  0.703875433545
    R11_20  BAL27_20  0.453708120199
    R11_20  CAP20  1
    R11_21  COST  8.63045754067
    R11_21  BAL2_21  0.163931213517
    R11_21  BAL5_21  0.652913603931
    R11_21  BAL8_21  0.460151735441
    R11_21  BAL10_21  0.600851554398
    R11_21  BAL12_21  0.248875753109
    R11_21  BAL14_21  0.167668811285
    R11_21  BAL15_21  0.678672575489
    R11_21  BAL17_21  0.811113719204
    R11_21  BAL19_21  0.587466085579
    R11_21  BAL22_21  0.164852051929
    R11_21  BAL24_21  0.268628751267
    R11_21  BAL25_21  0.358967297118
    R11_21  BAL26_21  0.703875433545
    R11_21  BAL27_21  0.453708120199
    R11_21  CAP21  1
    R11_22  COST  8.63045754067
    R11_22  BAL2_22  0.163931213517
    R11_22  BAL5_22  0.652913603931
    R11_22  BAL8_22  0.460151735441
    R11_22  BAL10_22  0.600851554398
    R11_22  BAL12_22  0.248875753109
    R11_22  BAL14_22  0.167668811285
    R11_22  BAL15_22  0.678672575489
    R11_22  BAL17_22  0.811113719204
    R11_22  BAL19_22  0.587466085579
    R11_22  BAL22_22  0.164852051929
    R11_22  BAL24_22  0.268628751267
    R11_22  BAL25_22  0.358967297118
    R11_22  BAL26_22  0.703875433545
    R11_22  BAL27_22  0.453708120199
    R11_22  CAP22  1
    R11_23  COST  8.63045754067
    R11_23  BAL2_23  0.163931213517
    R11_23  BAL5_23  0.652913603931
    R11_23  BAL8_23  0.460151735441
    R11_23  BAL10_23  0.600851554398
    R11_23  BAL12_23  0.248875753109
    R11_23  BAL14_23  0.167668811285
    R11_23  BAL15_23  0.678672575489
    R11_23  BAL17_23  0.811113719204
    R11_23  BAL19_23  0.587466085579
    R11_23  BAL22_23  0.164852051929
    R11_23  BAL24_23  0.268628751267
    R11_23  BAL25_23  0.358967297118
    R11_23  BAL26_23  0.703875433545
    R11_23  BAL27_23  0.453708120199
    R11_23  CAP23  1
    R11_24  COST  8.63045754067
    R11_24  BAL2_24  0.163931213517
    R11_24  BAL5_24  0.652913603931
    R11_24  BAL8_24  0.460151735441
    R11_24  BAL10_24  0.600851554398
    R11_24  BAL12_24  0.248875753109
    R11_24  BAL14_24  0.167668811285
    R11_24  BAL15_24  0.678672575489
    R11_24  BAL17_24  0.811113719204
    R11_24  BAL19_24  0.587466085579
    R11_24  BAL22_24  0.164852051929
    R11_24  BAL24_24  0.268628751267
    R11_24  BAL25_24  0.358967297118
    R11_24  BAL26_24  0.703875433545
    R11_24  BAL27_24  0.453708120199
    R11_24  CAP24  1
    R11_25  COST  8.63045754067
    R11_25  BAL2_25  0.163931213517
    R11_25  BAL5_25  0.652913603931
    R11_25  BAL8_25  0.460151735441
    R11_25  BAL10_25  0.600851554398
    R11_25  BAL12_25  0.248875753109
    R11_25  BAL14_25  0.167668811285
    R11_25  BAL15_25  0.678672575489
    R11_25  BAL17_25  0.811113719204
    R11_25  BAL19_25  0.587466085579
    R11_25  BAL22_25  0.164852051929
    R11_25  BAL24_25  0.268628751267
    R11_25  BAL25_25  0.358967297118
    R11_25  BAL26_25  0.703875433545
    R11_25  BAL27_25  0.453708120199
    R11_25  CAP25  1
    R11_26  COST  8.63045754067
    R11_26  BAL2_26  0.163931213517
    R11_26  BAL5_26  0.652913603931
    R11_26  BAL8_26  0.460151735441
    R11_26  BAL10_26  0.600851554398
    R11_26  BAL12_26  0.248875753109
    R11_26  BAL14_26  0.167668811285
    R11_26  BAL15_26  0.678672575489
    R11_26  BAL17_26  0.811113719204
    R11_26  BAL19_26  0.587466085579
    R11_26  BAL22_26  0.164852051929
    R11_26  BAL24_26  0.268628751267
    R11_26  BAL25_26  0.358967297118
    R11_26  BAL26_26  0.703875433545
    R11_26  BAL27_26  0.453708120199
    R11_26  CAP26  1
    R11_27  COST  8.63045754067
    R11_27  BAL2_27  0.163931213517
    R11_27  BAL5_27  0.652913603931
    R11_27  BAL8_27  0.460151735441
    R11_27  BAL10_27  0.600851554398
    R11_27  BAL12_27  0.248875753109
    R11_27  BAL14_27  0.167668811285
    R11_27  BAL15_27  0.678672575489
    R11_27  BAL17_27  0.811113719204
    R11_27  BAL19_27  0.587466085579
    R11_27  BAL22_27  0.164852051929
    R11_27  BAL24_27  0.268628751267
    R11_27  BAL25_27  0.358967297118
    R11_27  BAL26_27  0.703875433545
    R11_27  BAL27_27  0.453708120199
    R11_27  CAP27  1
    R11_28  COST  8.63045754067
    R11_28  BAL2_28  0.163931213517
    R11_28  BAL5_28  0.652913603931
    R11_28  BAL8_28  0.460151735441
    R11_28  BAL10_28  0.600851554398
    R11_28  BAL12_28  0.248875753109
    R11_28  BAL14_28  0.167668811285
    R11_28  BAL15_28  0.678672575489
    R11_28  BAL17_28  0.811113719204
    R11_28  BAL19_28  0.587466085579
    R11_28  BAL22_28  0.164852051929
    R11_28  BAL24_28  0.268628751267
    R11_28  BAL25_28  0.358967297118
    R11_28  BAL26_28  0.703875433545
    R11_28  BAL27_28  0.453708120199
    R11_28  CAP28  1
    R11_29  COST  8.63045754067
    R11_29  BAL2_29  0.163931213517
    R11_29  BAL5_29  0.652913603931
    R11_29  BAL8_29  0.460151735441
    R11_29  BAL10_29  0.600851554398
    R11_29  BAL12_29  0.248875753109
    R11_29  BAL14_29  0.167668811285
    R11_29  BAL15_29  0.678672575489
    R11_29  BAL17_29  0.811113719204
    R11_29  BAL19_29  0.587466085579
    R11_29  BAL22_29  0.164852051929
    R11_29  BAL24_29  0.268628751267
    R11_29  BAL25_29  0.358967297118
    R11_29  BAL26_29  0.703875433545
    R11_29  BAL27_29  0.453708120199
    R11_29  CAP29  1
    R11_30  COST  8.63045754067
    R11_30  BAL2_30  0.163931213517
    R11_30  BAL5_30  0.652913603931
    R11_30  BAL8_30  0.460151735441
    R11_30  BAL10_30  0.600851554398
    R11_30  BAL12_30  0.248875753109
    R11_30  BAL14_30  0.167668811285
    R11_30  BAL15_30  0.678672575489
    R11_30  BAL17_30  0.811113719204
    R11_30  BAL19_30  0.587466085579
    R11_30  BAL22_30  0.164852051929
    R11_30  BAL24_30  0.268628751267
    R11_30  BAL25_30  0.358967297118
    R11_30  BAL26_30  0.703875433545
    R11_30  BAL27_30  0.453708120199
    R11_30  CAP30  1
    R11_31  COST  8.63045754067
    R11_31  BAL2_31  0.163931213517
    R11_31  BAL5_31  0.652913603931
    R11_31  BAL8_31  0.460151735441
    R11_31  BAL10_31  0.600851554398
    R11_31  BAL12_31  0.248875753109
    R11_31  BAL14_31  0.167668811285
    R11_31  BAL15_31  0.678672575489
    R11_31  BAL17_31  0.811113719204
    R11_31  BAL19_31  0.587466085579
    R11_31  BAL22_31  0.164852051929
    R11_31  BAL24_31  0.268628751267
    R11_31  BAL25_31  0.358967297118
    R11_31  BAL26_31  0.703875433545
    R11_31  BAL27_31  0.453708120199
    R11_31  CAP31  1
    R11_32  COST  8.63045754067
    R11_32  BAL2_32  0.163931213517
    R11_32  BAL5_32  0.652913603931
    R11_32  BAL8_32  0.460151735441
    R11_32  BAL10_32  0.600851554398
    R11_32  BAL12_32  0.248875753109
    R11_32  BAL14_32  0.167668811285
    R11_32  BAL15_32  0.678672575489
    R11_32  BAL17_32  0.811113719204
    R11_32  BAL19_32  0.587466085579
    R11_32  BAL22_32  0.164852051929
    R11_32  BAL24_32  0.268628751267
    R11_32  BAL25_32  0.358967297118
    R11_32  BAL26_32  0.703875433545
    R11_32  BAL27_32  0.453708120199
    R11_32  CAP32  1
    R11_33  COST  8.63045754067
    R11_33  BAL2_33  0.163931213517
    R11_33  BAL5_33  0.652913603931
    R11_33  BAL8_33  0.460151735441
    R11_33  BAL10_33  0.600851554398
    R11_33  BAL12_33  0.248875753109
    R11_33  BAL14_33  0.167668811285
    R11_33  BAL15_33  0.678672575489
    R11_33  BAL17_33  0.811113719204
    R11_33  BAL19_33  0.587466085579
    R11_33  BAL22_33  0.164852051929
    R11_33  BAL24_33  0.268628751267
    R11_33  BAL25_33  0.358967297118
    R11_33  BAL26_33  0.703875433545
    R11_33  BAL27_33  0.453708120199
    R11_33  CAP33  1
    R11_34  COST  8.63045754067
    R11_34  BAL2_34  0.163931213517
    R11_34  BAL5_34  0.652913603931
    R11_34  BAL8_34  0.460151735441
    R11_34  BAL10_34  0.600851554398
    R11_34  BAL12_34  0.248875753109
    R11_34  BAL14_34  0.167668811285
    R11_34  BAL15_34  0.678672575489
    R11_34  BAL17_34  0.811113719204
    R11_34  BAL19_34  0.587466085579
    R11_34  BAL22_34  0.164852051929
    R11_34  BAL24_34  0.268628751267
    R11_34  BAL25_34  0.358967297118
    R11_34  BAL26_34  0.703875433545
    R11_34  BAL27_34  0.453708120199
    R11_34  CAP34  1
    R11_35  COST  8.63045754067
    R11_35  BAL2_35  0.163931213517
    R11_35  BAL5_35  0.652913603931
    R11_35  BAL8_35  0.460151735441
    R11_35  BAL10_35  0.600851554398
    R11_35  BAL12_35  0.248875753109
    R11_35  BAL14_35  0.167668811285
    R11_35  BAL15_35  0.678672575489
    R11_35  BAL17_35  0.811113719204
    R11_35  BAL19_35  0.587466085579
    R11_35  BAL22_35  0.164852051929
    R11_35  BAL24_35  0.268628751267
    R11_35  BAL25_35  0.358967297118
    R11_35  BAL26_35  0.703875433545
    R11_35  BAL27_35  0.453708120199
    R11_35  CAP35  1
    R12_0  COST  14.5313895051
    R12_0  BAL0_0  0.789366245272
    R12_0  BAL2_0  0.597212289218
    R12_0  BAL5_0  0.271105412176
    R12_0  BAL6_0  0.592672616304
    R12_0  BAL7_0  0.690411555271
    R12_0  BAL10_0  0.661101632054
    R12_0  BAL11_0  0.941810026038
    R12_0  BAL12_0  0.770177933031
    R12_0  BAL19_0  0.409995746401
    R12_0  BAL22_0  0.714689756704
    R12_0  BAL23_0  0.703204495938
    R12_0  BAL24_0  0.428873327308
    R12_0  BAL25_0  0.716678131804
    R12_0  BAL26_0  0.694741747579
    R12_0  CAP0  1
    R12_1  COST  14.5313895051
    R12_1  BAL0_1  0.789366245272
    R12_1  BAL2_1  0.597212289218
    R12_1  BAL5_1  0.271105412176
    R12_1  BAL6_1  0.592672616304
    R12_1  BAL7_1  0.690411555271
    R12_1  BAL10_1  0.661101632054
    R12_1  BAL11_1  0.941810026038
    R12_1  BAL12_1  0.770177933031
    R12_1  BAL19_1  0.409995746401
    R12_1  BAL22_1  0.714689756704
    R12_1  BAL23_1  0.703204495938
    R12_1  BAL24_1  0.428873327308
    R12_1  BAL25_1  0.716678131804
    R12_1  BAL26_1  0.694741747579
    R12_1  CAP1  1
    R12_2  COST  14.5313895051
    R12_2  BAL0_2  0.789366245272
    R12_2  BAL2_2  0.597212289218
    R12_2  BAL5_2  0.271105412176
    R12_2  BAL6_2  0.592672616304
    R12_2  BAL7_2  0.690411555271
    R12_2  BAL10_2  0.661101632054
    R12_2  BAL11_2  0.941810026038
    R12_2  BAL12_2  0.770177933031
    R12_2  BAL19_2  0.409995746401
    R12_2  BAL22_2  0.714689756704
    R12_2  BAL23_2  0.703204495938
    R12_2  BAL24_2  0.428873327308
    R12_2  BAL25_2  0.716678131804
    R12_2  BAL26_2  0.694741747579
    R12_2  CAP2  1
    R12_3  COST  14.5313895051
    R12_3  BAL0_3  0.789366245272
    R12_3  BAL2_3  0.597212289218
    R12_3  BAL5_3  0.271105412176
    R12_3  BAL6_3  0.592672616304
    R12_3  BAL7_3  0.690411555271
    R12_3  BAL10_3  0.661101632054
    R12_3  BAL11_3  0.941810026038
    R12_3  BAL12_3  0.770177933031
    R12_3  BAL19_3  0.409995746401
    R12_3  BAL22_3  0.714689756704
    R12_3  BAL23_3  0.703204495938
    R12_3  BAL24_3  0.428873327308
    R12_3  BAL25_3  0.716678131804
    R12_3  BAL26_3  0.694741747579
    R12_3  CAP3  1
    R12_4  COST  14.5313895051
    R12_4  BAL0_4  0.789366245272
    R12_4  BAL2_4  0.597212289218
    R12_4  BAL5_4  0.271105412176
    R12_4  BAL6_4  0.592672616304
    R12_4  BAL7_4  0.690411555271
    R12_4  BAL10_4  0.661101632054
    R12_4  BAL11_4  0.941810026038
    R12_4  BAL12_4  0.770177933031
    R12_4  BAL19_4  0.409995746401
    R12_4  BAL22_4  0.714689756704
    R12_4  BAL23_4  0.703204495938
    R12_4  BAL24_4  0.428873327308
    R12_4  BAL25_4  0.716678131804
    R12_4  BAL26_4  0.694741747579
    R12_4  CAP4  1
    R12_5  COST  14.5313895051
    R12_5  BAL0_5  0.789366245272
    R12_5  BAL2_5  0.597212289218
    R12_5  BAL5_5  0.271105412176
    R12_5  BAL6_5  0.592672616304
    R12_5  BAL7_5  0.690411555271
    R12_5  BAL10_5  0.661101632054
    R12_5  BAL11_5  0.941810026038
    R12_5  BAL12_5  0.770177933031
    R12_5  BAL19_5  0.409995746401
    R12_5  BAL22_5  0.714689756704
    R12_5  BAL23_5  0.703204495938
    R12_5  BAL24_5  0.428873327308
    R12_5  BAL25_5  0.716678131804
    R12_5  BAL26_5  0.694741747579
    R12_5  CAP5  1
    R12_6  COST  14.5313895051
    R12_6  BAL0_6  0.789366245272
    R12_6  BAL2_6  0.597212289218
    R12_6  BAL5_6  0.271105412176
    R12_6  BAL6_6  0.592672616304
    R12_6  BAL7_6  0.690411555271
    R12_6  BAL10_6  0.661101632054
    R12_6  BAL11_6  0.941810026038
    R12_6  BAL12_6  0.770177933031
    R12_6  BAL19_6  0.409995746401
    R12_6  BAL22_6  0.714689756704
    R12_6  BAL23_6  0.703204495938
    R12_6  BAL24_6  0.428873327308
    R12_6  BAL25_6  0.716678131804
    R12_6  BAL26_6  0.694741747579
    R12_6  CAP6  1
    R12_7  COST  14.5313895051
    R12_7  BAL0_7  0.789366245272
    R12_7  BAL2_7  0.597212289218
    R12_7  BAL5_7  0.271105412176
    R12_7  BAL6_7  0.592672616304
    R12_7  BAL7_7  0.690411555271
    R12_7  BAL10_7  0.661101632054
    R12_7  BAL11_7  0.941810026038
    R12_7  BAL12_7  0.770177933031
    R12_7  BAL19_7  0.409995746401
    R12_7  BAL22_7  0.714689756704
    R12_7  BAL23_7  0.703204495938
    R12_7  BAL24_7  0.428873327308
    R12_7  BAL25_7  0.716678131804
    R12_7  BAL26_7  0.694741747579
    R12_7  CAP7  1
    R12_8  COST  14.5313895051
    R12_8  BAL0_8  0.789366245272
    R12_8  BAL2_8  0.597212289218
    R12_8  BAL5_8  0.271105412176
    R12_8  BAL6_8  0.592672616304
    R12_8  BAL7_8  0.690411555271
    R12_8  BAL10_8  0.661101632054
    R12_8  BAL11_8  0.941810026038
    R12_8  BAL12_8  0.770177933031
    R12_8  BAL19_8  0.409995746401
    R12_8  BAL22_8  0.714689756704
    R12_8  BAL23_8  0.703204495938
    R12_8  BAL24_8  0.428873327308
    R12_8  BAL25_8  0.716678131804
    R12_8  BAL26_8  0.694741747579
    R12_8  CAP8  1
    R12_9  COST  14.5313895051
    R12_9  BAL0_9  0.789366245272
    R12_9  BAL2_9  0.597212289218
    R12_9  BAL5_9  0.271105412176
    R12_9  BAL6_9  0.592672616304
    R12_9  BAL7_9  0.690411555271
    R12_9  BAL10_9  0.661101632054
    R12_9  BAL11_9  0.941810026038
    R12_9  BAL12_9  0.770177933031
    R12_9  BAL19_9  0.409995746401
    R12_9  BAL22_9  0.714689756704
    R12_9  BAL23_9  0.703204495938
    R12_9  BAL24_9  0.428873327308
    R12_9  BAL25_9  0.716678131804
    R12_9  BAL26_9  0.694741747579
    R12_9  CAP9  1
    R12_10  COST  14.5313895051
    R12_10  BAL0_10  0.789366245272
    R12_10  BAL2_10  0.597212289218
    R12_10  BAL5_10  0.271105412176
    R12_10  BAL6_10  0.592672616304
    R12_10  BAL7_10  0.690411555271
    R12_10  BAL10_10  0.661101632054
    R12_10  BAL11_10  0.941810026038
    R12_10  BAL12_10  0.770177933031
    R12_10  BAL19_10  0.409995746401
    R12_10  BAL22_10  0.714689756704
    R12_10  BAL23_10  0.703204495938
    R12_10  BAL24_10  0.428873327308
    R12_10  BAL25_10  0.716678131804
    R12_10  BAL26_10  0.694741747579
    R12_10  CAP10  1
    R12_11  COST  14.5313895051
    R12_11  BAL0_11  0.789366245272
    R12_11  BAL2_11  0.597212289218
    R12_11  BAL5_11  0.271105412176
    R12_11  BAL6_11  0.592672616304
    R12_11  BAL7_11  0.690411555271
    R12_11  BAL10_11  0.661101632054
    R12_11  BAL11_11  0.941810026038
    R12_11  BAL12_11  0.770177933031
    R12_11  BAL19_11  0.409995746401
    R12_11  BAL22_11  0.714689756704
    R12_11  BAL23_11  0.703204495938
    R12_11  BAL24_11  0.428873327308
    R12_11  BAL25_11  0.716678131804
    R12_11  BAL26_11  0.694741747579
    R12_11  CAP11  1
    R12_12  COST  14.5313895051
    R12_12  BAL0_12  0.789366245272
    R12_12  BAL2_12  0.597212289218
    R12_12  BAL5_12  0.271105412176
    R12_12  BAL6_12  0.592672616304
    R12_12  BAL7_12  0.690411555271
    R12_12  BAL10_12  0.661101632054
    R12_12  BAL11_12  0.941810026038
    R12_12  BAL12_12  0.770177933031
    R12_12  BAL19_12  0.409995746401
    R12_12  BAL22_12  0.714689756704
    R12_12  BAL23_12  0.703204495938
    R12_12  BAL24_12  0.428873327308
    R12_12  BAL25_12  0.716678131804
    R12_12  BAL26_12  0.694741747579
    R12_12  CAP12  1
    R12_13  COST  14.5313895051
    R12_13  BAL0_13  0.789366245272
    R12_13  BAL2_13  0.597212289218
    R12_13  BAL5_13  0.271105412176
    R12_13  BAL6_13  0.592672616304
    R12_13  BAL7_13  0.690411555271
    R12_13  BAL10_13  0.661101632054
    R12_13  BAL11_13  0.941810026038
    R12_13  BAL12_13  0.770177933031
    R12_13  BAL19_13  0.409995746401
    R12_13  BAL22_13  0.714689756704
    R12_13  BAL23_13  0.703204495938
    R12_13  BAL24_13  0.428873327308
    R12_13  BAL25_13  0.716678131804
    R12_13  BAL26_13  0.694741747579
    R12_13  CAP13  1
    R12_14  COST  14.5313895051
    R12_14  BAL0_14  0.789366245272
    R12_14  BAL2_14  0.597212289218
    R12_14  BAL5_14  0.271105412176
    R12_14  BAL6_14  0.592672616304
    R12_14  BAL7_14  0.690411555271
    R12_14  BAL10_14  0.661101632054
    R12_14  BAL11_14  0.941810026038
    R12_14  BAL12_14  0.770177933031
    R12_14  BAL19_14  0.409995746401
    R12_14  BAL22_14  0.714689756704
    R12_14  BAL23_14  0.703204495938
    R12_14  BAL24_14  0.428873327308
    R12_14  BAL25_14  0.716678131804
    R12_14  BAL26_14  0.694741747579
    R12_14  CAP14  1
    R12_15  COST  14.5313895051
    R12_15  BAL0_15  0.789366245272
    R12_15  BAL2_15  0.597212289218
    R12_15  BAL5_15  0.271105412176
    R12_15  BAL6_15  0.592672616304
    R12_15  BAL7_15  0.690411555271
    R12_15  BAL10_15  0.661101632054
    R12_15  BAL11_15  0.941810026038
    R12_15  BAL12_15  0.770177933031
    R12_15  BAL19_15  0.409995746401
    R12_15  BAL22_15  0.714689756704
    R12_15  BAL23_15  0.703204495938
    R12_15  BAL24_15  0.428873327308
    R12_15  BAL25_15  0.716678131804
    R12_15  BAL26_15  0.694741747579
    R12_15  CAP15  1
    R12_16  COST  14.5313895051
    R12_16  BAL0_16  0.789366245272
    R12_16  BAL2_16  0.597212289218
    R12_16  BAL5_16  0.271105412176
    R12_16  BAL6_16  0.592672616304
    R12_16  BAL7_16  0.690411555271
    R12_16  BAL10_16  0.661101632054
    R12_16  BAL11_16  0.941810026038
    R12_16  BAL12_16  0.770177933031
    R12_16  BAL19_16  0.409995746401
    R12_16  BAL22_16  0.714689756704
    R12_16  BAL23_16  0.703204495938
    R12_16  BAL24_16  0.428873327308
    R12_16  BAL25_16  0.716678131804
    R12_16  BAL26_16  0.694741747579
    R12_16  CAP16  1
    R12_17  COST  14.5313895051
    R12_17  BAL0_17  0.789366245272
    R12_17  BAL2_17  0.597212289218
    R12_17  BAL5_17  0.271105412176
    R12_17  BAL6_17  0.592672616304
    R12_17  BAL7_17  0.690411555271
    R12_17  BAL10_17  0.661101632054
    R12_17  BAL11_17  0.941810026038
    R12_17  BAL12_17  0.770177933031
    R12_17  BAL19_17  0.409995746401
    R12_17  BAL22_17  0.714689756704
    R12_17  BAL23_17  0.703204495938
    R12_17  BAL24_17  0.428873327308
    R12_17  BAL25_17  0.716678131804
    R12_17  BAL26_17  0.694741747579
    R12_17  CAP17  1
    R12_18  COST  14.5313895051
    R12_18  BAL0_18  0.789366245272
    R12_18  BAL2_18  0.597212289218
    R12_18  BAL5_18  0.271105412176
    R12_18  BAL6_18  0.592672616304
    R12_18  BAL7_18  0.690411555271
    R12_18  BAL10_18  0.661101632054
    R12_18  BAL11_18  0.941810026038
    R12_18  BAL12_18  0.770177933031
    R12_18  BAL19_18  0.409995746401
    R12_18  BAL22_18  0.714689756704
    R12_18  BAL23_18  0.703204495938
    R12_18  BAL24_18  0.428873327308
    R12_18  BAL25_18  0.716678131804
    R12_18  BAL26_18  0.694741747579
    R12_18  CAP18  1
    R12_19  COST  14.5313895051
    R12_19  BAL0_19  0.789366245272
    R12_19  BAL2_19  0.597212289218
    R12_19  BAL5_19  0.271105412176
    R12_19  BAL6_19  0.592672616304
    R12_19  BAL7_19  0.690411555271
    R12_19  BAL10_19  0.661101632054
    R12_19  BAL11_19  0.941810026038
    R12_19  BAL12_19  0.770177933031
    R12_19  BAL19_19  0.409995746401
    R12_19  BAL22_19  0.714689756704
    R12_19  BAL23_19  0.703204495938
    R12_19  BAL24_19  0.428873327308
    R12_19  BAL25_19  0.716678131804
    R12_19  BAL26_19  0.694741747579
    R12_19  CAP19  1
    R12_20  COST  14.5313895051
    R12_20  BAL0_20  0.789366245272
    R12_20  BAL2_20  0.597212289218
    R12_20  BAL5_20  0.271105412176
    R12_20  BAL6_20  0.592672616304
    R12_20  BAL7_20  0.690411555271
    R12_20  BAL10_20  0.661101632054
    R12_20  BAL11_20  0.941810026038
    R12_20  BAL12_20  0.770177933031
    R12_20  BAL19_20  0.409995746401
    R12_20  BAL22_20  0.714689756704
    R12_20  BAL23_20  0.703204495938
    R12_20  BAL24_20  0.428873327308
    R12_20  BAL25_20  0.716678131804
    R12_20  BAL26_20  0.694741747579
    R12_20  CAP20  1
    R12_21  COST  14.5313895051
    R12_21  BAL0_21  0.789366245272
    R12_21  BAL2_21  0.597212289218
    R12_21  BAL5_21  0.271105412176
    R12_21  BAL6_21  0.592672616304
    R12_21  BAL7_21  0.690411555271
    R12_21  BAL10_21  0.661101632054
    R12_21  BAL11_21  0.941810026038
    R12_21  BAL12_21  0.770177933031
    R12_21  BAL19_21  0.409995746401
    R12_21  BAL22_21  0.714689756704
    R12_21  BAL23_21  0.703204495938
    R12_21  BAL24_21  0.428873327308
    R12_21  BAL25_21  0.716678131804
    R12_21  BAL26_21  0.694741747579
    R12_21  CAP21  1
    R12_22  COST  14.5313895051
    R12_22  BAL0_22  0.789366245272
    R12_22  BAL2_22  0.597212289218
    R12_22  BAL5_22  0.271105412176
    R12_22  BAL6_22  0.592672616304
    R12_22  BAL7_22  0.690411555271
    R12_22  BAL10_22  0.661101632054
    R12_22  BAL11_22  0.941810026038
    R12_22  BAL12_22  0.770177933031
    R12_22  BAL19_22  0.409995746401
    R12_22  BAL22_22  0.714689756704
    R12_22  BAL23_22  0.703204495938
    R12_22  BAL24_22  0.428873327308
    R12_22  BAL25_22  0.716678131804
    R12_22  BAL26_22  0.694741747579
    R12_22  CAP22  1
    R12_23  COST  14.5313895051
    R12_23  BAL0_23  0.789366245272
    R12_23  BAL2_23  0.597212289218
    R12_23  BAL5_23  0.271105412176
    R12_23  BAL6_23  0.592672616304
    R12_23  BAL7_23  0.690411555271
    R12_23  BAL10_23  0.661101632054
    R12_23  BAL11_23  0.941810026038
    R12_23  BAL12_23  0.770177933031
    R12_23  BAL19_23  0.409995746401
    R12_23  BAL22_23  0.714689756704
    R12_23  BAL23_23  0.703204495938
    R12_23  BAL24_23  0.428873327308
    R12_23  BAL25_23  0.716678131804
    R12_23  BAL26_23  0.694741747579
    R12_23  CAP23  1
    R12_24  COST  14.5313895051
    R12_24  BAL0_24  0.789366245272
    R12_24  BAL2_24  0.597212289218
    R12_24  BAL5_24  0.271105412176
    R12_24  BAL6_24  0.592672616304
    R12_24  BAL7_24  0.690411555271
    R12_24  BAL10_24  0.661101632054
    R12_24  BAL11_24  0.941810026038
    R12_24  BAL12_24  0.770177933031
    R12_24  BAL19_24  0.409995746401
    R12_24  BAL22_24  0.714689756704
    R12_24  BAL23_24  0.703204495938
    R12_24  BAL24_24  0.428873327308
    R12_24  BAL25_24  0.716678131804
    R12_24  BAL26_24  0.694741747579
    R12_24  CAP24  1
    R12_25  COST  14.5313895051
    R12_25  BAL0_25  0.789366245272
    R12_25  BAL2_25  0.597212289218
    R12_25  BAL5_25  0.271105412176
    R12_25  BAL6_25  0.592672616304
    R12_25  BAL7_25  0.690411555271
    R12_25  BAL10_25  0.661101632054
    R12_25  BAL11_25  0.941810026038
    R12_25  BAL12_25  0.770177933031
    R12_25  BAL19_25  0.409995746401
    R12_25  BAL22_25  0.714689756704
    R12_25  BAL23_25  0.703204495938
    R12_25  BAL24_25  0.428873327308
    R12_25  BAL25_25  0.716678131804
    R12_25  BAL26_25  0.694741747579
    R12_25  CAP25  1
    R12_26  COST  14.5313895051
    R12_26  BAL0_26  0.789366245272
    R12_26  BAL2_26  0.597212289218
    R12_26  BAL5_26  0.271105412176
    R12_26  BAL6_26  0.592672616304
    R12_26  BAL7_26  0.690411555271
    R12_26  BAL10_26  0.661101632054
    R12_26  BAL11_26  0.941810026038
    R12_26  BAL12_26  0.770177933031
    R12_26  BAL19_26  0.409995746401
    R12_26  BAL22_26  0.714689756704
    R12_26  BAL23_26  0.703204495938
    R12_26  BAL24_26  0.428873327308
    R12_26  BAL25_26  0.716678131804
    R12_26  BAL26_26  0.694741747579
    R12_26  CAP26  1
    R12_27  COST  14.5313895051
    R12_27  BAL0_27  0.789366245272
    R12_27  BAL2_27  0.597212289218
    R12_27  BAL5_27  0.271105412176
    R12_27  BAL6_27  0.592672616304
    R12_27  BAL7_27  0.690411555271
    R12_27  BAL10_27  0.661101632054
    R12_27  BAL11_27  0.941810026038
    R12_27  BAL12_27  0.770177933031
    R12_27  BAL19_27  0.409995746401
    R12_27  BAL22_27  0.714689756704
    R12_27  BAL23_27  0.703204495938
    R12_27  BAL24_27  0.428873327308
    R12_27  BAL25_27  0.716678131804
    R12_27  BAL26_27  0.694741747579
    R12_27  CAP27  1
    R12_28  COST  14.5313895051
    R12_28  BAL0_28  0.789366245272
    R12_28  BAL2_28  0.597212289218
    R12_28  BAL5_28  0.271105412176
    R12_28  BAL6_28  0.592672616304
    R12_28  BAL7_28  0.690411555271
    R12_28  BAL10_28  0.661101632054
    R12_28  BAL11_28  0.941810026038
    R12_28  BAL12_28  0.770177933031
    R12_28  BAL19_28  0.409995746401
    R12_28  BAL22_28  0.714689756704
    R12_28  BAL23_28  0.703204495938
    R12_28  BAL24_28  0.428873327308
    R12_28  BAL25_28  0.716678131804
    R12_28  BAL26_28  0.694741747579
    R12_28  CAP28  1
    R12_29  COST  14.5313895051
    R12_29  BAL0_29  0.789366245272
    R12_29  BAL2_29  0.597212289218
    R12_29  BAL5_29  0.271105412176
    R12_29  BAL6_29  0.592672616304
    R12_29  BAL7_29  0.690411555271
    R12_29  BAL10_29  0.661101632054
    R12_29  BAL11_29  0.941810026038
    R12_29  BAL12_29  0.770177933031
    R12_29  BAL19_29  0.409995746401
    R12_29  BAL22_29  0.714689756704
    R12_29  BAL23_29  0.703204495938
    R12_29  BAL24_29  0.428873327308
    R12_29  BAL25_29  0.716678131804
    R12_29  BAL26_29  0.694741747579
    R12_29  CAP29  1
    R12_30  COST  14.5313895051
    R12_30  BAL0_30  0.789366245272
    R12_30  BAL2_30  0.597212289218
    R12_30  BAL5_30  0.271105412176
    R12_30  BAL6_30  0.592672616304
    R12_30  BAL7_30  0.690411555271
    R12_30  BAL10_30  0.661101632054
    R12_30  BAL11_30  0.941810026038
    R12_30  BAL12_30  0.770177933031
    R12_30  BAL19_30  0.409995746401
    R12_30  BAL22_30  0.714689756704
    R12_30  BAL23_30  0.703204495938
    R12_30  BAL24_30  0.428873327308
    R12_30  BAL25_30  0.716678131804
    R12_30  BAL26_30  0.694741747579
    R12_30  CAP30  1
    R12_31  COST  14.5313895051
    R12_31  BAL0_31  0.789366245272
    R12_31  BAL2_31  0.597212289218
    R12_31  BAL5_31  0.271105412176
    R12_31  BAL6_31  0.592672616304
    R12_31  BAL7_31  0.690411555271
    R12_31  BAL10_31  0.661101632054
    R12_31  BAL11_31  0.941810026038
    R12_31  BAL12_31  0.770177933031
    R12_31  BAL19_31  0.409995746401
    R12_31  BAL22_31  0.714689756704
    R12_31  BAL23_31  0.703204495938
    R12_31  BAL24_31  0.428873327308
    R12_31  BAL25_31  0.716678131804
    R12_31  BAL26_31  0.694741747579
    R12_31  CAP31  1
    R12_32  COST  14.5313895051
    R12_32  BAL0_32  0.789366245272
    R12_32  BAL2_32  0.597212289218
    R12_32  BAL5_32  0.271105412176
    R12_32  BAL6_32  0.592672616304
    R12_32  BAL7_32  0.690411555271
    R12_32  BAL10_32  0.661101632054
    R12_32  BAL11_32  0.941810026038
    R12_32  BAL12_32  0.770177933031
    R12_32  BAL19_32  0.409995746401
    R12_32  BAL22_32  0.714689756704
    R12_32  BAL23_32  0.703204495938
    R12_32  BAL24_32  0.428873327308
    R12_32  BAL25_32  0.716678131804
    R12_32  BAL26_32  0.694741747579
    R12_32  CAP32  1
    R12_33  COST  14.5313895051
    R12_33  BAL0_33  0.789366245272
    R12_33  BAL2_33  0.597212289218
    R12_33  BAL5_33  0.271105412176
    R12_33  BAL6_33  0.592672616304
    R12_33  BAL7_33  0.690411555271
    R12_33  BAL10_33  0.661101632054
    R12_33  BAL11_33  0.941810026038
    R12_33  BAL12_33  0.770177933031
    R12_33  BAL19_33  0.409995746401
    R12_33  BAL22_33  0.714689756704
    R12_33  BAL23_33  0.703204495938
    R12_33  BAL24_33  0.428873327308
    R12_33  BAL25_33  0.716678131804
    R12_33  BAL26_33  0.694741747579
    R12_33  CAP33  1
    R12_34  COST  14.5313895051
    R12_34  BAL0_34  0.789366245272
    R12_34  BAL2_34  0.597212289218
    R12_34  BAL5_34  0.271105412176
    R12_34  BAL6_34  0.592672616304
    R12_34  BAL7_34  0.690411555271
    R12_34  BAL10_34  0.661101632054
    R12_34  BAL11_34  0.941810026038
    R12_34  BAL12_34  0.770177933031
    R12_34  BAL19_34  0.409995746401
    R12_34  BAL22_34  0.714689756704
    R12_34  BAL23_34  0.703204495938
    R12_34  BAL24_34  0.428873327308
    R12_34  BAL25_34  0.716678131804
    R12_34  BAL26_34  0.694741747579
    R12_34  CAP34  1
    R12_35  COST  14.5313895051
    R12_35  BAL0_35  0.789366245272
    R12_35  BAL2_35  0.597212289218
    R12_35  BAL5_35  0.271105412176
    R12_35  BAL6_35  0.592672616304
    R12_35  BAL7_35  0.690411555271
    R12_35  BAL10_35  0.661101632054
    R12_35  BAL11_35  0.941810026038
    R12_35  BAL12_35  0.770177933031
    R12_35  BAL19_35  0.409995746401
    R12_35  BAL22_35  0.714689756704
    R12_35  BAL23_35  0.703204495938
    R12_35  BAL24_35  0.428873327308
    R12_35  BAL25_35  0.716678131804
    R12_35  BAL26_35  0.694741747579
    R12_35  CAP35  1
    R13_0  COST  12.0748423342
    R13_0  BAL0_0  0.888373573105
    R13_0  BAL4_0  0.707711348415
    R13_0  BAL5_0  0.341080509349
    R13_0  BAL7_0  0.908513747138
    R13_0  BAL11_0  0.396379107568
    R13_0  BAL18_0  0.687993352151
    R13_0  BAL19_0  0.38912699085
    R13_0  BAL22_0  0.902694186276
    R13_0  BAL24_0  0.688035470965
    R13_0  BAL25_0  0.896878207783
    R13_0  BAL26_0  0.22539172896
    R13_0  CAP0  1
    R13_1  COST  12.0748423342
    R13_1  BAL0_1  0.888373573105
    R13_1  BAL4_1  0.707711348415
    R13_1  BAL5_1  0.341080509349
    R13_1  BAL7_1  0.908513747138
    R13_1  BAL11_1  0.396379107568
    R13_1  BAL18_1  0.687993352151
    R13_1  BAL19_1  0.38912699085
    R13_1  BAL22_1  0.902694186276
    R13_1  BAL24_1  0.688035470965
    R13_1  BAL25_1  0.896878207783
    R13_1  BAL26_1  0.22539172896
    R13_1  CAP1  1
    R13_2  COST  12.0748423342
    R13_2  BAL0_2  0.888373573105
    R13_2  BAL4_2  0.707711348415
    R13_2  BAL5_2  0.341080509349
    R13_2  BAL7_2  0.908513747138
    R13_2  BAL11_2  0.396379107568
    R13_2  BAL18_2  0.687993352151
    R13_2  BAL19_2  0.38912699085
    R13_2  BAL22_2  0.902694186276
    R13_2  BAL24_2  0.688035470965
    R13_2  BAL25_2  0.896878207783
    R13_2  BAL26_2  0.22539172896
    R13_2  CAP2  1
    R13_3  COST  12.0748423342
    R13_3  BAL0_3  0.888373573105
    R13_3  BAL4_3  0.707711348415
    R13_3  BAL5_3  0.341080509349
    R13_3  BAL7_3  0.908513747138
    R13_3  BAL11_3  0.396379107568
    R13_3  BAL18_3  0.687993352151
    R13_3  BAL19_3  0.38912699085
    R13_3  BAL22_3  0.902694186276
    R13_3  BAL24_3  0.688035470965
    R13_3  BAL25_3  0.896878207783
    R13_3  BAL26_3  0.22539172896
    R13_3  CAP3  1
    R13_4  COST  12.0748423342
    R13_4  BAL0_4  0.888373573105
    R13_4  BAL4_4  0.707711348415
    R13_4  BAL5_4  0.341080509349
    R13_4  BAL7_4  0.908513747138
    R13_4  BAL11_4  0.396379107568
    R13_4  BAL18_4  0.687993352151
    R13_4  BAL19_4  0.38912699085
    R13_4  BAL22_4  0.902694186276
    R13_4  BAL24_4  0.688035470965
    R13_4  BAL25_4  0.896878207783
    R13_4  BAL26_4  0.22539172896
    R13_4  CAP4  1
    R13_5  COST  12.0748423342
    R13_5  BAL0_5  0.888373573105
    R13_5  BAL4_5  0.707711348415
    R13_5  BAL5_5  0.341080509349
    R13_5  BAL7_5  0.908513747138
    R13_5  BAL11_5  0.396379107568
    R13_5  BAL18_5  0.687993352151
    R13_5  BAL19_5  0.38912699085
    R13_5  BAL22_5  0.902694186276
    R13_5  BAL24_5  0.688035470965
    R13_5  BAL25_5  0.896878207783
    R13_5  BAL26_5  0.22539172896
    R13_5  CAP5  1
    R13_6  COST  12.0748423342
    R13_6  BAL0_6  0.888373573105
    R13_6  BAL4_6  0.707711348415
    R13_6  BAL5_6  0.341080509349
    R13_6  BAL7_6  0.908513747138
    R13_6  BAL11_6  0.396379107568
    R13_6  BAL18_6  0.687993352151
    R13_6  BAL19_6  0.38912699085
    R13_6  BAL22_6  0.902694186276
    R13_6  BAL24_6  0.688035470965
    R13_6  BAL25_6  0.896878207783
    R13_6  BAL26_6  0.22539172896
    R13_6  CAP6  1
    R13_7  COST  12.0748423342
    R13_7  BAL0_7  0.888373573105
    R13_7  BAL4_7  0.707711348415
    R13_7  BAL5_7  0.341080509349
    R13_7  BAL7_7  0.908513747138
    R13_7  BAL11_7  0.396379107568
    R13_7  BAL18_7  0.687993352151
    R13_7  BAL19_7  0.38912699085
    R13_7  BAL22_7  0.902694186276
    R13_7  BAL24_7  0.688035470965
    R13_7  BAL25_7  0.896878207783
    R13_7  BAL26_7  0.22539172896
    R13_7  CAP7  1
    R13_8  COST  12.0748423342
    R13_8  BAL0_8  0.888373573105
    R13_8  BAL4_8  0.707711348415
    R13_8  BAL5_8  0.341080509349
    R13_8  BAL7_8  0.908513747138
    R13_8  BAL11_8  0.396379107568
    R13_8  BAL18_8  0.687993352151
    R13_8  BAL19_8  0.38912699085
    R13_8  BAL22_8  0.902694186276
    R13_8  BAL24_8  0.688035470965
    R13_8  BAL25_8  0.896878207783
    R13_8  BAL26_8  0.22539172896
    R13_8  CAP8  1
    R13_9  COST  12.0748423342
    R13_9  BAL0_9  0.888373573105
    R13_9  BAL4_9  0.707711348415
    R13_9  BAL5_9  0.341080509349
    R13_9  BAL7_9  0.908513747138
    R13_9  BAL11_9  0.396379107568
    R13_9  BAL18_9  0.687993352151
    R13_9  BAL19_9  0.38912699085
    R13_9  BAL22_9  0.902694186276
    R13_9  BAL24_9  0.688035470965
    R13_9  BAL25_9  0.896878207783
    R13_9  BAL26_9  0.22539172896
    R13_9  CAP9  1
    R13_10  COST  12.0748423342
    R13_10  BAL0_10  0.888373573105
    R13_10  BAL4_10  0.707711348415
    R13_10  BAL5_10  0.341080509349
    R13_10  BAL7_10  0.908513747138
    R13_10  BAL11_10  0.396379107568
    R13_10  BAL18_10  0.687993352151
    R13_10  BAL19_10  0.38912699085
    R13_10  BAL22_10  0.902694186276
    R13_10  BAL24_10  0.688035470965
    R13_10  BAL25_10  0.896878207783
    R13_10  BAL26_10  0.22539172896
    R13_10  CAP10  1
    R13_11  COST  12.0748423342
    R13_11  BAL0_11  0.888373573105
    R13_11  BAL4_11  0.707711348415
    R13_11  BAL5_11  0.341080509349
    R13_11  BAL7_11  0.908513747138
    R13_11  BAL11_11  0.396379107568
    R13_11  BAL18_11  0.687993352151
    R13_11  BAL19_11  0.38912699085
    R13_11  BAL22_11  0.902694186276
    R13_11  BAL24_11  0.688035470965
    R13_11  BAL25_11  0.896878207783
    R13_11  BAL26_11  0.22539172896
    R13_11  CAP11  1
    R13_12  COST  12.0748423342
    R13_12  BAL0_12  0.888373573105
    R13_12  BAL4_12  0.707711348415
    R13_12  BAL5_12  0.341080509349
    R13_12  BAL7_12  0.908513747138
    R13_12  BAL11_12  0.396379107568
    R13_12  BAL18_12  0.687993352151
    R13_12  BAL19_12  0.38912699085
    R13_12  BAL22_12  0.902694186276
    R13_12  BAL24_12  0.688035470965
    R13_12  BAL25_12  0.896878207783
    R13_12  BAL26_12  0.22539172896
    R13_12  CAP12  1
    R13_13  COST  12.0748423342
    R13_13  BAL0_13  0.888373573105
    R13_13  BAL4_13  0.707711348415
    R13_13  BAL5_13  0.341080509349
    R13_13  BAL7_13  0.908513747138
    R13_13  BAL11_13  0.396379107568
    R13_13  BAL18_13  0.687993352151
    R13_13  BAL19_13  0.38912699085
    R13_13  BAL22_13  0.902694186276
    R13_13  BAL24_13  0.688035470965
    R13_13  BAL25_13  0.896878207783
    R13_13  BAL26_13  0.22539172896
    R13_13  CAP13  1
    R13_14  COST  12.0748423342
    R13_14  BAL0_14  0.888373573105
    R13_14  BAL4_14  0.707711348415
    R13_14  BAL5_14  0.341080509349
    R13_14  BAL7_14  0.908513747138
    R13_14  BAL11_14  0.396379107568
    R13_14  BAL18_14  0.687993352151
    R13_14  BAL19_14  0.38912699085
    R13_14  BAL22_14  0.902694186276
    R13_14  BAL24_14  0.688035470965
    R13_14  BAL25_14  0.896878207783
    R13_14  BAL26_14  0.22539172896
    R13_14  CAP14  1
    R13_15  COST  12.0748423342
    R13_15  BAL0_15  0.888373573105
    R13_15  BAL4_15  0.707711348415
    R13_15  BAL5_15  0.341080509349
    R13_15  BAL7_15  0.908513747138
    R13_15  BAL11_15  0.396379107568
    R13_15  BAL18_15  0.687993352151
    R13_15  BAL19_15  0.38912699085
    R13_15  BAL22_15  0.902694186276
    R13_15  BAL24_15  0.688035470965
    R13_15  BAL25_15  0.896878207783
    R13_15  BAL26_15  0.22539172896
    R13_15  CAP15  1
    R13_16  COST  12.0748423342
    R13_16  BAL0_16  0.888373573105
    R13_16  BAL4_16  0.707711348415
    R13_16  BAL5_16  0.341080509349
    R13_16  BAL7_16  0.908513747138
    R13_16  BAL11_16  0.396379107568
    R13_16  BAL18_16  0.687993352151
    R13_16  BAL19_16  0.38912699085
    R13_16  BAL22_16  0.902694186276
    R13_16  BAL24_16  0.688035470965
    R13_16  BAL25_16  0.896878207783
    R13_16  BAL26_16  0.22539172896
    R13_16  CAP16  1
    R13_17  COST  12.0748423342
    R13_17  BAL0_17  0.888373573105
    R13_17  BAL4_17  0.707711348415
    R13_17  BAL5_17  0.341080509349
    R13_17  BAL7_17  0.908513747138
    R13_17  BAL11_17  0.396379107568
    R13_17  BAL18_17  0.687993352151
    R13_17  BAL19_17  0.38912699085
    R13_17  BAL22_17  0.902694186276
    R13_17  BAL24_17  0.688035470965
    R13_17  BAL25_17  0.896878207783
    R13_17  BAL26_17  0.22539172896
    R13_17  CAP17  1
    R13_18  COST  12.0748423342
    R13_18  BAL0_18  0.888373573105
    R13_18  BAL4_18  0.707711348415
    R13_18  BAL5_18  0.341080509349
    R13_18  BAL7_18  0.908513747138
    R13_18  BAL11_18  0.396379107568
    R13_18  BAL18_18  0.687993352151
    R13_18  BAL19_18  0.38912699085
    R13_18  BAL22_18  0.902694186276
    R13_18  BAL24_18  0.688035470965
    R13_18  BAL25_18  0.896878207783
    R13_18  BAL26_18  0.22539172896
    R13_18  CAP18  1
    R13_19  COST  12.0748423342
    R13_19  BAL0_19  0.888373573105
    R13_19  BAL4_19  0.707711348415
    R13_19  BAL5_19  0.341080509349
    R13_19  BAL7_19  0.908513747138
    R13_19  BAL11_19  0.396379107568
    R13_19  BAL18_19  0.687993352151
    R13_19  BAL19_19  0.38912699085
    R13_19  BAL22_19  0.902694186276
    R13_19  BAL24_19  0.688035470965
    R13_19  BAL25_19  0.896878207783
    R13_19  BAL26_19  0.22539172896
    R13_19  CAP19  1
    R13_20  COST  12.0748423342
    R13_20  BAL0_20  0.888373573105
    R13_20  BAL4_20  0.707711348415
    R13_20  BAL5_20  0.341080509349
    R13_20  BAL7_20  0.908513747138
    R13_20  BAL11_20  0.396379107568
    R13_20  BAL18_20  0.687993352151
    R13_20  BAL19_20  0.38912699085
    R13_20  BAL22_20  0.902694186276
    R13_20  BAL24_20  0.688035470965
    R13_20  BAL25_20  0.896878207783
    R13_20  BAL26_20  0.22539172896
    R13_20  CAP20  1
    R13_21  COST  12.0748423342
    R13_21  BAL0_21  0.888373573105
    R13_21  BAL4_21  0.707711348415
    R13_21  BAL5_21  0.341080509349
    R13_21  BAL7_21  0.908513747138
    R13_21  BAL11_21  0.396379107568
    R13_21  BAL18_21  0.687993352151
    R13_21  BAL19_21  0.38912699085
    R13_21  BAL22_21  0.902694186276
    R13_21  BAL24_21  0.688035470965
    R13_21  BAL25_21  0.896878207783
    R13_21  BAL26_21  0.22539172896
    R13_21  CAP21  1
    R13_22  COST  12.0748423342
    R13_22  BAL0_22  0.888373573105
    R13_22  BAL4_22  0.707711348415
    R13_22  BAL5_22  0.341080509349
    R13_22  BAL7_22  0.908513747138
    R13_22  BAL11_22  0.396379107568
    R13_22  BAL18_22  0.687993352151
    R13_22  BAL19_22  0.38912699085
    R13_22  BAL22_22  0.902694186276
    R13_22  BAL24_22  0.688035470965
    R13_22  BAL25_22  0.896878207783
    R13_22  BAL26_22  0.22539172896
    R13_22  CAP22  1
    R13_23  COST  12.0748423342
    R13_23  BAL0_23  0.888373573105
    R13_23  BAL4_23  0.707711348415
    R13_23  BAL5_23  0.341080509349
    R13_23  BAL7_23  0.908513747138
    R13_23  BAL11_23  0.396379107568
    R13_23  BAL18_23  0.687993352151
    R13_23  BAL19_23  0.38912699085
    R13_23  BAL22_23  0.902694186276
    R13_23  BAL24_23  0.688035470965
    R13_23  BAL25_23  0.896878207783
    R13_23  BAL26_23  0.22539172896
    R13_23  CAP23  1
    R13_24  COST  12.0748423342
    R13_24  BAL0_24  0.888373573105
    R13_24  BAL4_24  0.707711348415
    R13_24  BAL5_24  0.341080509349
    R13_24  BAL7_24  0.908513747138
    R13_24  BAL11_24  0.396379107568
    R13_24  BAL18_24  0.687993352151
    R13_24  BAL19_24  0.38912699085
    R13_24  BAL22_24  0.902694186276
    R13_24  BAL24_24  0.688035470965
    R13_24  BAL25_24  0.896878207783
    R13_24  BAL26_24  0.22539172896
    R13_24  CAP24  1
    R13_25  COST  12.0748423342
    R13_25  BAL0_25  0.888373573105
    R13_25  BAL4_25  0.707711348415
    R13_25  BAL5_25  0.341080509349
    R13_25  BAL7_25  0.908513747138
    R13_25  BAL11_25  0.396379107568
    R13_25  BAL18_25  0.687993352151
    R13_25  BAL19_25  0.38912699085
    R13_25  BAL22_25  0.902694186276
    R13_25  BAL24_25  0.688035470965
    R13_25  BAL25_25  0.896878207783
    R13_25  BAL26_25  0.22539172896
    R13_25  CAP25  1
    R13_26  COST  12.0748423342
    R13_26  BAL0_26  0.888373573105
    R13_26  BAL4_26  0.707711348415
    R13_26  BAL5_26  0.341080509349
    R13_26  BAL7_26  0.908513747138
    R13_26  BAL11_26  0.396379107568
    R13_26  BAL18_26  0.687993352151
    R13_26  BAL19_26  0.38912699085
    R13_26  BAL22_26  0.902694186276
    R13_26  BAL24_26  0.688035470965
    R13_26  BAL25_26  0.896878207783
    R13_26  BAL26_26  0.22539172896
    R13_26  CAP26  1
    R13_27  COST  12.0748423342
    R13_27  BAL0_27  0.888373573105
    R13_27  BAL4_27  0.707711348415
    R13_27  BAL5_27  0.341080509349
    R13_27  BAL7_27  0.908513747138
    R13_27  BAL11_27  0.396379107568
    R13_27  BAL18_27  0.687993352151
    R13_27  BAL19_27  0.38912699085
    R13_27  BAL22_27  0.902694186276
    R13_27  BAL24_27  0.688035470965
    R13_27  BAL25_27  0.896878207783
    R13_27  BAL26_27  0.22539172896
    R13_27  CAP27  1
    R13_28  COST  12.0748423342
    R13_28  BAL0_28  0.888373573105
    R13_28  BAL4_28  0.707711348415
    R13_28  BAL5_28  0.341080509349
    R13_28  BAL7_28  0.908513747138
    R13_28  BAL11_28  0.396379107568
    R13_28  BAL18_28  0.687993352151
    R13_28  BAL19_28  0.38912699085
    R13_28  BAL22_28  0.902694186276
    R13_28  BAL24_28  0.688035470965
    R13_28  BAL25_28  0.896878207783
    R13_28  BAL26_28  0.22539172896
    R13_28  CAP28  1
    R13_29  COST  12.0748423342
    R13_29  BAL0_29  0.888373573105
    R13_29  BAL4_29  0.707711348415
    R13_29  BAL5_29  0.341080509349
    R13_29  BAL7_29  0.908513747138
    R13_29  BAL11_29  0.396379107568
    R13_29  BAL18_29  0.687993352151
    R13_29  BAL19_29  0.38912699085
    R13_29  BAL22_29  0.902694186276
    R13_29  BAL24_29  0.688035470965
    R13_29  BAL25_29  0.896878207783
    R13_29  BAL26_29  0.22539172896
    R13_29  CAP29  1
    R13_30  COST  12.0748423342
    R13_30  BAL0_30  0.888373573105
    R13_30  BAL4_30  0.707711348415
    R13_30  BAL5_30  0.341080509349
    R13_30  BAL7_30  0.908513747138
    R13_30  BAL11_30  0.396379107568
    R13_30  BAL18_30  0.687993352151
    R13_30  BAL19_30  0.38912699085
    R13_30  BAL22_30  0.902694186276
    R13_30  BAL24_30  0.688035470965
    R13_30  BAL25_30  0.896878207783
    R13_30  BAL26_30  0.22539172896
    R13_30  CAP30  1
    R13_31  COST  12.0748423342
    R13_31  BAL0_31  0.888373573105
    R13_31  BAL4_31  0.707711348415
    R13_31  BAL5_31  0.341080509349
    R13_31  BAL7_31  0.908513747138
    R13_31  BAL11_31  0.396379107568
    R13_31  BAL18_31  0.687993352151
    R13_31  BAL19_31  0.38912699085
    R13_31  BAL22_31  0.902694186276
    R13_31  BAL24_31  0.688035470965
    R13_31  BAL25_31  0.896878207783
    R13_31  BAL26_31  0.22539172896
    R13_31  CAP31  1
    R13_32  COST  12.0748423342
    R13_32  BAL0_32  0.888373573105
    R13_32  BAL4_32  0.707711348415
    R13_32  BAL5_32  0.341080509349
    R13_32  BAL7_32  0.908513747138
    R13_32  BAL11_32  0.396379107568
    R13_32  BAL18_32  0.687993352151
    R13_32  BAL19_32  0.38912699085
    R13_32  BAL22_32  0.902694186276
    R13_32  BAL24_32  0.688035470965
    R13_32  BAL25_32  0.896878207783
    R13_32  BAL26_32  0.22539172896
    R13_32  CAP32  1
    R13_33  COST  12.0748423342
    R13_33  BAL0_33  0.888373573105
    R13_33  BAL4_33  0.707711348415
    R13_33  BAL5_33  0.341080509349
    R13_33  BAL7_33  0.908513747138
    R13_33  BAL11_33  0.396379107568
    R13_33  BAL18_33  0.687993352151
    R13_33  BAL19_33  0.38912699085
    R13_33  BAL22_33  0.902694186276
    R13_33  BAL24_33  0.688035470965
    R13_33  BAL25_33  0.896878207783
    R13_33  BAL26_33  0.22539172896
    R13_33  CAP33  1
    R13_34  COST  12.0748423342
    R13_34  BAL0_34  0.888373573105
    R13_34  BAL4_34  0.707711348415
    R13_34  BAL5_34  0.341080509349
    R13_34  BAL7_34  0.908513747138
    R13_34  BAL11_34  0.396379107568
    R13_34  BAL18_34  0.687993352151
    R13_34  BAL19_34  0.38912699085
    R13_34  BAL22_34  0.902694186276
    R13_34  BAL24_34  0.688035470965
    R13_34  BAL25_34  0.896878207783
    R13_34  BAL26_34  0.22539172896
    R13_34  CAP34  1
    R13_35  COST  12.0748423342
    R13_35  BAL0_35  0.888373573105
    R13_35  BAL4_35  0.707711348415
    R13_35  BAL5_35  0.341080509349
    R13_35  BAL7_35  0.908513747138
    R13_35  BAL11_35  0.396379107568
    R13_35  BAL18_35  0.687993352151
    R13_35  BAL19_35  0.38912699085
    R13_35  BAL22_35  0.902694186276
    R13_35  BAL24_35  0.688035470965
    R13_35  BAL25_35  0.896878207783
    R13_35  BAL26_35  0.22539172896
    R13_35  CAP35  1
    R14_0  COST  20.7278850306
    R14_0  BAL1_0  0.721146962603
    R14_0  BAL3_0  0.909551880187
    R14_0  BAL5_0  0.54076126609
    R14_0  BAL8_0  0.467808172271
    R14_0  BAL10_0  0.935664720487
    R14_0  BAL16_0  0.493792430512
    R14_0  BAL18_0  0.21357022481
    R14_0  BAL21_0  0.671861110809
    R14_0  BAL22_0  0.480912056977
    R14_0  BAL25_0  0.837831585751
    R14_0  BAL27_0  0.804794025867
    R14_0  CAP0  1
    R14_1  COST  20.7278850306
    R14_1  BAL1_1  0.721146962603
    R14_1  BAL3_1  0.909551880187
    R14_1  BAL5_1  0.54076126609
    R14_1  BAL8_1  0.467808172271
    R14_1  BAL10_1  0.935664720487
    R14_1  BAL16_1  0.493792430512
    R14_1  BAL18_1  0.21357022481
    R14_1  BAL21_1  0.671861110809
    R14_1  BAL22_1  0.480912056977
    R14_1  BAL25_1  0.837831585751
    R14_1  BAL27_1  0.804794025867
    R14_1  CAP1  1
    R14_2  COST  20.7278850306
    R14_2  BAL1_2  0.721146962603
    R14_2  BAL3_2  0.909551880187
    R14_2  BAL5_2  0.54076126609
    R14_2  BAL8_2  0.467808172271
    R14_2  BAL10_2  0.935664720487
    R14_2  BAL16_2  0.493792430512
    R14_2  BAL18_2  0.21357022481
    R14_2  BAL21_2  0.671861110809
    R14_2  BAL22_2  0.480912056977
    R14_2  BAL25_2  0.837831585751
    R14_2  BAL27_2  0.804794025867
    R14_2  CAP2  1
    R14_3  COST  20.7278850306
    R14_3  BAL1_3  0.721146962603
    R14_3  BAL3_3  0.909551880187
    R14_3  BAL5_3  0.54076126609
    R14_3  BAL8_3  0.467808172271
    R14_3  BAL10_3  0.935664720487
    R14_3  BAL16_3  0.493792430512
    R14_3  BAL18_3  0.21357022481
    R14_3  BAL21_3  0.671861110809
    R14_3  BAL22_3  0.480912056977
    R14_3  BAL25_3  0.837831585751
    R14_3  BAL27_3  0.804794025867
    R14_3  CAP3  1
    R14_4  COST  20.7278850306
    R14_4  BAL1_4  0.721146962603
    R14_4  BAL3_4  0.909551880187
    R14_4  BAL5_4  0.54076126609
    R14_4  BAL8_4  0.467808172271
    R14_4  BAL10_4  0.935664720487
    R14_4  BAL16_4  0.493792430512
    R14_4  BAL18_4  0.21357022481
    R14_4  BAL21_4  0.671861110809
    R14_4  BAL22_4  0.480912056977
    R14_4  BAL25_4  0.837831585751
    R14_4  BAL27_4  0.804794025867
    R14_4  CAP4  1
    R14_5  COST  20.7278850306
    R14_5  BAL1_5  0.721146962603
    R14_5  BAL3_5  0.909551880187
    R14_5  BAL5_5  0.54076126609
    R14_5  BAL8_5  0.467808172271
    R14_5  BAL10_5  0.935664720487
    R14_5  BAL16_5  0.493792430512
    R14_5  BAL18_5  0.21357022481
    R14_5  BAL21_5  0.671861110809
    R14_5  BAL22_5  0.480912056977
    R14_5  BAL25_5  0.837831585751
    R14_5  BAL27_5  0.804794025867
    R14_5  CAP5  1
    R14_6  COST  20.7278850306
    R14_6  BAL1_6  0.721146962603
    R14_6  BAL3_6  0.909551880187
    R14_6  BAL5_6  0.54076126609
    R14_6  BAL8_6  0.467808172271
    R14_6  BAL10_6  0.935664720487
    R14_6  BAL16_6  0.493792430512
    R14_6  BAL18_6  0.21357022481
    R14_6  BAL21_6  0.671861110809
    R14_6  BAL22_6  0.480912056977
    R14_6  BAL25_6  0.837831585751
    R14_6  BAL27_6  0.804794025867
    R14_6  CAP6  1
    R14_7  COST  20.7278850306
    R14_7  BAL1_7  0.721146962603
    R14_7  BAL3_7  0.909551880187
    R14_7  BAL5_7  0.54076126609
    R14_7  BAL8_7  0.467808172271
    R14_7  BAL10_7  0.935664720487
    R14_7  BAL16_7  0.493792430512
    R14_7  BAL18_7  0.21357022481
    R14_7  BAL21_7  0.671861110809
    R14_7  BAL22_7  0.480912056977
    R14_7  BAL25_7  0.837831585751
    R14_7  BAL27_7  0.804794025867
    R14_7  CAP7  1
    R14_8  COST  20.7278850306
    R14_8  BAL1_8  0.721146962603
    R14_8  BAL3_8  0.909551880187
    R14_8  BAL5_8  0.54076126609
    R14_8  BAL8_8  0.467808172271
    R14_8  BAL10_8  0.935664720487
    R14_8  BAL16_8  0.493792430512
    R14_8  BAL18_8  0.21357022481
    R14_8  BAL21_8  0.671861110809
    R14_8  BAL22_8  0.480912056977
    R14_8  BAL25_8  0.837831585751
    R14_8  BAL27_8  0.804794025867
    R14_8  CAP8  1
    R14_9  COST  20.7278850306
    R14_9  BAL1_9  0.721146962603
    R14_9  BAL3_9  0.909551880187
    R14_9  BAL5_9  0.54076126609
    R14_9  BAL8_9  0.467808172271
    R14_9  BAL10_9  0.935664720487
    R14_9  BAL16_9  0.493792430512
    R14_9  BAL18_9  0.21357022481
    R14_9  BAL21_9  0.671861110809
    R14_9  BAL22_9  0.480912056977
    R14_9  BAL25_9  0.837831585751
    R14_9  BAL27_9  0.804794025867
    R14_9  CAP9  1
    R14_10  COST  20.7278850306
    R14_10  BAL1_10  0.721146962603
    R14_10  BAL3_10  0.909551880187
    R14_10  BAL5_10  0.54076126609
    R14_10  BAL8_10  0.467808172271
    R14_10  BAL10_10  0.935664720487
    R14_10  BAL16_10  0.493792430512
    R14_10  BAL18_10  0.21357022481
    R14_10  BAL21_10  0.671861110809
    R14_10  BAL22_10  0.480912056977
    R14_10  BAL25_10  0.837831585751
    R14_10  BAL27_10  0.804794025867
    R14_10  CAP10  1
    R14_11  COST  20.7278850306
    R14_11  BAL1_11  0.721146962603
    R14_11  BAL3_11  0.909551880187
    R14_11  BAL5_11  0.54076126609
    R14_11  BAL8_11  0.467808172271
    R14_11  BAL10_11  0.935664720487
    R14_11  BAL16_11  0.493792430512
    R14_11  BAL18_11  0.21357022481
    R14_11  BAL21_11  0.671861110809
    R14_11  BAL22_11  0.480912056977
    R14_11  BAL25_11  0.837831585751
    R14_11  BAL27_11  0.804794025867
    R14_11  CAP11  1
    R14_12  COST  20.7278850306
    R14_12  BAL1_12  0.721146962603
    R14_12  BAL3_12  0.909551880187
    R14_12  BAL5_12  0.54076126609
    R14_12  BAL8_12  0.467808172271
    R14_12  BAL10_12  0.935664720487
    R14_12  BAL16_12  0.493792430512
    R14_12  BAL18_12  0.21357022481
    R14_12  BAL21_12  0.671861110809
    R14_12  BAL22_12  0.480912056977
    R14_12  BAL25_12  0.837831585751
    R14_12  BAL27_12  0.804794025867
    R14_12  CAP12  1
    R14_13  COST  20.7278850306
    R14_13  BAL1_13  0.721146962603
    R14_13  BAL3_13  0.909551880187
    R14_13  BAL5_13  0.54076126609
    R14_13  BAL8_13  0.467808172271
    R14_13  BAL10_13  0.935664720487
    R14_13  BAL16_13  0.493792430512
    R14_13  BAL18_13  0.21357022481
    R14_13  BAL21_13  0.671861110809
    R14_13  BAL22_13  0.480912056977
    R14_13  BAL25_13  0.837831585751
    R14_13  BAL27_13  0.804794025867
    R14_13  CAP13  1
    R14_14  COST  20.7278850306
    R14_14  BAL1_14  0.721146962603
    R14_14  BAL3_14  0.909551880187
    R14_14  BAL5_14  0.54076126609
    R14_14  BAL8_14  0.467808172271
    R14_14  BAL10_14  0.935664720487
    R14_14  BAL16_14  0.493792430512
    R14_14  BAL18_14  0.21357022481
    R14_14  BAL21_14  0.671861110809
    R14_14  BAL22_14  0.480912056977
    R14_14  BAL25_14  0.837831585751
    R14_14  BAL27_14  0.804794025867
    R14_14  CAP14  1
    R14_15  COST  20.7278850306
    R14_15  BAL1_15  0.721146962603
    R14_15  BAL3_15  0.909551880187
    R14_15  BAL5_15  0.54076126609
    R14_15  BAL8_15  0.467808172271
    R14_15  BAL10_15  0.935664720487
    R14_15  BAL16_15  0.493792430512
    R14_15  BAL18_15  0.21357022481
    R14_15  BAL21_15  0.671861110809
    R14_15  BAL22_15  0.480912056977
    R14_15  BAL25_15  0.837831585751
    R14_15  BAL27_15  0.804794025867
    R14_15  CAP15  1
    R14_16  COST  20.7278850306
    R14_16  BAL1_16  0.721146962603
    R14_16  BAL3_16  0.909551880187
    R14_16  BAL5_16  0.54076126609
    R14_16  BAL8_16  0.467808172271
    R14_16  BAL10_16  0.935664720487
    R14_16  BAL16_16  0.493792430512
    R14_16  BAL18_16  0.21357022481
    R14_16  BAL21_16  0.671861110809
    R14_16  BAL22_16  0.480912056977
    R14_16  BAL25_16  0.837831585751
    R14_16  BAL27_16  0.804794025867
    R14_16  CAP16  1
    R14_17  COST  20.7278850306
    R14_17  BAL1_17  0.721146962603
    R14_17  BAL3_17  0.909551880187
    R14_17  BAL5_17  0.54076126609
    R14_17  BAL8_17  0.467808172271
    R14_17  BAL10_17  0.935664720487
    R14_17  BAL16_17  0.493792430512
    R14_17  BAL18_17  0.21357022481
    R14_17  BAL21_17  0.671861110809
    R14_17  BAL22_17  0.480912056977
    R14_17  BAL25_17  0.837831585751
    R14_17  BAL27_17  0.804794025867
    R14_17  CAP17  1
    R14_18  COST  20.7278850306
    R14_18  BAL1_18  0.721146962603
    R14_18  BAL3_18  0.909551880187
    R14_18  BAL5_18  0.54076126609
    R14_18  BAL8_18  0.467808172271
    R14_18  BAL10_18  0.935664720487
    R14_18  BAL16_18  0.493792430512
    R14_18  BAL18_18  0.21357022481
    R14_18  BAL21_18  0.671861110809
    R14_18  BAL22_18  0.480912056977
    R14_18  BAL25_18  0.837831585751
    R14_18  BAL27_18  0.804794025867
    R14_18  CAP18  1
    R14_19  COST  20.7278850306
    R14_19  BAL1_19  0.721146962603
    R14_19  BAL3_19  0.909551880187
    R14_19  BAL5_19  0.54076126609
    R14_19  BAL8_19  0.467808172271
    R14_19  BAL10_19  0.935664720487
    R14_19  BAL16_19  0.493792430512
    R14_19  BAL18_19  0.21357022481
    R14_19  BAL21_19  0.671861110809
    R14_19  BAL22_19  0.480912056977
    R14_19  BAL25_19  0.837831585751
    R14_19  BAL27_19  0.804794025867
    R14_19  CAP19  1
    R14_20  COST  20.7278850306
    R14_20  BAL1_20  0.721146962603
    R14_20  BAL3_20  0.909551880187
    R14_20  BAL5_20  0.54076126609
    R14_20  BAL8_20  0.467808172271
    R14_20  BAL10_20  0.935664720487
    R14_20  BAL16_20  0.493792430512
    R14_20  BAL18_20  0.21357022481
    R14_20  BAL21_20  0.671861110809
    R14_20  BAL22_20  0.480912056977
    R14_20  BAL25_20  0.837831585751
    R14_20  BAL27_20  0.804794025867
    R14_20  CAP20  1
    R14_21  COST  20.7278850306
    R14_21  BAL1_21  0.721146962603
    R14_21  BAL3_21  0.909551880187
    R14_21  BAL5_21  0.54076126609
    R14_21  BAL8_21  0.467808172271
    R14_21  BAL10_21  0.935664720487
    R14_21  BAL16_21  0.493792430512
    R14_21  BAL18_21  0.21357022481
    R14_21  BAL21_21  0.671861110809
    R14_21  BAL22_21  0.480912056977
    R14_21  BAL25_21  0.837831585751
    R14_21  BAL27_21  0.804794025867
    R14_21  CAP21  1
    R14_22  COST  20.7278850306
    R14_22  BAL1_22  0.721146962603
    R14_22  BAL3_22  0.909551880187
    R14_22  BAL5_22  0.54076126609
    R14_22  BAL8_22  0.467808172271
    R14_22  BAL10_22  0.935664720487
    R14_22  BAL16_22  0.493792430512
    R14_22  BAL18_22  0.21357022481
    R14_22  BAL21_22  0.671861110809
    R14_22  BAL22_22  0.480912056977
    R14_22  BAL25_22  0.837831585751
    R14_22  BAL27_22  0.804794025867
    R14_22  CAP22  1
    R14_23  COST  20.7278850306
    R14_23  BAL1_23  0.721146962603
    R14_23  BAL3_23  0.909551880187
    R14_23  BAL5_23  0.54076126609
    R14_23  BAL8_23  0.467808172271
    R14_23  BAL10_23  0.935664720487
    R14_23  BAL16_23  0.493792430512
    R14_23  BAL18_23  0.21357022481
    R14_23  BAL21_23  0.671861110809
    R14_23  BAL22_23  0.480912056977
    R14_23  BAL25_23  0.837831585751
    R14_23  BAL27_23  0.804794025867
    R14_23  CAP23  1
    R14_24  COST  20.7278850306
    R14_24  BAL1_24  0.721146962603
    R14_24  BAL3_24  0.909551880187
    R14_24  BAL5_24  0.54076126609
    R14_24  BAL8_24  0.467808172271
    R14_24  BAL10_24  0.935664720487
    R14_24  BAL16_24  0.493792430512
    R14_24  BAL18_24  0.21357022481
    R14_24  BAL21_24  0.671861110809
    R14_24  BAL22_24  0.480912056977
    R14_24  BAL25_24  0.837831585751
    R14_24  BAL27_24  0.804794025867
    R14_24  CAP24  1
    R14_25  COST  20.7278850306
    R14_25  BAL1_25  0.721146962603
    R14_25  BAL3_25  0.909551880187
    R14_25  BAL5_25  0.54076126609
    R14_25  BAL8_25  0.467808172271
    R14_25  BAL10_25  0.935664720487
    R14_25  BAL16_25  0.493792430512
    R14_25  BAL18_25  0.21357022481
    R14_25  BAL21_25  0.671861110809
    R14_25  BAL22_25  0.480912056977
    R14_25  BAL25_25  0.837831585751
    R14_25  BAL27_25  0.804794025867
    R14_25  CAP25  1
    R14_26  COST  20.7278850306
    R14_26  BAL1_26  0.721146962603
    R14_26  BAL3_26  0.909551880187
    R14_26  BAL5_26  0.54076126609
    R14_26  BAL8_26  0.467808172271
    R14_26  BAL10_26  0.935664720487
    R14_26  BAL16_26  0.493792430512
    R14_26  BAL18_26  0.21357022481
    R14_26  BAL21_26  0.671861110809
    R14_26  BAL22_26  0.480912056977
    R14_26  BAL25_26  0.837831585751
    R14_26  BAL27_26  0.804794025867
    R14_26  CAP26  1
    R14_27  COST  20.7278850306
    R14_27  BAL1_27  0.721146962603
    R14_27  BAL3_27  0.909551880187
    R14_27  BAL5_27  0.54076126609
    R14_27  BAL8_27  0.467808172271
    R14_27  BAL10_27  0.935664720487
    R14_27  BAL16_27  0.493792430512
    R14_27  BAL18_27  0.21357022481
    R14_27  BAL21_27  0.671861110809
    R14_27  BAL22_27  0.480912056977
    R14_27  BAL25_27  0.837831585751
    R14_27  BAL27_27  0.804794025867
    R14_27  CAP27  1
    R14_28  COST  20.7278850306
    R14_28  BAL1_28  0.721146962603
    R14_28  BAL3_28  0.909551880187
    R14_28  BAL5_28  0.54076126609
    R14_28  BAL8_28  0.467808172271
    R14_28  BAL10_28  0.935664720487
    R14_28  BAL16_28  0.493792430512
    R14_28  BAL18_28  0.21357022481
    R14_28  BAL21_28  0.671861110809
    R14_28  BAL22_28  0.480912056977
    R14_28  BAL25_28  0.837831585751
    R14_28  BAL27_28  0.804794025867
    R14_28  CAP28  1
    R14_29  COST  20.7278850306
    R14_29  BAL1_29  0.721146962603
    R14_29  BAL3_29  0.909551880187
    R14_29  BAL5_29  0.54076126609
    R14_29  BAL8_29  0.467808172271
    R14_29  BAL10_29  0.935664720487
    R14_29  BAL16_29  0.493792430512
    R14_29  BAL18_29  0.21357022481
    R14_29  BAL21_29  0.671861110809
    R14_29  BAL22_29  0.480912056977
    R14_29  BAL25_29  0.837831585751
    R14_29  BAL27_29  0.804794025867
    R14_29  CAP29  1
    R14_30  COST  20.7278850306
    R14_30  BAL1_30  0.721146962603
    R14_30  BAL3_30  0.909551880187
    R14_30  BAL5_30  0.54076126609
    R14_30  BAL8_30  0.467808172271
    R14_30  BAL10_30  0.935664720487
    R14_30  BAL16_30  0.493792430512
    R14_30  BAL18_30  0.21357022481
    R14_30  BAL21_30  0.671861110809
    R14_30  BAL22_30  0.480912056977
    R14_30  BAL25_30  0.837831585751
    R14_30  BAL27_30  0.804794025867
    R14_30  CAP30  1
    R14_31  COST  20.7278850306
    R14_31  BAL1_31  0.721146962603
    R14_31  BAL3_31  0.909551880187
    R14_31  BAL5_31  0.54076126609
    R14_31  BAL8_31  0.467808172271
    R14_31  BAL10_31  0.935664720487
    R14_31  BAL16_31  0.493792430512
    R14_31  BAL18_31  0.21357022481
    R14_31  BAL21_31  0.671861110809
    R14_31  BAL22_31  0.480912056977
    R14_31  BAL25_31  0.837831585751
    R14_31  BAL27_31  0.804794025867
    R14_31  CAP31  1
    R14_32  COST  20.7278850306
    R14_32  BAL1_32  0.721146962603
    R14_32  BAL3_32  0.909551880187
    R14_32  BAL5_32  0.54076126609
    R14_32  BAL8_32  0.467808172271
    R14_32  BAL10_32  0.935664720487
    R14_32  BAL16_32  0.493792430512
    R14_32  BAL18_32  0.21357022481
    R14_32  BAL21_32  0.671861110809
    R14_32  BAL22_32  0.480912056977
    R14_32  BAL25_32  0.837831585751
    R14_32  BAL27_32  0.804794025867
    R14_32  CAP32  1
    R14_33  COST  20.7278850306
    R14_33  BAL1_33  0.721146962603
    R14_33  BAL3_33  0.909551880187
    R14_33  BAL5_33  0.54076126609
    R14_33  BAL8_33  0.467808172271
    R14_33  BAL10_33  0.935664720487
    R14_33  BAL16_33  0.493792430512
    R14_33  BAL18_33  0.21357022481
    R14_33  BAL21_33  0.671861110809
    R14_33  BAL22_33  0.480912056977
    R14_33  BAL25_33  0.837831585751
    R14_33  BAL27_33  0.804794025867
    R14_33  CAP33  1
    R14_34  COST  20.7278850306
    R14_34  BAL1_34  0.721146962603
    R14_34  BAL3_34  0.909551880187
    R14_34  BAL5_34  0.54076126609
    R14_34  BAL8_34  0.467808172271
    R14_34  BAL10_34  0.935664720487
    R14_34  BAL16_34  0.493792430512
    R14_34  BAL18_34  0.21357022481
    R14_34  BAL21_34  0.671861110809
    R14_34  BAL22_34  0.480912056977
    R14_34  BAL25_34  0.837831585751
    R14_34  BAL27_34  0.804794025867
    R14_34  CAP34  1
    R14_35  COST  20.7278850306
    R14_35  BAL1_35  0.721146962603
    R14_35  BAL3_35  0.909551880187
    R14_35  BAL5_35  0.54076126609
    R14_35  BAL8_35  0.467808172271
    R14_35  BAL10_35  0.935664720487
    R14_35  BAL16_35  0.493792430512
    R14_35  BAL18_35  0.21357022481
    R14_35  BAL21_35  0.671861110809
    R14_35  BAL22_35  0.480912056977
    R14_35  BAL25_35  0.837831585751
    R14_35  BAL27_35  0.804794025867
    R14_35  CAP35  1
    R15_0  COST  12.9008496958
    R15_0  BAL0_0  0.530626748562
    R15_0  BAL3_0  0.64363373595
    R15_0  BAL4_0  0.46403979259
    R15_0  BAL6_0  0.180402389815
    R15_0  BAL11_0  0.582515693061
    R15_0  BAL12_0  0.444619896129
    R15_0  BAL14_0  0.458605103828
    R15_0  BAL15_0  0.214491936248
    R15_0  BAL16_0  0.785375567056
    R15_0  BAL17_0  0.500306848365
    R15_0  BAL18_0  0.250091438693
    R15_0  BAL20_0  0.569124240271
    R15_0  BAL21_0  0.279152943635
    R15_0  BAL22_0  0.885719187132
    R15_0  BAL27_0  0.751763665512
    R15_0  BAL28_0  0.920367234928
    R15_0  BAL29_0  0.50038541885
    R15_0  CAP0  1
    R15_1  COST  12.9008496958
    R15_1  BAL0_1  0.530626748562
    R15_1  BAL3_1  0.64363373595
    R15_1  BAL4_1  0.46403979259
    R15_1  BAL6_1  0.180402389815
    R15_1  BAL11_1  0.582515693061
    R15_1  BAL12_1  0.444619896129
    R15_1  BAL14_1  0.458605103828
    R15_1  BAL15_1  0.214491936248
    R15_1  BAL16_1  0.785375567056
    R15_1  BAL17_1  0.500306848365
    R15_1  BAL18_1  0.250091438693
    R15_1  BAL20_1  0.569124240271
    R15_1  BAL21_1  0.279152943635
    R15_1  BAL22_1  0.885719187132
    R15_1  BAL27_1  0.751763665512
    R15_1  BAL28_1  0.920367234928
    R15_1  BAL29_1  0.50038541885
    R15_1  CAP1  1
    R15_2  COST  12.9008496958
    R15_2  BAL0_2  0.530626748562
    R15_2  BAL3_2  0.64363373595
    R15_2  BAL4_2  0.46403979259
    R15_2  BAL6_2  0.180402389815
    R15_2  BAL11_2  0.582515693061
    R15_2  BAL12_2  0.444619896129
    R15_2  BAL14_2  0.458605103828
    R15_2  BAL15_2  0.214491936248
    R15_2  BAL16_2  0.785375567056
    R15_2  BAL17_2  0.500306848365
    R15_2  BAL18_2  0.250091438693
    R15_2  BAL20_2  0.569124240271
    R15_2  BAL21_2  0.279152943635
    R15_2  BAL22_2  0.885719187132
    R15_2  BAL27_2  0.751763665512
    R15_2  BAL28_2  0.920367234928
    R15_2  BAL29_2  0.50038541885
    R15_2  CAP2  1
    R15_3  COST  12.9008496958
    R15_3  BAL0_3  0.530626748562
    R15_3  BAL3_3  0.64363373595
    R15_3  BAL4_3  0.46403979259
    R15_3  BAL6_3  0.180402389815
    R15_3  BAL11_3  0.582515693061
    R15_3  BAL12_3  0.444619896129
    R15_3  BAL14_3  0.458605103828
    R15_3  BAL15_3  0.214491936248
    R15_3  BAL16_3  0.785375567056
    R15_3  BAL17_3  0.500306848365
    R15_3  BAL18_3  0.250091438693
    R15_3  BAL20_3  0.569124240271
    R15_3  BAL21_3  0.279152943635
    R15_3  BAL22_3  0.885719187132
    R15_3  BAL27_3  0.751763665512
    R15_3  BAL28_3  0.920367234928
    R15_3  BAL29_3  0.50038541885
    R15_3  CAP3  1
    R15_4  COST  12.9008496958
    R15_4  BAL0_4  0.530626748562
    R15_4  BAL3_4  0.64363373595
    R15_4  BAL4_4  0.46403979259
    R15_4  BAL6_4  0.180402389815
    R15_4  BAL11_4  0.582515693061
    R15_4  BAL12_4  0.444619896129
    R15_4  BAL14_4  0.458605103828
    R15_4  BAL15_4  0.214491936248
    R15_4  BAL16_4  0.785375567056
    R15_4  BAL17_4  0.500306848365
    R15_4  BAL18_4  0.250091438693
    R15_4  BAL20_4  0.569124240271
    R15_4  BAL21_4  0.279152943635
    R15_4  BAL22_4  0.885719187132
    R15_4  BAL27_4  0.751763665512
    R15_4  BAL28_4  0.920367234928
    R15_4  BAL29_4  0.50038541885
    R15_4  CAP4  1
    R15_5  COST  12.9008496958
    R15_5  BAL0_5  0.530626748562
    R15_5  BAL3_5  0.64363373595
    R15_5  BAL4_5  0.46403979259
    R15_5  BAL6_5  0.180402389815
    R15_5  BAL11_5  0.582515693061
    R15_5  BAL12_5  0.444619896129
    R15_5  BAL14_5  0.458605103828
    R15_5  BAL15_5  0.214491936248
    R15_5  BAL16_5  0.785375567056
    R15_5  BAL17_5  0.500306848365
    R15_5  BAL18_5  0.250091438693
    R15_5  BAL20_5  0.569124240271
    R15_5  BAL21_5  0.279152943635
    R15_5  BAL22_5  0.885719187132
    R15_5  BAL27_5  0.751763665512
    R15_5  BAL28_5  0.920367234928
    R15_5  BAL29_5  0.50038541885
    R15_5  CAP5  1
    R15_6  COST  12.9008496958
    R15_6  BAL0_6  0.530626748562
    R15_6  BAL3_6  0.64363373595
    R15_6  BAL4_6  0.46403979259
    R15_6  BAL6_6  0.180402389815
    R15_6  BAL11_6  0.582515693061
    R15_6  BAL12_6  0.444619896129
    R15_6  BAL14_6  0.458605103828
    R15_6  BAL15_6  0.214491936248
    R15_6  BAL16_6  0.785375567056
    R15_6  BAL17_6  0.500306848365
    R15_6  BAL18_6  0.250091438693
    R15_6  BAL20_6  0.569124240271
    R15_6  BAL21_6  0.279152943635
    R15_6  BAL22_6  0.885719187132
    R15_6  BAL27_6  0.751763665512
    R15_6  BAL28_6  0.920367234928
    R15_6  BAL29_6  0.50038541885
    R15_6  CAP6  1
    R15_7  COST  12.9008496958
    R15_7  BAL0_7  0.530626748562
    R15_7  BAL3_7  0.64363373595
    R15_7  BAL4_7  0.46403979259
    R15_7  BAL6_7  0.180402389815
    R15_7  BAL11_7  0.582515693061
    R15_7  BAL12_7  0.444619896129
    R15_7  BAL14_7  0.458605103828
    R15_7  BAL15_7  0.214491936248
    R15_7  BAL16_7  0.785375567056
    R15_7  BAL17_7  0.500306848365
    R15_7  BAL18_7  0.250091438693
    R15_7  BAL20_7  0.569124240271
    R15_7  BAL21_7  0.279152943635
    R15_7  BAL22_7  0.885719187132
    R15_7  BAL27_7  0.751763665512
    R15_7  BAL28_7  0.920367234928
    R15_7  BAL29_7  0.50038541885
    R15_7  CAP7  1
    R15_8  COST  12.9008496958
    R15_8  BAL0_8  0.530626748562
    R15_8  BAL3_8  0.64363373595
    R15_8  BAL4_8  0.46403979259
    R15_8  BAL6_8  0.180402389815
    R15_8  BAL11_8  0.582515693061
    R15_8  BAL12_8  0.444619896129
    R15_8  BAL14_8  0.458605103828
    R15_8  BAL15_8  0.214491936248
    R15_8  BAL16_8  0.785375567056
    R15_8  BAL17_8  0.500306848365
    R15_8  BAL18_8  0.250091438693
    R15_8  BAL20_8  0.569124240271
    R15_8  BAL21_8  0.279152943635
    R15_8  BAL22_8  0.885719187132
    R15_8  BAL27_8  0.751763665512
    R15_8  BAL28_8  0.920367234928
    R15_8  BAL29_8  0.50038541885
    R15_8  CAP8  1
    R15_9  COST  12.9008496958
    R15_9  BAL0_9  0.530626748562
    R15_9  BAL3_9  0.64363373595
    R15_9  BAL4_9  0.46403979259
    R15_9  BAL6_9  0.180402389815
    R15_9  BAL11_9  0.582515693061
    R15_9  BAL12_9  0.444619896129
    R15_9  BAL14_9  0.458605103828
    R15_9  BAL15_9  0.214491936248
    R15_9  BAL16_9  0.785375567056
    R15_9  BAL17_9  0.500306848365
    R15_9  BAL18_9  0.250091438693
    R15_9  BAL20_9  0.569124240271
    R15_9  BAL21_9  0.279152943635
    R15_9  BAL22_9  0.885719187132
    R15_9  BAL27_9  0.751763665512
    R15_9  BAL28_9  0.920367234928
    R15_9  BAL29_9  0.50038541885
    R15_9  CAP9  1
    R15_10  COST  12.9008496958
    R15_10  BAL0_10  0.530626748562
    R15_10  BAL3_10  0.64363373595
    R15_10  BAL4_10  0.46403979259
    R15_10  BAL6_10  0.180402389815
    R15_10  BAL11_10  0.582515693061
    R15_10  BAL12_10  0.444619896129
    R15_10  BAL14_10  0.458605103828
    R15_10  BAL15_10  0.214491936248
    R15_10  BAL16_10  0.785375567056
    R15_10  BAL17_10  0.500306848365
    R15_10  BAL18_10  0.250091438693
    R15_10  BAL20_10  0.569124240271
    R15_10  BAL21_10  0.279152943635
    R15_10  BAL22_10  0.885719187132
    R15_10  BAL27_10  0.751763665512
    R15_10  BAL28_10  0.920367234928
    R15_10  BAL29_10  0.50038541885
    R15_10  CAP10  1
    R15_11  COST  12.9008496958
    R15_11  BAL0_11  0.530626748562
    R15_11  BAL3_11  0.64363373595
    R15_11  BAL4_11  0.46403979259
    R15_11  BAL6_11  0.180402389815
    R15_11  BAL11_11  0.582515693061
    R15_11  BAL12_11  0.444619896129
    R15_11  BAL14_11  0.458605103828
    R15_11  BAL15_11  0.214491936248
    R15_11  BAL16_11  0.785375567056
    R15_11  BAL17_11  0.500306848365
    R15_11  BAL18_11  0.250091438693
    R15_11  BAL20_11  0.569124240271
    R15_11  BAL21_11  0.279152943635
    R15_11  BAL22_11  0.885719187132
    R15_11  BAL27_11  0.751763665512
    R15_11  BAL28_11  0.920367234928
    R15_11  BAL29_11  0.50038541885
    R15_11  CAP11  1
    R15_12  COST  12.9008496958
    R15_12  BAL0_12  0.530626748562
    R15_12  BAL3_12  0.64363373595
    R15_12  BAL4_12  0.46403979259
    R15_12  BAL6_12  0.180402389815
    R15_12  BAL11_12  0.582515693061
    R15_12  BAL12_12  0.444619896129
    R15_12  BAL14_12  0.458605103828
    R15_12  BAL15_12  0.214491936248
    R15_12  BAL16_12  0.785375567056
    R15_12  BAL17_12  0.500306848365
    R15_12  BAL18_12  0.250091438693
    R15_12  BAL20_12  0.569124240271
    R15_12  BAL21_12  0.279152943635
    R15_12  BAL22_12  0.885719187132
    R15_12  BAL27_12  0.751763665512
    R15_12  BAL28_12  0.920367234928
    R15_12  BAL29_12  0.50038541885
    R15_12  CAP12  1
    R15_13  COST  12.9008496958
    R15_13  BAL0_13  0.530626748562
    R15_13  BAL3_13  0.64363373595
    R15_13  BAL4_13  0.46403979259
    R15_13  BAL6_13  0.180402389815
    R15_13  BAL11_13  0.582515693061
    R15_13  BAL12_13  0.444619896129
    R15_13  BAL14_13  0.458605103828
    R15_13  BAL15_13  0.214491936248
    R15_13  BAL16_13  0.785375567056
    R15_13  BAL17_13  0.500306848365
    R15_13  BAL18_13  0.250091438693
    R15_13  BAL20_13  0.569124240271
    R15_13  BAL21_13  0.279152943635
    R15_13  BAL22_13  0.885719187132
    R15_13  BAL27_13  0.751763665512
    R15_13  BAL28_13  0.920367234928
    R15_13  BAL29_13  0.50038541885
    R15_13  CAP13  1
    R15_14  COST  12.9008496958
    R15_14  BAL0_14  0.530626748562
    R15_14  BAL3_14  0.64363373595
    R15_14  BAL4_14  0.46403979259
    R15_14  BAL6_14  0.180402389815
    R15_14  BAL11_14  0.582515693061
    R15_14  BAL12_14  0.444619896129
    R15_14  BAL14_14  0.458605103828
    R15_14  BAL15_14  0.214491936248
    R15_14  BAL16_14  0.785375567056
    R15_14  BAL17_14  0.500306848365
    R15_14  BAL18_14  0.250091438693
    R15_14  BAL20_14  0.569124240271
    R15_14  BAL21_14  0.279152943635
    R15_14  BAL22_14  0.885719187132
    R15_14  BAL27_14  0.751763665512
    R15_14  BAL28_14  0.920367234928
    R15_14  BAL29_14  0.50038541885
    R15_14  CAP14  1
    R15_15  COST  12.9008496958
    R15_15  BAL0_15  0.530626748562
    R15_15  BAL3_15  0.64363373595
    R15_15  BAL4_15  0.46403979259
    R15_15  BAL6_15  0.180402389815
    R15_15  BAL11_15  0.582515693061
    R15_15  BAL12_15  0.444619896129
    R15_15  BAL14_15  0.458605103828
    R15_15  BAL15_15  0.214491936248
    R15_15  BAL16_15  0.785375567056
    R15_15  BAL17_15  0.500306848365
    R15_15  BAL18_15  0.250091438693
    R15_15  BAL20_15  0.569124240271
    R15_15  BAL21_15  0.279152943635
    R15_15  BAL22_15  0.885719187132
    R15_15  BAL27_15  0.751763665512
    R15_15  BAL28_15  0.920367234928
    R15_15  BAL29_15  0.50038541885
    R15_15  CAP15  1
    R15_16  COST  12.9008496958
    R15_16  BAL0_16  0.530626748562
    R15_16  BAL3_16  0.64363373595
    R15_16  BAL4_16  0.46403979259
    R15_16  BAL6_16  0.180402389815
    R15_16  BAL11_16  0.582515693061
    R15_16  BAL12_16  0.444619896129
    R15_16  BAL14_16  0.458605103828
    R15_16  BAL15_16  0.214491936248
    R15_16  BAL16_16  0.785375567056
    R15_16  BAL17_16  0.500306848365
    R15_16  BAL18_16  0.250091438693
    R15_16  BAL20_16  0.569124240271
    R15_16  BAL21_16  0.279152943635
    R15_16  BAL22_16  0.885719187132
    R15_16  BAL27_16  0.751763665512
    R15_16  BAL28_16  0.920367234928
    R15_16  BAL29_16  0.50038541885
    R15_16  CAP16  1
    R15_17  COST  12.9008496958
    R15_17  BAL0_17  0.530626748562
    R15_17  BAL3_17  0.64363373595
    R15_17  BAL4_17  0.46403979259
    R15_17  BAL6_17  0.180402389815
    R15_17  BAL11_17  0.582515693061
    R15_17  BAL12_17  0.444619896129
    R15_17  BAL14_17  0.458605103828
    R15_17  BAL15_17  0.214491936248
    R15_17  BAL16_17  0.785375567056
    R15_17  BAL17_17  0.500306848365
    R15_17  BAL18_17  0.250091438693
    R15_17  BAL20_17  0.569124240271
    R15_17  BAL21_17  0.279152943635
    R15_17  BAL22_17  0.885719187132
    R15_17  BAL27_17  0.751763665512
    R15_17  BAL28_17  0.920367234928
    R15_17  BAL29_17  0.50038541885
    R15_17  CAP17  1
    R15_18  COST  12.9008496958
    R15_18  BAL0_18  0.530626748562
    R15_18  BAL3_18  0.64363373595
    R15_18  BAL4_18  0.46403979259
    R15_18  BAL6_18  0.180402389815
    R15_18  BAL11_18  0.582515693061
    R15_18  BAL12_18  0.444619896129
    R15_18  BAL14_18  0.458605103828
    R15_18  BAL15_18  0.214491936248
    R15_18  BAL16_18  0.785375567056
    R15_18  BAL17_18  0.500306848365
    R15_18  BAL18_18  0.250091438693
    R15_18  BAL20_18  0.569124240271
    R15_18  BAL21_18  0.279152943635
    R15_18  BAL22_18  0.885719187132
    R15_18  BAL27_18  0.751763665512
    R15_18  BAL28_18  0.920367234928
    R15_18  BAL29_18  0.50038541885
    R15_18  CAP18  1
    R15_19  COST  12.9008496958
    R15_19  BAL0_19  0.530626748562
    R15_19  BAL3_19  0.64363373595
    R15_19  BAL4_19  0.46403979259
    R15_19  BAL6_19  0.180402389815
    R15_19  BAL11_19  0.582515693061
    R15_19  BAL12_19  0.444619896129
    R15_19  BAL14_19  0.458605103828
    R15_19  BAL15_19  0.214491936248
    R15_19  BAL16_19  0.785375567056
    R15_19  BAL17_19  0.500306848365
    R15_19  BAL18_19  0.250091438693
    R15_19  BAL20_19  0.569124240271
    R15_19  BAL21_19  0.279152943635
    R15_19  BAL22_19  0.885719187132
    R15_19  BAL27_19  0.751763665512
    R15_19  BAL28_19  0.920367234928
    R15_19  BAL29_19  0.50038541885
    R15_19  CAP19  1
    R15_20  COST  12.9008496958
    R15_20  BAL0_20  0.530626748562
    R15_20  BAL3_20  0.64363373595
    R15_20  BAL4_20  0.46403979259
    R15_20  BAL6_20  0.180402389815
    R15_20  BAL11_20  0.582515693061
    R15_20  BAL12_20  0.444619896129
    R15_20  BAL14_20  0.458605103828
    R15_20  BAL15_20  0.214491936248
    R15_20  BAL16_20  0.785375567056
    R15_20  BAL17_20  0.500306848365
    R15_20  BAL18_20  0.250091438693
    R15_20  BAL20_20  0.569124240271
    R15_20  BAL21_20  0.279152943635
    R15_20  BAL22_20  0.885719187132
    R15_20  BAL27_20  0.751763665512
    R15_20  BAL28_20  0.920367234928
    R15_20  BAL29_20  0.50038541885
    R15_20  CAP20  1
    R15_21  COST  12.9008496958
    R15_21  BAL0_21  0.530626748562
    R15_21  BAL3_21  0.64363373595
    R15_21  BAL4_21  0.46403979259
    R15_21  BAL6_21  0.180402389815
    R15_21  BAL11_21  0.582515693061
    R15_21  BAL12_21  0.444619896129
    R15_21  BAL14_21  0.458605103828
    R15_21  BAL15_21  0.214491936248
    R15_21  BAL16_21  0.785375567056
    R15_21  BAL17_21  0.500306848365
    R15_21  BAL18_21  0.250091438693
    R15_21  BAL20_21  0.569124240271
    R15_21  BAL21_21  0.279152943635
    R15_21  BAL22_21  0.885719187132
    R15_21  BAL27_21  0.751763665512
    R15_21  BAL28_21  0.920367234928
    R15_21  BAL29_21  0.50038541885
    R15_21  CAP21  1
    R15_22  COST  12.9008496958
    R15_22  BAL0_22  0.530626748562
    R15_22  BAL3_22  0.64363373595
    R15_22  BAL4_22  0.46403979259
    R15_22  BAL6_22  0.180402389815
    R15_22  BAL11_22  0.582515693061
    R15_22  BAL12_22  0.444619896129
    R15_22  BAL14_22  0.458605103828
    R15_22  BAL15_22  0.214491936248
    R15_22  BAL16_22  0.785375567056
    R15_22  BAL17_22  0.500306848365
    R15_22  BAL18_22  0.250091438693
    R15_22  BAL20_22  0.569124240271
    R15_22  BAL21_22  0.279152943635
    R15_22  BAL22_22  0.885719187132
    R15_22  BAL27_22  0.751763665512
    R15_22  BAL28_22  0.920367234928
    R15_22  BAL29_22  0.50038541885
    R15_22  CAP22  1
    R15_23  COST  12.9008496958
    R15_23  BAL0_23  0.530626748562
    R15_23  BAL3_23  0.64363373595
    R15_23  BAL4_23  0.46403979259
    R15_23  BAL6_23  0.180402389815
    R15_23  BAL11_23  0.582515693061
    R15_23  BAL12_23  0.444619896129
    R15_23  BAL14_23  0.458605103828
    R15_23  BAL15_23  0.214491936248
    R15_23  BAL16_23  0.785375567056
    R15_23  BAL17_23  0.500306848365
    R15_23  BAL18_23  0.250091438693
    R15_23  BAL20_23  0.569124240271
    R15_23  BAL21_23  0.279152943635
    R15_23  BAL22_23  0.885719187132
    R15_23  BAL27_23  0.751763665512
    R15_23  BAL28_23  0.920367234928
    R15_23  BAL29_23  0.50038541885
    R15_23  CAP23  1
    R15_24  COST  12.9008496958
    R15_24  BAL0_24  0.530626748562
    R15_24  BAL3_24  0.64363373595
    R15_24  BAL4_24  0.46403979259
    R15_24  BAL6_24  0.180402389815
    R15_24  BAL11_24  0.582515693061
    R15_24  BAL12_24  0.444619896129
    R15_24  BAL14_24  0.458605103828
    R15_24  BAL15_24  0.214491936248
    R15_24  BAL16_24  0.785375567056
    R15_24  BAL17_24  0.500306848365
    R15_24  BAL18_24  0.250091438693
    R15_24  BAL20_24  0.569124240271
    R15_24  BAL21_24  0.279152943635
    R15_24  BAL22_24  0.885719187132
    R15_24  BAL27_24  0.751763665512
    R15_24  BAL28_24  0.920367234928
    R15_24  BAL29_24  0.50038541885
    R15_24  CAP24  1
    R15_25  COST  12.9008496958
    R15_25  BAL0_25  0.530626748562
    R15_25  BAL3_25  0.64363373595
    R15_25  BAL4_25  0.46403979259
    R15_25  BAL6_25  0.180402389815
    R15_25  BAL11_25  0.582515693061
    R15_25  BAL12_25  0.444619896129
    R15_25  BAL14_25  0.458605103828
    R15_25  BAL15_25  0.214491936248
    R15_25  BAL16_25  0.785375567056
    R15_25  BAL17_25  0.500306848365
    R15_25  BAL18_25  0.250091438693
    R15_25  BAL20_25  0.569124240271
    R15_25  BAL21_25  0.279152943635
    R15_25  BAL22_25  0.885719187132
    R15_25  BAL27_25  0.751763665512
    R15_25  BAL28_25  0.920367234928
    R15_25  BAL29_25  0.50038541885
    R15_25  CAP25  1
    R15_26  COST  12.9008496958
    R15_26  BAL0_26  0.530626748562
    R15_26  BAL3_26  0.64363373595
    R15_26  BAL4_26  0.46403979259
    R15_26  BAL6_26  0.180402389815
    R15_26  BAL11_26  0.582515693061
    R15_26  BAL12_26  0.444619896129
    R15_26  BAL14_26  0.458605103828
    R15_26  BAL15_26  0.214491936248
    R15_26  BAL16_26  0.785375567056
    R15_26  BAL17_26  0.500306848365
    R15_26  BAL18_26  0.250091438693
    R15_26  BAL20_26  0.569124240271
    R15_26  BAL21_26  0.279152943635
    R15_26  BAL22_26  0.885719187132
    R15_26  BAL27_26  0.751763665512
    R15_26  BAL28_26  0.920367234928
    R15_26  BAL29_26  0.50038541885
    R15_26  CAP26  1
    R15_27  COST  12.9008496958
    R15_27  BAL0_27  0.530626748562
    R15_27  BAL3_27  0.64363373595
    R15_27  BAL4_27  0.46403979259
    R15_27  BAL6_27  0.180402389815
    R15_27  BAL11_27  0.582515693061
    R15_27  BAL12_27  0.444619896129
    R15_27  BAL14_27  0.458605103828
    R15_27  BAL15_27  0.214491936248
    R15_27  BAL16_27  0.785375567056
    R15_27  BAL17_27  0.500306848365
    R15_27  BAL18_27  0.250091438693
    R15_27  BAL20_27  0.569124240271
    R15_27  BAL21_27  0.279152943635
    R15_27  BAL22_27  0.885719187132
    R15_27  BAL27_27  0.751763665512
    R15_27  BAL28_27  0.920367234928
    R15_27  BAL29_27  0.50038541885
    R15_27  CAP27  1
    R15_28  COST  12.9008496958
    R15_28  BAL0_28  0.530626748562
    R15_28  BAL3_28  0.64363373595
    R15_28  BAL4_28  0.46403979259
    R15_28  BAL6_28  0.180402389815
    R15_28  BAL11_28  0.582515693061
    R15_28  BAL12_28  0.444619896129
    R15_28  BAL14_28  0.458605103828
    R15_28  BAL15_28  0.214491936248
    R15_28  BAL16_28  0.785375567056
    R15_28  BAL17_28  0.500306848365
    R15_28  BAL18_28  0.250091438693
    R15_28  BAL20_28  0.569124240271
    R15_28  BAL21_28  0.279152943635
    R15_28  BAL22_28  0.885719187132
    R15_28  BAL27_28  0.751763665512
    R15_28  BAL28_28  0.920367234928
    R15_28  BAL29_28  0.50038541885
    R15_28  CAP28  1
    R15_29  COST  12.9008496958
    R15_29  BAL0_29  0.530626748562
    R15_29  BAL3_29  0.64363373595
    R15_29  BAL4_29  0.46403979259
    R15_29  BAL6_29  0.180402389815
    R15_29  BAL11_29  0.582515693061
    R15_29  BAL12_29  0.444619896129
    R15_29  BAL14_29  0.458605103828
    R15_29  BAL15_29  0.214491936248
    R15_29  BAL16_29  0.785375567056
    R15_29  BAL17_29  0.500306848365
    R15_29  BAL18_29  0.250091438693
    R15_29  BAL20_29  0.569124240271
    R15_29  BAL21_29  0.279152943635
    R15_29  BAL22_29  0.885719187132
    R15_29  BAL27_29  0.751763665512
    R15_29  BAL28_29  0.920367234928
    R15_29  BAL29_29  0.50038541885
    R15_29  CAP29  1
    R15_30  COST  12.9008496958
    R15_30  BAL0_30  0.530626748562
    R15_30  BAL3_30  0.64363373595
    R15_30  BAL4_30  0.46403979259
    R15_30  BAL6_30  0.180402389815
    R15_30  BAL11_30  0.582515693061
    R15_30  BAL12_30  0.444619896129
    R15_30  BAL14_30  0.458605103828
    R15_30  BAL15_30  0.214491936248
    R15_30  BAL16_30  0.785375567056
    R15_30  BAL17_30  0.500306848365
    R15_30  BAL18_30  0.250091438693
    R15_30  BAL20_30  0.569124240271
    R15_30  BAL21_30  0.279152943635
    R15_30  BAL22_30  0.885719187132
    R15_30  BAL27_30  0.751763665512
    R15_30  BAL28_30  0.920367234928
    R15_30  BAL29_30  0.50038541885
    R15_30  CAP30  1
    R15_31  COST  12.9008496958
    R15_31  BAL0_31  0.530626748562
    R15_31  BAL3_31  0.64363373595
    R15_31  BAL4_31  0.46403979259
    R15_31  BAL6_31  0.180402389815
    R15_31  BAL11_31  0.582515693061
    R15_31  BAL12_31  0.444619896129
    R15_31  BAL14_31  0.458605103828
    R15_31  BAL15_31  0.214491936248
    R15_31  BAL16_31  0.785375567056
    R15_31  BAL17_31  0.500306848365
    R15_31  BAL18_31  0.250091438693
    R15_31  BAL20_31  0.569124240271
    R15_31  BAL21_31  0.279152943635
    R15_31  BAL22_31  0.885719187132
    R15_31  BAL27_31  0.751763665512
    R15_31  BAL28_31  0.920367234928
    R15_31  BAL29_31  0.50038541885
    R15_31  CAP31  1
    R15_32  COST  12.9008496958
    R15_32  BAL0_32  0.530626748562
    R15_32  BAL3_32  0.64363373595
    R15_32  BAL4_32  0.46403979259
    R15_32  BAL6_32  0.180402389815
    R15_32  BAL11_32  0.582515693061
    R15_32  BAL12_32  0.444619896129
    R15_32  BAL14_32  0.458605103828
    R15_32  BAL15_32  0.214491936248
    R15_32  BAL16_32  0.785375567056
    R15_32  BAL17_32  0.500306848365
    R15_32  BAL18_32  0.250091438693
    R15_32  BAL20_32  0.569124240271
    R15_32  BAL21_32  0.279152943635
    R15_32  BAL22_32  0.885719187132
    R15_32  BAL27_32  0.751763665512
    R15_32  BAL28_32  0.920367234928
    R15_32  BAL29_32  0.50038541885
    R15_32  CAP32  1
    R15_33  COST  12.9008496958
    R15_33  BAL0_33  0.530626748562
    R15_33  BAL3_33  0.64363373595
    R15_33  BAL4_33  0.46403979259
    R15_33  BAL6_33  0.180402389815
    R15_33  BAL11_33  0.582515693061
    R15_33  BAL12_33  0.444619896129
    R15_33  BAL14_33  0.458605103828
    R15_33  BAL15_33  0.214491936248
    R15_33  BAL16_33  0.785375567056
    R15_33  BAL17_33  0.500306848365
    R15_33  BAL18_33  0.250091438693
    R15_33  BAL20_33  0.569124240271
    R15_33  BAL21_33  0.279152943635
    R15_33  BAL22_33  0.885719187132
    R15_33  BAL27_33  0.751763665512
    R15_33  BAL28_33  0.920367234928
    R15_33  BAL29_33  0.50038541885
    R15_33  CAP33  1
    R15_34  COST  12.9008496958
    R15_34  BAL0_34  0.530626748562
    R15_34  BAL3_34  0.64363373595
    R15_34  BAL4_34  0.46403979259
    R15_34  BAL6_34  0.180402389815
    R15_34  BAL11_34  0.582515693061
    R15_34  BAL12_34  0.444619896129
    R15_34  BAL14_34  0.458605103828
    R15_34  BAL15_34  0.214491936248
    R15_34  BAL16_34  0.785375567056
    R15_34  BAL17_34  0.500306848365
    R15_34  BAL18_34  0.250091438693
    R15_34  BAL20_34  0.569124240271
    R15_34  BAL21_34  0.279152943635
    R15_34  BAL22_34  0.885719187132
    R15_34  BAL27_34  0.751763665512
    R15_34  BAL28_34  0.920367234928
    R15_34  BAL29_34  0.50038541885
    R15_34  CAP34  1
    R15_35  COST  12.9008496958
    R15_35  BAL0_35  0.530626748562
    R15_35  BAL3_35  0.64363373595
    R15_35  BAL4_35  0.46403979259
    R15_35  BAL6_35  0.180402389815
    R15_35  BAL11_35  0.582515693061
    R15_35  BAL12_35  0.444619896129
    R15_35  BAL14_35  0.458605103828
    R15_35  BAL15_35  0.214491936248
    R15_35  BAL16_35  0.785375567056
    R15_35  BAL17_35  0.500306848365
    R15_35  BAL18_35  0.250091438693
    R15_35  BAL20_35  0.569124240271
    R15_35  BAL21_35  0.279152943635
    R15_35  BAL22_35  0.885719187132
    R15_35  BAL27_35  0.751763665512
    R15_35  BAL28_35  0.920367234928
    R15_35  BAL29_35  0.50038541885
    R15_35  CAP35  1
    R16_0  COST  20.7261665322
    R16_0  BAL2_0  0.166512856216
    R16_0  BAL4_0  0.390828148368
    R16_0  BAL8_0  0.425371990779
    R16_0  BAL10_0  0.433294902917
    R16_0  BAL11_0  0.21214709503
    R16_0  BAL14_0  0.704396197854
    R16_0  BAL16_0  0.504876074513
    R16_0  BAL22_0  0.824715399645
    R16_0  BAL25_0  0.480362783794
    R16_0  BAL26_0  0.307637605438
    R16_0  BAL28_0  0.665793596665
    R16_0  BAL29_0  0.160965825922
    R16_0  CAP0  1
    R16_1  COST  20.7261665322
    R16_1  BAL2_1  0.166512856216
    R16_1  BAL4_1  0.390828148368
    R16_1  BAL8_1  0.425371990779
    R16_1  BAL10_1  0.433294902917
    R16_1  BAL11_1  0.21214709503
    R16_1  BAL14_1  0.704396197854
    R16_1  BAL16_1  0.504876074513
    R16_1  BAL22_1  0.824715399645
    R16_1  BAL25_1  0.480362783794
    R16_1  BAL26_1  0.307637605438
    R16_1  BAL28_1  0.665793596665
    R16_1  BAL29_1  0.160965825922
    R16_1  CAP1  1
    R16_2  COST  20.7261665322
    R16_2  BAL2_2  0.166512856216
    R16_2  BAL4_2  0.390828148368
    R16_2  BAL8_2  0.425371990779
    R16_2  BAL10_2  0.433294902917
    R16_2  BAL11_2  0.21214709503
    R16_2  BAL14_2  0.704396197854
    R16_2  BAL16_2  0.504876074513
    R16_2  BAL22_2  0.824715399645
    R16_2  BAL25_2  0.480362783794
    R16_2  BAL26_2  0.307637605438
    R16_2  BAL28_2  0.665793596665
    R16_2  BAL29_2  0.160965825922
    R16_2  CAP2  1
    R16_3  COST  20.7261665322
    R16_3  BAL2_3  0.166512856216
    R16_3  BAL4_3  0.390828148368
    R16_3  BAL8_3  0.425371990779
    R16_3  BAL10_3  0.433294902917
    R16_3  BAL11_3  0.21214709503
    R16_3  BAL14_3  0.704396197854
    R16_3  BAL16_3  0.504876074513
    R16_3  BAL22_3  0.824715399645
    R16_3  BAL25_3  0.480362783794
    R16_3  BAL26_3  0.307637605438
    R16_3  BAL28_3  0.665793596665
    R16_3  BAL29_3  0.160965825922
    R16_3  CAP3  1
    R16_4  COST  20.7261665322
    R16_4  BAL2_4  0.166512856216
    R16_4  BAL4_4  0.390828148368
    R16_4  BAL8_4  0.425371990779
    R16_4  BAL10_4  0.433294902917
    R16_4  BAL11_4  0.21214709503
    R16_4  BAL14_4  0.704396197854
    R16_4  BAL16_4  0.504876074513
    R16_4  BAL22_4  0.824715399645
    R16_4  BAL25_4  0.480362783794
    R16_4  BAL26_4  0.307637605438
    R16_4  BAL28_4  0.665793596665
    R16_4  BAL29_4  0.160965825922
    R16_4  CAP4  1
    R16_5  COST  20.7261665322
    R16_5  BAL2_5  0.166512856216
    R16_5  BAL4_5  0.390828148368
    R16_5  BAL8_5  0.425371990779
    R16_5  BAL10_5  0.433294902917
    R16_5  BAL11_5  0.21214709503
    R16_5  BAL14_5  0.704396197854
    R16_5  BAL16_5  0.504876074513
    R16_5  BAL22_5  0.824715399645
    R16_5  BAL25_5  0.480362783794
    R16_5  BAL26_5  0.307637605438
    R16_5  BAL28_5  0.665793596665
    R16_5  BAL29_5  0.160965825922
    R16_5  CAP5  1
    R16_6  COST  20.7261665322
    R16_6  BAL2_6  0.166512856216
    R16_6  BAL4_6  0.390828148368
    R16_6  BAL8_6  0.425371990779
    R16_6  BAL10_6  0.433294902917
    R16_6  BAL11_6  0.21214709503
    R16_6  BAL14_6  0.704396197854
    R16_6  BAL16_6  0.504876074513
    R16_6  BAL22_6  0.824715399645
    R16_6  BAL25_6  0.480362783794
    R16_6  BAL26_6  0.307637605438
    R16_6  BAL28_6  0.665793596665
    R16_6  BAL29_6  0.160965825922
    R16_6  CAP6  1
    R16_7  COST  20.7261665322
    R16_7  BAL2_7  0.166512856216
    R16_7  BAL4_7  0.390828148368
    R16_7  BAL8_7  0.425371990779
    R16_7  BAL10_7  0.433294902917
    R16_7  BAL11_7  0.21214709503
    R16_7  BAL14_7  0.704396197854
    R16_7  BAL16_7  0.504876074513
    R16_7  BAL22_7  0.824715399645
    R16_7  BAL25_7  0.480362783794
    R16_7  BAL26_7  0.307637605438
    R16_7  BAL28_7  0.665793596665
    R16_7  BAL29_7  0.160965825922
    R16_7  CAP7  1
    R16_8  COST  20.7261665322
    R16_8  BAL2_8  0.166512856216
    R16_8  BAL4_8  0.390828148368
    R16_8  BAL8_8  0.425371990779
    R16_8  BAL10_8  0.433294902917
    R16_8  BAL11_8  0.21214709503
    R16_8  BAL14_8  0.704396197854
    R16_8  BAL16_8  0.504876074513
    R16_8  BAL22_8  0.824715399645
    R16_8  BAL25_8  0.480362783794
    R16_8  BAL26_8  0.307637605438
    R16_8  BAL28_8  0.665793596665
    R16_8  BAL29_8  0.160965825922
    R16_8  CAP8  1
    R16_9  COST  20.7261665322
    R16_9  BAL2_9  0.166512856216
    R16_9  BAL4_9  0.390828148368
    R16_9  BAL8_9  0.425371990779
    R16_9  BAL10_9  0.433294902917
    R16_9  BAL11_9  0.21214709503
    R16_9  BAL14_9  0.704396197854
    R16_9  BAL16_9  0.504876074513
    R16_9  BAL22_9  0.824715399645
    R16_9  BAL25_9  0.480362783794
    R16_9  BAL26_9  0.307637605438
    R16_9  BAL28_9  0.665793596665
    R16_9  BAL29_9  0.160965825922
    R16_9  CAP9  1
    R16_10  COST  20.7261665322
    R16_10  BAL2_10  0.166512856216
    R16_10  BAL4_10  0.390828148368
    R16_10  BAL8_10  0.425371990779
    R16_10  BAL10_10  0.433294902917
    R16_10  BAL11_10  0.21214709503
    R16_10  BAL14_10  0.704396197854
    R16_10  BAL16_10  0.504876074513
    R16_10  BAL22_10  0.824715399645
    R16_10  BAL25_10  0.480362783794
    R16_10  BAL26_10  0.307637605438
    R16_10  BAL28_10  0.665793596665
    R16_10  BAL29_10  0.160965825922
    R16_10  CAP10  1
    R16_11  COST  20.7261665322
    R16_11  BAL2_11  0.166512856216
    R16_11  BAL4_11  0.390828148368
    R16_11  BAL8_11  0.425371990779
    R16_11  BAL10_11  0.433294902917
    R16_11  BAL11_11  0.21214709503
    R16_11  BAL14_11  0.704396197854
    R16_11  BAL16_11  0.504876074513
    R16_11  BAL22_11  0.824715399645
    R16_11  BAL25_11  0.480362783794
    R16_11  BAL26_11  0.307637605438
    R16_11  BAL28_11  0.665793596665
    R16_11  BAL29_11  0.160965825922
    R16_11  CAP11  1
    R16_12  COST  20.7261665322
    R16_12  BAL2_12  0.166512856216
    R16_12  BAL4_12  0.390828148368
    R16_12  BAL8_12  0.425371990779
    R16_12  BAL10_12  0.433294902917
    R16_12  BAL11_12  0.21214709503
    R16_12  BAL14_12  0.704396197854
    R16_12  BAL16_12  0.504876074513
    R16_12  BAL22_12  0.824715399645
    R16_12  BAL25_12  0.480362783794
    R16_12  BAL26_12  0.307637605438
    R16_12  BAL28_12  0.665793596665
    R16_12  BAL29_12  0.160965825922
    R16_12  CAP12  1
    R16_13  COST  20.7261665322
    R16_13  BAL2_13  0.166512856216
    R16_13  BAL4_13  0.390828148368
    R16_13  BAL8_13  0.425371990779
    R16_13  BAL10_13  0.433294902917
    R16_13  BAL11_13  0.21214709503
    R16_13  BAL14_13  0.704396197854
    R16_13  BAL16_13  0.504876074513
    R16_13  BAL22_13  0.824715399645
    R16_13  BAL25_13  0.480362783794
    R16_13  BAL26_13  0.307637605438
    R16_13  BAL28_13  0.665793596665
    R16_13  BAL29_13  0.160965825922
    R16_13  CAP13  1
    R16_14  COST  20.7261665322
    R16_14  BAL2_14  0.166512856216
    R16_14  BAL4_14  0.390828148368
    R16_14  BAL8_14  0.425371990779
    R16_14  BAL10_14  0.433294902917
    R16_14  BAL11_14  0.21214709503
    R16_14  BAL14_14  0.704396197854
    R16_14  BAL16_14  0.504876074513
    R16_14  BAL22_14  0.824715399645
    R16_14  BAL25_14  0.480362783794
    R16_14  BAL26_14  0.307637605438
    R16_14  BAL28_14  0.665793596665
    R16_14  BAL29_14  0.160965825922
    R16_14  CAP14  1
    R16_15  COST  20.7261665322
    R16_15  BAL2_15  0.166512856216
    R16_15  BAL4_15  0.390828148368
    R16_15  BAL8_15  0.425371990779
    R16_15  BAL10_15  0.433294902917
    R16_15  BAL11_15  0.21214709503
    R16_15  BAL14_15  0.704396197854
    R16_15  BAL16_15  0.504876074513
    R16_15  BAL22_15  0.824715399645
    R16_15  BAL25_15  0.480362783794
    R16_15  BAL26_15  0.307637605438
    R16_15  BAL28_15  0.665793596665
    R16_15  BAL29_15  0.160965825922
    R16_15  CAP15  1
    R16_16  COST  20.7261665322
    R16_16  BAL2_16  0.166512856216
    R16_16  BAL4_16  0.390828148368
    R16_16  BAL8_16  0.425371990779
    R16_16  BAL10_16  0.433294902917
    R16_16  BAL11_16  0.21214709503
    R16_16  BAL14_16  0.704396197854
    R16_16  BAL16_16  0.504876074513
    R16_16  BAL22_16  0.824715399645
    R16_16  BAL25_16  0.480362783794
    R16_16  BAL26_16  0.307637605438
    R16_16  BAL28_16  0.665793596665
    R16_16  BAL29_16  0.160965825922
    R16_16  CAP16  1
    R16_17  COST  20.7261665322
    R16_17  BAL2_17  0.166512856216
    R16_17  BAL4_17  0.390828148368
    R16_17  BAL8_17  0.425371990779
    R16_17  BAL10_17  0.433294902917
    R16_17  BAL11_17  0.21214709503
    R16_17  BAL14_17  0.704396197854
    R16_17  BAL16_17  0.504876074513
    R16_17  BAL22_17  0.824715399645
    R16_17  BAL25_17  0.480362783794
    R16_17  BAL26_17  0.307637605438
    R16_17  BAL28_17  0.665793596665
    R16_17  BAL29_17  0.160965825922
    R16_17  CAP17  1
    R16_18  COST  20.7261665322
    R16_18  BAL2_18  0.166512856216
    R16_18  BAL4_18  0.390828148368
    R16_18  BAL8_18  0.425371990779
    R16_18  BAL10_18  0.433294902917
    R16_18  BAL11_18  0.21214709503
    R16_18  BAL14_18  0.704396197854
    R16_18  BAL16_18  0.504876074513
    R16_18  BAL22_18  0.824715399645
    R16_18  BAL25_18  0.480362783794
    R16_18  BAL26_18  0.307637605438
    R16_18  BAL28_18  0.665793596665
    R16_18  BAL29_18  0.160965825922
    R16_18  CAP18  1
    R16_19  COST  20.7261665322
    R16_19  BAL2_19  0.166512856216
    R16_19  BAL4_19  0.390828148368
    R16_19  BAL8_19  0.425371990779
    R16_19  BAL10_19  0.433294902917
    R16_19  BAL11_19  0.21214709503
    R16_19  BAL14_19  0.704396197854
    R16_19  BAL16_19  0.504876074513
    R16_19  BAL22_19  0.824715399645
    R16_19  BAL25_19  0.480362783794
    R16_19  BAL26_19  0.307637605438
    R16_19  BAL28_19  0.665793596665
    R16_19  BAL29_19  0.160965825922
    R16_19  CAP19  1
    R16_20  COST  20.7261665322
    R16_20  BAL2_20  0.166512856216
    R16_20  BAL4_20  0.390828148368
    R16_20  BAL8_20  0.425371990779
    R16_20  BAL10_20  0.433294902917
    R16_20  BAL11_20  0.21214709503
    R16_20  BAL14_20  0.704396197854
    R16_20  BAL16_20  0.504876074513
    R16_20  BAL22_20  0.824715399645
    R16_20  BAL25_20  0.480362783794
    R16_20  BAL26_20  0.307637605438
    R16_20  BAL28_20  0.665793596665
    R16_20  BAL29_20  0.160965825922
    R16_20  CAP20  1
    R16_21  COST  20.7261665322
    R16_21  BAL2_21  0.166512856216
    R16_21  BAL4_21  0.390828148368
    R16_21  BAL8_21  0.425371990779
    R16_21  BAL10_21  0.433294902917
    R16_21  BAL11_21  0.21214709503
    R16_21  BAL14_21  0.704396197854
    R16_21  BAL16_21  0.504876074513
    R16_21  BAL22_21  0.824715399645
    R16_21  BAL25_21  0.480362783794
    R16_21  BAL26_21  0.307637605438
    R16_21  BAL28_21  0.665793596665
    R16_21  BAL29_21  0.160965825922
    R16_21  CAP21  1
    R16_22  COST  20.7261665322
    R16_22  BAL2_22  0.166512856216
    R16_22  BAL4_22  0.390828148368
    R16_22  BAL8_22  0.425371990779
    R16_22  BAL10_22  0.433294902917
    R16_22  BAL11_22  0.21214709503
    R16_22  BAL14_22  0.704396197854
    R16_22  BAL16_22  0.504876074513
    R16_22  BAL22_22  0.824715399645
    R16_22  BAL25_22  0.480362783794
    R16_22  BAL26_22  0.307637605438
    R16_22  BAL28_22  0.665793596665
    R16_22  BAL29_22  0.160965825922
    R16_22  CAP22  1
    R16_23  COST  20.7261665322
    R16_23  BAL2_23  0.166512856216
    R16_23  BAL4_23  0.390828148368
    R16_23  BAL8_23  0.425371990779
    R16_23  BAL10_23  0.433294902917
    R16_23  BAL11_23  0.21214709503
    R16_23  BAL14_23  0.704396197854
    R16_23  BAL16_23  0.504876074513
    R16_23  BAL22_23  0.824715399645
    R16_23  BAL25_23  0.480362783794
    R16_23  BAL26_23  0.307637605438
    R16_23  BAL28_23  0.665793596665
    R16_23  BAL29_23  0.160965825922
    R16_23  CAP23  1
    R16_24  COST  20.7261665322
    R16_24  BAL2_24  0.166512856216
    R16_24  BAL4_24  0.390828148368
    R16_24  BAL8_24  0.425371990779
    R16_24  BAL10_24  0.433294902917
    R16_24  BAL11_24  0.21214709503
    R16_24  BAL14_24  0.704396197854
    R16_24  BAL16_24  0.504876074513
    R16_24  BAL22_24  0.824715399645
    R16_24  BAL25_24  0.480362783794
    R16_24  BAL26_24  0.307637605438
    R16_24  BAL28_24  0.665793596665
    R16_24  BAL29_24  0.160965825922
    R16_24  CAP24  1
    R16_25  COST  20.7261665322
    R16_25  BAL2_25  0.166512856216
    R16_25  BAL4_25  0.390828148368
    R16_25  BAL8_25  0.425371990779
    R16_25  BAL10_25  0.433294902917
    R16_25  BAL11_25  0.21214709503
    R16_25  BAL14_25  0.704396197854
    R16_25  BAL16_25  0.504876074513
    R16_25  BAL22_25  0.824715399645
    R16_25  BAL25_25  0.480362783794
    R16_25  BAL26_25  0.307637605438
    R16_25  BAL28_25  0.665793596665
    R16_25  BAL29_25  0.160965825922
    R16_25  CAP25  1
    R16_26  COST  20.7261665322
    R16_26  BAL2_26  0.166512856216
    R16_26  BAL4_26  0.390828148368
    R16_26  BAL8_26  0.425371990779
    R16_26  BAL10_26  0.433294902917
    R16_26  BAL11_26  0.21214709503
    R16_26  BAL14_26  0.704396197854
    R16_26  BAL16_26  0.504876074513
    R16_26  BAL22_26  0.824715399645
    R16_26  BAL25_26  0.480362783794
    R16_26  BAL26_26  0.307637605438
    R16_26  BAL28_26  0.665793596665
    R16_26  BAL29_26  0.160965825922
    R16_26  CAP26  1
    R16_27  COST  20.7261665322
    R16_27  BAL2_27  0.166512856216
    R16_27  BAL4_27  0.390828148368
    R16_27  BAL8_27  0.425371990779
    R16_27  BAL10_27  0.433294902917
    R16_27  BAL11_27  0.21214709503
    R16_27  BAL14_27  0.704396197854
    R16_27  BAL16_27  0.504876074513
    R16_27  BAL22_27  0.824715399645
    R16_27  BAL25_27  0.480362783794
    R16_27  BAL26_27  0.307637605438
    R16_27  BAL28_27  0.665793596665
    R16_27  BAL29_27  0.160965825922
    R16_27  CAP27  1
    R16_28  COST  20.7261665322
    R16_28  BAL2_28  0.166512856216
    R16_28  BAL4_28  0.390828148368
    R16_28  BAL8_28  0.425371990779
    R16_28  BAL10_28  0.433294902917
    R16_28  BAL11_28  0.21214709503
    R16_28  BAL14_28  0.704396197854
    R16_28  BAL16_28  0.504876074513
    R16_28  BAL22_28  0.824715399645
    R16_28  BAL25_28  0.480362783794
    R16_28  BAL26_28  0.307637605438
    R16_28  BAL28_28  0.665793596665
    R16_28  BAL29_28  0.160965825922
    R16_28  CAP28  1
    R16_29  COST  20.7261665322
    R16_29  BAL2_29  0.166512856216
    R16_29  BAL4_29  0.390828148368
    R16_29  BAL8_29  0.425371990779
    R16_29  BAL10_29  0.433294902917
    R16_29  BAL11_29  0.21214709503
    R16_29  BAL14_29  0.704396197854
    R16_29  BAL16_29  0.504876074513
    R16_29  BAL22_29  0.824715399645
    R16_29  BAL25_29  0.480362783794
    R16_29  BAL26_29  0.307637605438
    R16_29  BAL28_29  0.665793596665
    R16_29  BAL29_29  0.160965825922
    R16_29  CAP29  1
    R16_30  COST  20.7261665322
    R16_30  BAL2_30  0.166512856216
    R16_30  BAL4_30  0.390828148368
    R16_30  BAL8_30  0.425371990779
    R16_30  BAL10_30  0.433294902917
    R16_30  BAL11_30  0.21214709503
    R16_30  BAL14_30  0.704396197854
    R16_30  BAL16_30  0.504876074513
    R16_30  BAL22_30  0.824715399645
    R16_30  BAL25_30  0.480362783794
    R16_30  BAL26_30  0.307637605438
    R16_30  BAL28_30  0.665793596665
    R16_30  BAL29_30  0.160965825922
    R16_30  CAP30  1
    R16_31  COST  20.7261665322
    R16_31  BAL2_31  0.166512856216
    R16_31  BAL4_31  0.390828148368
    R16_31  BAL8_31  0.425371990779
    R16_31  BAL10_31  0.433294902917
    R16_31  BAL11_31  0.21214709503
    R16_31  BAL14_31  0.704396197854
    R16_31  BAL16_31  0.504876074513
    R16_31  BAL22_31  0.824715399645
    R16_31  BAL25_31  0.480362783794
    R16_31  BAL26_31  0.307637605438
    R16_31  BAL28_31  0.665793596665
    R16_31  BAL29_31  0.160965825922
    R16_31  CAP31  1
    R16_32  COST  20.7261665322
    R16_32  BAL2_32  0.166512856216
    R16_32  BAL4_32  0.390828148368
    R16_32  BAL8_32  0.425371990779
    R16_32  BAL10_32  0.433294902917
    R16_32  BAL11_32  0.21214709503
    R16_32  BAL14_32  0.704396197854
    R16_32  BAL16_32  0.504876074513
    R16_32  BAL22_32  0.824715399645
    R16_32  BAL25_32  0.480362783794
    R16_32  BAL26_32  0.307637605438
    R16_32  BAL28_32  0.665793596665
    R16_32  BAL29_32  0.160965825922
    R16_32  CAP32  1
    R16_33  COST  20.7261665322
    R16_33  BAL2_33  0.166512856216
    R16_33  BAL4_33  0.390828148368
    R16_33  BAL8_33  0.425371990779
    R16_33  BAL10_33  0.433294902917
    R16_33  BAL11_33  0.21214709503
    R16_33  BAL14_33  0.704396197854
    R16_33  BAL16_33  0.504876074513
    R16_33  BAL22_33  0.824715399645
    R16_33  BAL25_33  0.480362783794
    R16_33  BAL26_33  0.307637605438
    R16_33  BAL28_33  0.665793596665
    R16_33  BAL29_33  0.160965825922
    R16_33  CAP33  1
    R16_34  COST  20.7261665322
    R16_34  BAL2_34  0.166512856216
    R16_34  BAL4_34  0.390828148368
    R16_34  BAL8_34  0.425371990779
    R16_34  BAL10_34  0.433294902917
    R16_34  BAL11_34  0.21214709503
    R16_34  BAL14_34  0.704396197854
    R16_34  BAL16_34  0.504876074513
    R16_34  BAL22_34  0.824715399645
    R16_34  BAL25_34  0.480362783794
    R16_34  BAL26_34  0.307637605438
    R16_34  BAL28_34  0.665793596665
    R16_34  BAL29_34  0.160965825922
    R16_34  CAP34  1
    R16_35  COST  20.7261665322
    R16_35  BAL2_35  0.166512856216
    R16_35  BAL4_35  0.390828148368
    R16_35  BAL8_35  0.425371990779
    R16_35  BAL10_35  0.433294902917
    R16_35  BAL11_35  0.21214709503
    R16_35  BAL14_35  0.704396197854
    R16_35  BAL16_35  0.504876074513
    R16_35  BAL22_35  0.824715399645
    R16_35  BAL25_35  0.480362783794
    R16_35  BAL26_35  0.307637605438
    R16_35  BAL28_35  0.665793596665
    R16_35  BAL29_35  0.160965825922
    R16_35  CAP35  1
    R17_0  COST  17.8089919546
    R17_0  BAL0_0  0.764628461901
    R17_0  BAL2_0  0.190526633872
    R17_0  BAL3_0  0.163157704685
    R17_0  BAL5_0  0.396377174756
    R17_0  BAL8_0  0.334036231684
    R17_0  BAL10_0  0.794109247874
    R17_0  BAL11_0  0.791610761756
    R17_0  BAL12_0  0.159918560723
    R17_0  BAL13_0  0.691029292057
    R17_0  BAL20_0  0.521111213447
    R17_0  BAL23_0  0.300251964106
    R17_0  BAL24_0  0.595814979443
    R17_0  BAL26_0  0.833674432404
    R17_0  BAL27_0  0.442178252581
    R17_0  BAL28_0  0.189446274252
    R17_0  BAL29_0  0.202773690791
    R17_0  CAP0  1
    R17_1  COST  17.8089919546
    R17_1  BAL0_1  0.764628461901
    R17_1  BAL2_1  0.190526633872
    R17_1  BAL3_1  0.163157704685
    R17_1  BAL5_1  0.396377174756
    R17_1  BAL8_1  0.334036231684
    R17_1  BAL10_1  0.794109247874
    R17_1  BAL11_1  0.791610761756
    R17_1  BAL12_1  0.159918560723
    R17_1  BAL13_1  0.691029292057
    R17_1  BAL20_1  0.521111213447
    R17_1  BAL23_1  0.300251964106
    R17_1  BAL24_1  0.595814979443
    R17_1  BAL26_1  0.833674432404
    R17_1  BAL27_1  0.442178252581
    R17_1  BAL28_1  0.189446274252
    R17_1  BAL29_1  0.202773690791
    R17_1  CAP1  1
    R17_2  COST  17.8089919546
    R17_2  BAL0_2  0.764628461901
    R17_2  BAL2_2  0.190526633872
    R17_2  BAL3_2  0.163157704685
    R17_2  BAL5_2  0.396377174756
    R17_2  BAL8_2  0.334036231684
    R17_2  BAL10_2  0.794109247874
    R17_2  BAL11_2  0.791610761756
    R17_2  BAL12_2  0.159918560723
    R17_2  BAL13_2  0.691029292057
    R17_2  BAL20_2  0.521111213447
    R17_2  BAL23_2  0.300251964106
    R17_2  BAL24_2  0.595814979443
    R17_2  BAL26_2  0.833674432404
    R17_2  BAL27_2  0.442178252581
    R17_2  BAL28_2  0.189446274252
    R17_2  BAL29_2  0.202773690791
    R17_2  CAP2  1
    R17_3  COST  17.8089919546
    R17_3  BAL0_3  0.764628461901
    R17_3  BAL2_3  0.190526633872
    R17_3  BAL3_3  0.163157704685
    R17_3  BAL5_3  0.396377174756
    R17_3  BAL8_3  0.334036231684
    R17_3  BAL10_3  0.794109247874
    R17_3  BAL11_3  0.791610761756
    R17_3  BAL12_3  0.159918560723
    R17_3  BAL13_3  0.691029292057
    R17_3  BAL20_3  0.521111213447
    R17_3  BAL23_3  0.300251964106
    R17_3  BAL24_3  0.595814979443
    R17_3  BAL26_3  0.833674432404
    R17_3  BAL27_3  0.442178252581
    R17_3  BAL28_3  0.189446274252
    R17_3  BAL29_3  0.202773690791
    R17_3  CAP3  1
    R17_4  COST  17.8089919546
    R17_4  BAL0_4  0.764628461901
    R17_4  BAL2_4  0.190526633872
    R17_4  BAL3_4  0.163157704685
    R17_4  BAL5_4  0.396377174756
    R17_4  BAL8_4  0.334036231684
    R17_4  BAL10_4  0.794109247874
    R17_4  BAL11_4  0.791610761756
    R17_4  BAL12_4  0.159918560723
    R17_4  BAL13_4  0.691029292057
    R17_4  BAL20_4  0.521111213447
    R17_4  BAL23_4  0.300251964106
    R17_4  BAL24_4  0.595814979443
    R17_4  BAL26_4  0.833674432404
    R17_4  BAL27_4  0.442178252581
    R17_4  BAL28_4  0.189446274252
    R17_4  BAL29_4  0.202773690791
    R17_4  CAP4  1
    R17_5  COST  17.8089919546
    R17_5  BAL0_5  0.764628461901
    R17_5  BAL2_5  0.190526633872
    R17_5  BAL3_5  0.163157704685
    R17_5  BAL5_5  0.396377174756
    R17_5  BAL8_5  0.334036231684
    R17_5  BAL10_5  0.794109247874
    R17_5  BAL11_5  0.791610761756
    R17_5  BAL12_5  0.159918560723
    R17_5  BAL13_5  0.691029292057
    R17_5  BAL20_5  0.521111213447
    R17_5  BAL23_5  0.300251964106
    R17_5  BAL24_5  0.595814979443
    R17_5  BAL26_5  0.833674432404
    R17_5  BAL27_5  0.442178252581
    R17_5  BAL28_5  0.189446274252
    R17_5  BAL29_5  0.202773690791
    R17_5  CAP5  1
    R17_6  COST  17.8089919546
    R17_6  BAL0_6  0.764628461901
    R17_6  BAL2_6  0.190526633872
    R17_6  BAL3_6  0.163157704685
    R17_6  BAL5_6  0.396377174756
    R17_6  BAL8_6  0.334036231684
    R17_6  BAL10_6  0.794109247874
    R17_6  BAL11_6  0.791610761756
    R17_6  BAL12_6  0.159918560723
    R17_6  BAL13_6  0.691029292057
    R17_6  BAL20_6  0.521111213447
    R17_6  BAL23_6  0.300251964106
    R17_6  BAL24_6  0.595814979443
    R17_6  BAL26_6  0.833674432404
    R17_6  BAL27_6  0.442178252581
    R17_6  BAL28_6  0.189446274252
    R17_6  BAL29_6  0.202773690791
    R17_6  CAP6  1
    R17_7  COST  17.8089919546
    R17_7  BAL0_7  0.764628461901
    R17_7  BAL2_7  0.190526633872
    R17_7  BAL3_7  0.163157704685
    R17_7  BAL5_7  0.396377174756
    R17_7  BAL8_7  0.334036231684
    R17_7  BAL10_7  0.794109247874
    R17_7  BAL11_7  0.791610761756
    R17_7  BAL12_7  0.159918560723
    R17_7  BAL13_7  0.691029292057
    R17_7  BAL20_7  0.521111213447
    R17_7  BAL23_7  0.300251964106
    R17_7  BAL24_7  0.595814979443
    R17_7  BAL26_7  0.833674432404
    R17_7  BAL27_7  0.442178252581
    R17_7  BAL28_7  0.189446274252
    R17_7  BAL29_7  0.202773690791
    R17_7  CAP7  1
    R17_8  COST  17.8089919546
    R17_8  BAL0_8  0.764628461901
    R17_8  BAL2_8  0.190526633872
    R17_8  BAL3_8  0.163157704685
    R17_8  BAL5_8  0.396377174756
    R17_8  BAL8_8  0.334036231684
    R17_8  BAL10_8  0.794109247874
    R17_8  BAL11_8  0.791610761756
    R17_8  BAL12_8  0.159918560723
    R17_8  BAL13_8  0.691029292057
    R17_8  BAL20_8  0.521111213447
    R17_8  BAL23_8  0.300251964106
    R17_8  BAL24_8  0.595814979443
    R17_8  BAL26_8  0.833674432404
    R17_8  BAL27_8  0.442178252581
    R17_8  BAL28_8  0.189446274252
    R17_8  BAL29_8  0.202773690791
    R17_8  CAP8  1
    R17_9  COST  17.8089919546
    R17_9  BAL0_9  0.764628461901
    R17_9  BAL2_9  0.190526633872
    R17_9  BAL3_9  0.163157704685
    R17_9  BAL5_9  0.396377174756
    R17_9  BAL8_9  0.334036231684
    R17_9  BAL10_9  0.794109247874
    R17_9  BAL11_9  0.791610761756
    R17_9  BAL12_9  0.159918560723
    R17_9  BAL13_9  0.691029292057
    R17_9  BAL20_9  0.521111213447
    R17_9  BAL23_9  0.300251964106
    R17_9  BAL24_9  0.595814979443
    R17_9  BAL26_9  0.833674432404
    R17_9  BAL27_9  0.442178252581
    R17_9  BAL28_9  0.189446274252
    R17_9  BAL29_9  0.202773690791
    R17_9  CAP9  1
    R17_10  COST  17.8089919546
    R17_10  BAL0_10  0.764628461901
    R17_10  BAL2_10  0.190526633872
    R17_10  BAL3_10  0.163157704685
    R17_10  BAL5_10  0.396377174756
    R17_10  BAL8_10  0.334036231684
    R17_10  BAL10_10  0.794109247874
    R17_10  BAL11_10  0.791610761756
    R17_10  BAL12_10  0.159918560723
    R17_10  BAL13_10  0.691029292057
    R17_10  BAL20_10  0.521111213447
    R17_10  BAL23_10  0.300251964106
    R17_10  BAL24_10  0.595814979443
    R17_10  BAL26_10  0.833674432404
    R17_10  BAL27_10  0.442178252581
    R17_10  BAL28_10  0.189446274252
    R17_10  BAL29_10  0.202773690791
    R17_10  CAP10  1
    R17_11  COST  17.8089919546
    R17_11  BAL0_11  0.764628461901
    R17_11  BAL2_11  0.190526633872
    R17_11  BAL3_11  0.163157704685
    R17_11  BAL5_11  0.396377174756
    R17_11  BAL8_11  0.334036231684
    R17_11  BAL10_11  0.794109247874
    R17_11  BAL11_11  0.791610761756
    R17_11  BAL12_11  0.159918560723
    R17_11  BAL13_11  0.691029292057
    R17_11  BAL20_11  0.521111213447
    R17_11  BAL23_11  0.300251964106
    R17_11  BAL24_11  0.595814979443
    R17_11  BAL26_11  0.833674432404
    R17_11  BAL27_11  0.442178252581
    R17_11  BAL28_11  0.189446274252
    R17_11  BAL29_11  0.202773690791
    R17_11  CAP11  1
    R17_12  COST  17.8089919546
    R17_12  BAL0_12  0.764628461901
    R17_12  BAL2_12  0.190526633872
    R17_12  BAL3_12  0.163157704685
    R17_12  BAL5_12  0.396377174756
    R17_12  BAL8_12  0.334036231684
    R17_12  BAL10_12  0.794109247874
    R17_12  BAL11_12  0.791610761756
    R17_12  BAL12_12  0.159918560723
    R17_12  BAL13_12  0.691029292057
    R17_12  BAL20_12  0.521111213447
    R17_12  BAL23_12  0.300251964106
    R17_12  BAL24_12  0.595814979443
    R17_12  BAL26_12  0.833674432404
    R17_12  BAL27_12  0.442178252581
    R17_12  BAL28_12  0.189446274252
    R17_12  BAL29_12  0.202773690791
    R17_12  CAP12  1
    R17_13  COST  17.8089919546
    R17_13  BAL0_13  0.764628461901
    R17_13  BAL2_13  0.190526633872
    R17_13  BAL3_13  0.163157704685
    R17_13  BAL5_13  0.396377174756
    R17_13  BAL8_13  0.334036231684
    R17_13  BAL10_13  0.794109247874
    R17_13  BAL11_13  0.791610761756
    R17_13  BAL12_13  0.159918560723
    R17_13  BAL13_13  0.691029292057
    R17_13  BAL20_13  0.521111213447
    R17_13  BAL23_13  0.300251964106
    R17_13  BAL24_13  0.595814979443
    R17_13  BAL26_13  0.833674432404
    R17_13  BAL27_13  0.442178252581
    R17_13  BAL28_13  0.189446274252
    R17_13  BAL29_13  0.202773690791
    R17_13  CAP13  1
    R17_14  COST  17.8089919546
    R17_14  BAL0_14  0.764628461901
    R17_14  BAL2_14  0.190526633872
    R17_14  BAL3_14  0.163157704685
    R17_14  BAL5_14  0.396377174756
    R17_14  BAL8_14  0.334036231684
    R17_14  BAL10_14  0.794109247874
    R17_14  BAL11_14  0.791610761756
    R17_14  BAL12_14  0.159918560723
    R17_14  BAL13_14  0.691029292057
    R17_14  BAL20_14  0.521111213447
    R17_14  BAL23_14  0.300251964106
    R17_14  BAL24_14  0.595814979443
    R17_14  BAL26_14  0.833674432404
    R17_14  BAL27_14  0.442178252581
    R17_14  BAL28_14  0.189446274252
    R17_14  BAL29_14  0.202773690791
    R17_14  CAP14  1
    R17_15  COST  17.8089919546
    R17_15  BAL0_15  0.764628461901
    R17_15  BAL2_15  0.190526633872
    R17_15  BAL3_15  0.163157704685
    R17_15  BAL5_15  0.396377174756
    R17_15  BAL8_15  0.334036231684
    R17_15  BAL10_15  0.794109247874
    R17_15  BAL11_15  0.791610761756
    R17_15  BAL12_15  0.159918560723
    R17_15  BAL13_15  0.691029292057
    R17_15  BAL20_15  0.521111213447
    R17_15  BAL23_15  0.300251964106
    R17_15  BAL24_15  0.595814979443
    R17_15  BAL26_15  0.833674432404
    R17_15  BAL27_15  0.442178252581
    R17_15  BAL28_15  0.189446274252
    R17_15  BAL29_15  0.202773690791
    R17_15  CAP15  1
    R17_16  COST  17.8089919546
    R17_16  BAL0_16  0.764628461901
    R17_16  BAL2_16  0.190526633872
    R17_16  BAL3_16  0.163157704685
    R17_16  BAL5_16  0.396377174756
    R17_16  BAL8_16  0.334036231684
    R17_16  BAL10_16  0.794109247874
    R17_16  BAL11_16  0.791610761756
    R17_16  BAL12_16  0.159918560723
    R17_16  BAL13_16  0.691029292057
    R17_16  BAL20_16  0.521111213447
    R17_16  BAL23_16  0.300251964106
    R17_16  BAL24_16  0.595814979443
    R17_16  BAL26_16  0.833674432404
    R17_16  BAL27_16  0.442178252581
    R17_16  BAL28_16  0.189446274252
    R17_16  BAL29_16  0.202773690791
    R17_16  CAP16  1
    R17_17  COST  17.8089919546
    R17_17  BAL0_17  0.764628461901
    R17_17  BAL2_17  0.190526633872
    R17_17  BAL3_17  0.163157704685
    R17_17  BAL5_17  0.396377174756
    R17_17  BAL8_17  0.334036231684
    R17_17  BAL10_17  0.794109247874
    R17_17  BAL11_17  0.791610761756
    R17_17  BAL12_17  0.159918560723
    R17_17  BAL13_17  0.691029292057
    R17_17  BAL20_17  0.521111213447
    R17_17  BAL23_17  0.300251964106
    R17_17  BAL24_17  0.595814979443
    R17_17  BAL26_17  0.833674432404
    R17_17  BAL27_17  0.442178252581
    R17_17  BAL28_17  0.189446274252
    R17_17  BAL29_17  0.202773690791
    R17_17  CAP17  1
    R17_18  COST  17.8089919546
    R17_18  BAL0_18  0.764628461901
    R17_18  BAL2_18  0.190526633872
    R17_18  BAL3_18  0.163157704685
    R17_18  BAL5_18  0.396377174756
    R17_18  BAL8_18  0.334036231684
    R17_18  BAL10_18  0.794109247874
    R17_18  BAL11_18  0.791610761756
    R17_18  BAL12_18  0.159918560723
    R17_18  BAL13_18  0.691029292057
    R17_18  BAL20_18  0.521111213447
    R17_18  BAL23_18  0.300251964106
    R17_18  BAL24_18  0.595814979443
    R17_18  BAL26_18  0.833674432404
    R17_18  BAL27_18  0.442178252581
    R17_18  BAL28_18  0.189446274252
    R17_18  BAL29_18  0.202773690791
    R17_18  CAP18  1
    R17_19  COST  17.8089919546
    R17_19  BAL0_19  0.764628461901
    R17_19  BAL2_19  0.190526633872
    R17_19  BAL3_19  0.163157704685
    R17_19  BAL5_19  0.396377174756
    R17_19  BAL8_19  0.334036231684
    R17_19  BAL10_19  0.794109247874
    R17_19  BAL11_19  0.791610761756
    R17_19  BAL12_19  0.159918560723
    R17_19  BAL13_19  0.691029292057
    R17_19  BAL20_19  0.521111213447
    R17_19  BAL23_19  0.300251964106
    R17_19  BAL24_19  0.595814979443
    R17_19  BAL26_19  0.833674432404
    R17_19  BAL27_19  0.442178252581
    R17_19  BAL28_19  0.189446274252
    R17_19  BAL29_19  0.202773690791
    R17_19  CAP19  1
    R17_20  COST  17.8089919546
    R17_20  BAL0_20  0.764628461901
    R17_20  BAL2_20  0.190526633872
    R17_20  BAL3_20  0.163157704685
    R17_20  BAL5_20  0.396377174756
    R17_20  BAL8_20  0.334036231684
    R17_20  BAL10_20  0.794109247874
    R17_20  BAL11_20  0.791610761756
    R17_20  BAL12_20  0.159918560723
    R17_20  BAL13_20  0.691029292057
    R17_20  BAL20_20  0.521111213447
    R17_20  BAL23_20  0.300251964106
    R17_20  BAL24_20  0.595814979443
    R17_20  BAL26_20  0.833674432404
    R17_20  BAL27_20  0.442178252581
    R17_20  BAL28_20  0.189446274252
    R17_20  BAL29_20  0.202773690791
    R17_20  CAP20  1
    R17_21  COST  17.8089919546
    R17_21  BAL0_21  0.764628461901
    R17_21  BAL2_21  0.190526633872
    R17_21  BAL3_21  0.163157704685
    R17_21  BAL5_21  0.396377174756
    R17_21  BAL8_21  0.334036231684
    R17_21  BAL10_21  0.794109247874
    R17_21  BAL11_21  0.791610761756
    R17_21  BAL12_21  0.159918560723
    R17_21  BAL13_21  0.691029292057
    R17_21  BAL20_21  0.521111213447
    R17_21  BAL23_21  0.300251964106
    R17_21  BAL24_21  0.595814979443
    R17_21  BAL26_21  0.833674432404
    R17_21  BAL27_21  0.442178252581
    R17_21  BAL28_21  0.189446274252
    R17_21  BAL29_21  0.202773690791
    R17_21  CAP21  1
    R17_22  COST  17.8089919546
    R17_22  BAL0_22  0.764628461901
    R17_22  BAL2_22  0.190526633872
    R17_22  BAL3_22  0.163157704685
    R17_22  BAL5_22  0.396377174756
    R17_22  BAL8_22  0.334036231684
    R17_22  BAL10_22  0.794109247874
    R17_22  BAL11_22  0.791610761756
    R17_22  BAL12_22  0.159918560723
    R17_22  BAL13_22  0.691029292057
    R17_22  BAL20_22  0.521111213447
    R17_22  BAL23_22  0.300251964106
    R17_22  BAL24_22  0.595814979443
    R17_22  BAL26_22  0.833674432404
    R17_22  BAL27_22  0.442178252581
    R17_22  BAL28_22  0.189446274252
    R17_22  BAL29_22  0.202773690791
    R17_22  CAP22  1
    R17_23  COST  17.8089919546
    R17_23  BAL0_23  0.764628461901
    R17_23  BAL2_23  0.190526633872
    R17_23  BAL3_23  0.163157704685
    R17_23  BAL5_23  0.396377174756
    R17_23  BAL8_23  0.334036231684
    R17_23  BAL10_23  0.794109247874
    R17_23  BAL11_23  0.791610761756
    R17_23  BAL12_23  0.159918560723
    R17_23  BAL13_23  0.691029292057
    R17_23  BAL20_23  0.521111213447
    R17_23  BAL23_23  0.300251964106
    R17_23  BAL24_23  0.595814979443
    R17_23  BAL26_23  0.833674432404
    R17_23  BAL27_23  0.442178252581
    R17_23  BAL28_23  0.189446274252
    R17_23  BAL29_23  0.202773690791
    R17_23  CAP23  1
    R17_24  COST  17.8089919546
    R17_24  BAL0_24  0.764628461901
    R17_24  BAL2_24  0.190526633872
    R17_24  BAL3_24  0.163157704685
    R17_24  BAL5_24  0.396377174756
    R17_24  BAL8_24  0.334036231684
    R17_24  BAL10_24  0.794109247874
    R17_24  BAL11_24  0.791610761756
    R17_24  BAL12_24  0.159918560723
    R17_24  BAL13_24  0.691029292057
    R17_24  BAL20_24  0.521111213447
    R17_24  BAL23_24  0.300251964106
    R17_24  BAL24_24  0.595814979443
    R17_24  BAL26_24  0.833674432404
    R17_24  BAL27_24  0.442178252581
    R17_24  BAL28_24  0.189446274252
    R17_24  BAL29_24  0.202773690791
    R17_24  CAP24  1
    R17_25  COST  17.8089919546
    R17_25  BAL0_25  0.764628461901
    R17_25  BAL2_25  0.190526633872
    R17_25  BAL3_25  0.163157704685
    R17_25  BAL5_25  0.396377174756
    R17_25  BAL8_25  0.334036231684
    R17_25  BAL10_25  0.794109247874
    R17_25  BAL11_25  0.791610761756
    R17_25  BAL12_25  0.159918560723
    R17_25  BAL13_25  0.691029292057
    R17_25  BAL20_25  0.521111213447
    R17_25  BAL23_25  0.300251964106
    R17_25  BAL24_25  0.595814979443
    R17_25  BAL26_25  0.833674432404
    R17_25  BAL27_25  0.442178252581
    R17_25  BAL28_25  0.189446274252
    R17_25  BAL29_25  0.202773690791
    R17_25  CAP25  1
    R17_26  COST  17.8089919546
    R17_26  BAL0_26  0.764628461901
    R17_26  BAL2_26  0.190526633872
    R17_26  BAL3_26  0.163157704685
    R17_26  BAL5_26  0.396377174756
    R17_26  BAL8_26  0.334036231684
    R17_26  BAL10_26  0.794109247874
    R17_26  BAL11_26  0.791610761756
    R17_26  BAL12_26  0.159918560723
    R17_26  BAL13_26  0.691029292057
    R17_26  BAL20_26  0.521111213447
    R17_26  BAL23_26  0.300251964106
    R17_26  BAL24_26  0.595814979443
    R17_26  BAL26_26  0.833674432404
    R17_26  BAL27_26  0.442178252581
    R17_26  BAL28_26  0.189446274252
    R17_26  BAL29_26  0.202773690791
    R17_26  CAP26  1
    R17_27  COST  17.8089919546
    R17_27  BAL0_27  0.764628461901
    R17_27  BAL2_27  0.190526633872
    R17_27  BAL3_27  0.163157704685
    R17_27  BAL5_27  0.396377174756
    R17_27  BAL8_27  0.334036231684
    R17_27  BAL10_27  0.794109247874
    R17_27  BAL11_27  0.791610761756
    R17_27  BAL12_27  0.159918560723
    R17_27  BAL13_27  0.691029292057
    R17_27  BAL20_27  0.521111213447
    R17_27  BAL23_27  0.300251964106
    R17_27  BAL24_27  0.595814979443
    R17_27  BAL26_27  0.833674432404
    R17_27  BAL27_27  0.442178252581
    R17_27  BAL28_27  0.189446274252
    R17_27  BAL29_27  0.202773690791
    R17_27  CAP27  1
    R17_28  COST  17.8089919546
    R17_28  BAL0_28  0.764628461901
    R17_28  BAL2_28  0.190526633872
    R17_28  BAL3_28  0.163157704685
    R17_28  BAL5_28  0.396377174756
    R17_28  BAL8_28  0.334036231684
    R17_28  BAL10_28  0.794109247874
    R17_28  BAL11_28  0.791610761756
    R17_28  BAL12_28  0.159918560723
    R17_28  BAL13_28  0.691029292057
    R17_28  BAL20_28  0.521111213447
    R17_28  BAL23_28  0.300251964106
    R17_28  BAL24_28  0.595814979443
    R17_28  BAL26_28  0.833674432404
    R17_28  BAL27_28  0.442178252581
    R17_28  BAL28_28  0.189446274252
    R17_28  BAL29_28  0.202773690791
    R17_28  CAP28  1
    R17_29  COST  17.8089919546
    R17_29  BAL0_29  0.764628461901
    R17_29  BAL2_29  0.190526633872
    R17_29  BAL3_29  0.163157704685
    R17_29  BAL5_29  0.396377174756
    R17_29  BAL8_29  0.334036231684
    R17_29  BAL10_29  0.794109247874
    R17_29  BAL11_29  0.791610761756
    R17_29  BAL12_29  0.159918560723
    R17_29  BAL13_29  0.691029292057
    R17_29  BAL20_29  0.521111213447
    R17_29  BAL23_29  0.300251964106
    R17_29  BAL24_29  0.595814979443
    R17_29  BAL26_29  0.833674432404
    R17_29  BAL27_29  0.442178252581
    R17_29  BAL28_29  0.189446274252
    R17_29  BAL29_29  0.202773690791
    R17_29  CAP29  1
    R17_30  COST  17.8089919546
    R17_30  BAL0_30  0.764628461901
    R17_30  BAL2_30  0.190526633872
    R17_30  BAL3_30  0.163157704685
    R17_30  BAL5_30  0.396377174756
    R17_30  BAL8_30  0.334036231684
    R17_30  BAL10_30  0.794109247874
    R17_30  BAL11_30  0.791610761756
    R17_30  BAL12_30  0.159918560723
    R17_30  BAL13_30  0.691029292057
    R17_30  BAL20_30  0.521111213447
    R17_30  BAL23_30  0.300251964106
    R17_30  BAL24_30  0.595814979443
    R17_30  BAL26_30  0.833674432404
    R17_30  BAL27_30  0.442178252581
    R17_30  BAL28_30  0.189446274252
    R17_30  BAL29_30  0.202773690791
    R17_30  CAP30  1
    R17_31  COST  17.8089919546
    R17_31  BAL0_31  0.764628461901
    R17_31  BAL2_31  0.190526633872
    R17_31  BAL3_31  0.163157704685
    R17_31  BAL5_31  0.396377174756
    R17_31  BAL8_31  0.334036231684
    R17_31  BAL10_31  0.794109247874
    R17_31  BAL11_31  0.791610761756
    R17_31  BAL12_31  0.159918560723
    R17_31  BAL13_31  0.691029292057
    R17_31  BAL20_31  0.521111213447
    R17_31  BAL23_31  0.300251964106
    R17_31  BAL24_31  0.595814979443
    R17_31  BAL26_31  0.833674432404
    R17_31  BAL27_31  0.442178252581
    R17_31  BAL28_31  0.189446274252
    R17_31  BAL29_31  0.202773690791
    R17_31  CAP31  1
    R17_32  COST  17.8089919546
    R17_32  BAL0_32  0.764628461901
    R17_32  BAL2_32  0.190526633872
    R17_32  BAL3_32  0.163157704685
    R17_32  BAL5_32  0.396377174756
    R17_32  BAL8_32  0.334036231684
    R17_32  BAL10_32  0.794109247874
    R17_32  BAL11_32  0.791610761756
    R17_32  BAL12_32  0.159918560723
    R17_32  BAL13_32  0.691029292057
    R17_32  BAL20_32  0.521111213447
    R17_32  BAL23_32  0.300251964106
    R17_32  BAL24_32  0.595814979443
    R17_32  BAL26_32  0.833674432404
    R17_32  BAL27_32  0.442178252581
    R17_32  BAL28_32  0.189446274252
    R17_32  BAL29_32  0.202773690791
    R17_32  CAP32  1
    R17_33  COST  17.8089919546
    R17_33  BAL0_33  0.764628461901
    R17_33  BAL2_33  0.190526633872
    R17_33  BAL3_33  0.163157704685
    R17_33  BAL5_33  0.396377174756
    R17_33  BAL8_33  0.334036231684
    R17_33  BAL10_33  0.794109247874
    R17_33  BAL11_33  0.791610761756
    R17_33  BAL12_33  0.159918560723
    R17_33  BAL13_33  0.691029292057
    R17_33  BAL20_33  0.521111213447
    R17_33  BAL23_33  0.300251964106
    R17_33  BAL24_33  0.595814979443
    R17_33  BAL26_33  0.833674432404
    R17_33  BAL27_33  0.442178252581
    R17_33  BAL28_33  0.189446274252
    R17_33  BAL29_33  0.202773690791
    R17_33  CAP33  1
    R17_34  COST  17.8089919546
    R17_34  BAL0_34  0.764628461901
    R17_34  BAL2_34  0.190526633872
    R17_34  BAL3_34  0.163157704685
    R17_34  BAL5_34  0.396377174756
    R17_34  BAL8_34  0.334036231684
    R17_34  BAL10_34  0.794109247874
    R17_34  BAL11_34  0.791610761756
    R17_34  BAL12_34  0.159918560723
    R17_34  BAL13_34  0.691029292057
    R17_34  BAL20_34  0.521111213447
    R17_34  BAL23_34  0.300251964106
    R17_34  BAL24_34  0.595814979443
    R17_34  BAL26_34  0.833674432404
    R17_34  BAL27_34  0.442178252581
    R17_34  BAL28_34  0.189446274252
    R17_34  BAL29_34  0.202773690791
    R17_34  CAP34  1
    R17_35  COST  17.8089919546
    R17_35  BAL0_35  0.764628461901
    R17_35  BAL2_35  0.190526633872
    R17_35  BAL3_35  0.163157704685
    R17_35  BAL5_35  0.396377174756
    R17_35  BAL8_35  0.334036231684
    R17_35  BAL10_35  0.794109247874
    R17_35  BAL11_35  0.791610761756
    R17_35  BAL12_35  0.159918560723
    R17_35  BAL13_35  0.691029292057
    R17_35  BAL20_35  0.521111213447
    R17_35  BAL23_35  0.300251964106
    R17_35  BAL24_35  0.595814979443
    R17_35  BAL26_35  0.833674432404
    R17_35  BAL27_35  0.442178252581
    R17_35  BAL28_35  0.189446274252
    R17_35  BAL29_35  0.202773690791
    R17_35  CAP35  1
    R18_0  COST  12.8281948042
    R18_0  BAL0_0  0.609153681857
    R18_0  BAL2_0  0.625256834905
    R18_0  BAL4_0  0.592719895599
    R18_0  BAL5_0  0.421768653926
    R18_0  BAL6_0  0.860592090496
    R18_0  BAL12_0  0.633935663135
    R18_0  BAL13_0  0.687681335266
    R18_0  BAL17_0  0.153637786397
    R18_0  BAL19_0  0.232417496196
    R18_0  BAL26_0  0.366178395954
    R18_0  BAL28_0  0.704270393705
    R18_0  BAL29_0  0.783583557783
    R18_0  CAP0  1
    R18_1  COST  12.8281948042
    R18_1  BAL0_1  0.609153681857
    R18_1  BAL2_1  0.625256834905
    R18_1  BAL4_1  0.592719895599
    R18_1  BAL5_1  0.421768653926
    R18_1  BAL6_1  0.860592090496
    R18_1  BAL12_1  0.633935663135
    R18_1  BAL13_1  0.687681335266
    R18_1  BAL17_1  0.153637786397
    R18_1  BAL19_1  0.232417496196
    R18_1  BAL26_1  0.366178395954
    R18_1  BAL28_1  0.704270393705
    R18_1  BAL29_1  0.783583557783
    R18_1  CAP1  1
    R18_2  COST  12.8281948042
    R18_2  BAL0_2  0.609153681857
    R18_2  BAL2_2  0.625256834905
    R18_2  BAL4_2  0.592719895599
    R18_2  BAL5_2  0.421768653926
    R18_2  BAL6_2  0.860592090496
    R18_2  BAL12_2  0.633935663135
    R18_2  BAL13_2  0.687681335266
    R18_2  BAL17_2  0.153637786397
    R18_2  BAL19_2  0.232417496196
    R18_2  BAL26_2  0.366178395954
    R18_2  BAL28_2  0.704270393705
    R18_2  BAL29_2  0.783583557783
    R18_2  CAP2  1
    R18_3  COST  12.8281948042
    R18_3  BAL0_3  0.609153681857
    R18_3  BAL2_3  0.625256834905
    R18_3  BAL4_3  0.592719895599
    R18_3  BAL5_3  0.421768653926
    R18_3  BAL6_3  0.860592090496
    R18_3  BAL12_3  0.633935663135
    R18_3  BAL13_3  0.687681335266
    R18_3  BAL17_3  0.153637786397
    R18_3  BAL19_3  0.232417496196
    R18_3  BAL26_3  0.366178395954
    R18_3  BAL28_3  0.704270393705
    R18_3  BAL29_3  0.783583557783
    R18_3  CAP3  1
    R18_4  COST  12.8281948042
    R18_4  BAL0_4  0.609153681857
    R18_4  BAL2_4  0.625256834905
    R18_4  BAL4_4  0.592719895599
    R18_4  BAL5_4  0.421768653926
    R18_4  BAL6_4  0.860592090496
    R18_4  BAL12_4  0.633935663135
    R18_4  BAL13_4  0.687681335266
    R18_4  BAL17_4  0.153637786397
    R18_4  BAL19_4  0.232417496196
    R18_4  BAL26_4  0.366178395954
    R18_4  BAL28_4  0.704270393705
    R18_4  BAL29_4  0.783583557783
    R18_4  CAP4  1
    R18_5  COST  12.8281948042
    R18_5  BAL0_5  0.609153681857
    R18_5  BAL2_5  0.625256834905
    R18_5  BAL4_5  0.592719895599
    R18_5  BAL5_5  0.421768653926
    R18_5  BAL6_5  0.860592090496
    R18_5  BAL12_5  0.633935663135
    R18_5  BAL13_5  0.687681335266
    R18_5  BAL17_5  0.153637786397
    R18_5  BAL19_5  0.232417496196
    R18_5  BAL26_5  0.366178395954
    R18_5  BAL28_5  0.704270393705
    R18_5  BAL29_5  0.783583557783
    R18_5  CAP5  1
    R18_6  COST  12.8281948042
    R18_6  BAL0_6  0.609153681857
    R18_6  BAL2_6  0.625256834905
    R18_6  BAL4_6  0.592719895599
    R18_6  BAL5_6  0.421768653926
    R18_6  BAL6_6  0.860592090496
    R18_6  BAL12_6  0.633935663135
    R18_6  BAL13_6  0.687681335266
    R18_6  BAL17_6  0.153637786397
    R18_6  BAL19_6  0.232417496196
    R18_6  BAL26_6  0.366178395954
    R18_6  BAL28_6  0.704270393705
    R18_6  BAL29_6  0.783583557783
    R18_6  CAP6  1
    R18_7  COST  12.8281948042
    R18_7  BAL0_7  0.609153681857
    R18_7  BAL2_7  0.625256834905
    R18_7  BAL4_7  0.592719895599
    R18_7  BAL5_7  0.421768653926
    R18_7  BAL6_7  0.860592090496
    R18_7  BAL12_7  0.633935663135
    R18_7  BAL13_7  0.687681335266
    R18_7  BAL17_7  0.153637786397
    R18_7  BAL19_7  0.232417496196
    R18_7  BAL26_7  0.366178395954
    R18_7  BAL28_7  0.704270393705
    R18_7  BAL29_7  0.783583557783
    R18_7  CAP7  1
    R18_8  COST  12.8281948042
    R18_8  BAL0_8  0.609153681857
    R18_8  BAL2_8  0.625256834905
    R18_8  BAL4_8  0.592719895599
    R18_8  BAL5_8  0.421768653926
    R18_8  BAL6_8  0.860592090496
    R18_8  BAL12_8  0.633935663135
    R18_8  BAL13_8  0.687681335266
    R18_8  BAL17_8  0.153637786397
    R18_8  BAL19_8  0.232417496196
    R18_8  BAL26_8  0.366178395954
    R18_8  BAL28_8  0.704270393705
    R18_8  BAL29_8  0.783583557783
    R18_8  CAP8  1
    R18_9  COST  12.8281948042
    R18_9  BAL0_9  0.609153681857
    R18_9  BAL2_9  0.625256834905
    R18_9  BAL4_9  0.592719895599
    R18_9  BAL5_9  0.421768653926
    R18_9  BAL6_9  0.860592090496
    R18_9  BAL12_9  0.633935663135
    R18_9  BAL13_9  0.687681335266
    R18_9  BAL17_9  0.153637786397
    R18_9  BAL19_9  0.232417496196
    R18_9  BAL26_9  0.366178395954
    R18_9  BAL28_9  0.704270393705
    R18_9  BAL29_9  0.783583557783
    R18_9  CAP9  1
    R18_10  COST  12.8281948042
    R18_10  BAL0_10  0.609153681857
    R18_10  BAL2_10  0.625256834905
    R18_10  BAL4_10  0.592719895599
    R18_10  BAL5_10  0.421768653926
    R18_10  BAL6_10  0.860592090496
    R18_10  BAL12_10  0.633935663135
    R18_10  BAL13_10  0.687681335266
    R18_10  BAL17_10  0.153637786397
    R18_10  BAL19_10  0.232417496196
    R18_10  BAL26_10  0.366178395954
    R18_10  BAL28_10  0.704270393705
    R18_10  BAL29_10  0.783583557783
    R18_10  CAP10  1
    R18_11  COST  12.8281948042
    R18_11  BAL0_11  0.609153681857
    R18_11  BAL2_11  0.625256834905
    R18_11  BAL4_11  0.592719895599
    R18_11  BAL5_11  0.421768653926
    R18_11  BAL6_11  0.860592090496
    R18_11  BAL12_11  0.633935663135
    R18_11  BAL13_11  0.687681335266
    R18_11  BAL17_11  0.153637786397
    R18_11  BAL19_11  0.232417496196
    R18_11  BAL26_11  0.366178395954
    R18_11  BAL28_11  0.704270393705
    R18_11  BAL29_11  0.783583557783
    R18_11  CAP11  1
    R18_12  COST  12.8281948042
    R18_12  BAL0_12  0.609153681857
    R18_12  BAL2_12  0.625256834905
    R18_12  BAL4_12  0.592719895599
    R18_12  BAL5_12  0.421768653926
    R18_12  BAL6_12  0.860592090496
    R18_12  BAL12_12  0.633935663135
    R18_12  BAL13_12  0.687681335266
    R18_12  BAL17_12  0.153637786397
    R18_12  BAL19_12  0.232417496196
    R18_12  BAL26_12  0.366178395954
    R18_12  BAL28_12  0.704270393705
    R18_12  BAL29_12  0.783583557783
    R18_12  CAP12  1
    R18_13  COST  12.8281948042
    R18_13  BAL0_13  0.609153681857
    R18_13  BAL2_13  0.625256834905
    R18_13  BAL4_13  0.592719895599
    R18_13  BAL5_13  0.421768653926
    R18_13  BAL6_13  0.860592090496
    R18_13  BAL12_13  0.633935663135
    R18_13  BAL13_13  0.687681335266
    R18_13  BAL17_13  0.153637786397
    R18_13  BAL19_13  0.232417496196
    R18_13  BAL26_13  0.366178395954
    R18_13  BAL28_13  0.704270393705
    R18_13  BAL29_13  0.783583557783
    R18_13  CAP13  1
    R18_14  COST  12.8281948042
    R18_14  BAL0_14  0.609153681857
    R18_14  BAL2_14  0.625256834905
    R18_14  BAL4_14  0.592719895599
    R18_14  BAL5_14  0.421768653926
    R18_14  BAL6_14  0.860592090496
    R18_14  BAL12_14  0.633935663135
    R18_14  BAL13_14  0.687681335266
    R18_14  BAL17_14  0.153637786397
    R18_14  BAL19_14  0.232417496196
    R18_14  BAL26_14  0.366178395954
    R18_14  BAL28_14  0.704270393705
    R18_14  BAL29_14  0.783583557783
    R18_14  CAP14  1
    R18_15  COST  12.8281948042
    R18_15  BAL0_15  0.609153681857
    R18_15  BAL2_15  0.625256834905
    R18_15  BAL4_15  0.592719895599
    R18_15  BAL5_15  0.421768653926
    R18_15  BAL6_15  0.860592090496
    R18_15  BAL12_15  0.633935663135
    R18_15  BAL13_15  0.687681335266
    R18_15  BAL17_15  0.153637786397
    R18_15  BAL19_15  0.232417496196
    R18_15  BAL26_15  0.366178395954
    R18_15  BAL28_15  0.704270393705
    R18_15  BAL29_15  0.783583557783
    R18_15  CAP15  1
    R18_16  COST  12.8281948042
    R18_16  BAL0_16  0.609153681857
    R18_16  BAL2_16  0.625256834905
    R18_16  BAL4_16  0.592719895599
    R18_16  BAL5_16  0.421768653926
    R18_16  BAL6_16  0.860592090496
    R18_16  BAL12_16  0.633935663135
    R18_16  BAL13_16  0.687681335266
    R18_16  BAL17_16  0.153637786397
    R18_16  BAL19_16  0.232417496196
    R18_16  BAL26_16  0.366178395954
    R18_16  BAL28_16  0.704270393705
    R18_16  BAL29_16  0.783583557783
    R18_16  CAP16  1
    R18_17  COST  12.8281948042
    R18_17  BAL0_17  0.609153681857
    R18_17  BAL2_17  0.625256834905
    R18_17  BAL4_17  0.592719895599
    R18_17  BAL5_17  0.421768653926
    R18_17  BAL6_17  0.860592090496
    R18_17  BAL12_17  0.633935663135
    R18_17  BAL13_17  0.687681335266
    R18_17  BAL17_17  0.153637786397
    R18_17  BAL19_17  0.232417496196
    R18_17  BAL26_17  0.366178395954
    R18_17  BAL28_17  0.704270393705
    R18_17  BAL29_17  0.783583557783
    R18_17  CAP17  1
    R18_18  COST  12.8281948042
    R18_18  BAL0_18  0.609153681857
    R18_18  BAL2_18  0.625256834905
    R18_18  BAL4_18  0.592719895599
    R18_18  BAL5_18  0.421768653926
    R18_18  BAL6_18  0.860592090496
    R18_18  BAL12_18  0.633935663135
    R18_18  BAL13_18  0.687681335266
    R18_18  BAL17_18  0.153637786397
    R18_18  BAL19_18  0.232417496196
    R18_18  BAL26_18  0.366178395954
    R18_18  BAL28_18  0.704270393705
    R18_18  BAL29_18  0.783583557783
    R18_18  CAP18  1
    R18_19  COST  12.8281948042
    R18_19  BAL0_19  0.609153681857
    R18_19  BAL2_19  0.625256834905
    R18_19  BAL4_19  0.592719895599
    R18_19  BAL5_19  0.421768653926
    R18_19  BAL6_19  0.860592090496
    R18_19  BAL12_19  0.633935663135
    R18_19  BAL13_19  0.687681335266
    R18_19  BAL17_19  0.153637786397
    R18_19  BAL19_19  0.232417496196
    R18_19  BAL26_19  0.366178395954
    R18_19  BAL28_19  0.704270393705
    R18_19  BAL29_19  0.783583557783
    R18_19  CAP19  1
    R18_20  COST  12.8281948042
    R18_20  BAL0_20  0.609153681857
    R18_20  BAL2_20  0.625256834905
    R18_20  BAL4_20  0.592719895599
    R18_20  BAL5_20  0.421768653926
    R18_20  BAL6_20  0.860592090496
    R18_20  BAL12_20  0.633935663135
    R18_20  BAL13_20  0.687681335266
    R18_20  BAL17_20  0.153637786397
    R18_20  BAL19_20  0.232417496196
    R18_20  BAL26_20  0.366178395954
    R18_20  BAL28_20  0.704270393705
    R18_20  BAL29_20  0.783583557783
    R18_20  CAP20  1
    R18_21  COST  12.8281948042
    R18_21  BAL0_21  0.609153681857
    R18_21  BAL2_21  0.625256834905
    R18_21  BAL4_21  0.592719895599
    R18_21  BAL5_21  0.421768653926
    R18_21  BAL6_21  0.860592090496
    R18_21  BAL12_21  0.633935663135
    R18_21  BAL13_21  0.687681335266
    R18_21  BAL17_21  0.153637786397
    R18_21  BAL19_21  0.232417496196
    R18_21  BAL26_21  0.366178395954
    R18_21  BAL28_21  0.704270393705
    R18_21  BAL29_21  0.783583557783
    R18_21  CAP21  1
    R18_22  COST  12.8281948042
    R18_22  BAL0_22  0.609153681857
    R18_22  BAL2_22  0.625256834905
    R18_22  BAL4_22  0.592719895599
    R18_22  BAL5_22  0.421768653926
    R18_22  BAL6_22  0.860592090496
    R18_22  BAL12_22  0.633935663135
    R18_22  BAL13_22  0.687681335266
    R18_22  BAL17_22  0.153637786397
    R18_22  BAL19_22  0.232417496196
    R18_22  BAL26_22  0.366178395954
    R18_22  BAL28_22  0.704270393705
    R18_22  BAL29_22  0.783583557783
    R18_22  CAP22  1
    R18_23  COST  12.8281948042
    R18_23  BAL0_23  0.609153681857
    R18_23  BAL2_23  0.625256834905
    R18_23  BAL4_23  0.592719895599
    R18_23  BAL5_23  0.421768653926
    R18_23  BAL6_23  0.860592090496
    R18_23  BAL12_23  0.633935663135
    R18_23  BAL13_23  0.687681335266
    R18_23  BAL17_23  0.153637786397
    R18_23  BAL19_23  0.232417496196
    R18_23  BAL26_23  0.366178395954
    R18_23  BAL28_23  0.704270393705
    R18_23  BAL29_23  0.783583557783
    R18_23  CAP23  1
    R18_24  COST  12.8281948042
    R18_24  BAL0_24  0.609153681857
    R18_24  BAL2_24  0.625256834905
    R18_24  BAL4_24  0.592719895599
    R18_24  BAL5_24  0.421768653926
    R18_24  BAL6_24  0.860592090496
    R18_24  BAL12_24  0.633935663135
    R18_24  BAL13_24  0.687681335266
    R18_24  BAL17_24  0.153637786397
    R18_24  BAL19_24  0.232417496196
    R18_24  BAL26_24  0.366178395954
    R18_24  BAL28_24  0.704270393705
    R18_24  BAL29_24  0.783583557783
    R18_24  CAP24  1
    R18_25  COST  12.8281948042
    R18_25  BAL0_25  0.609153681857
    R18_25  BAL2_25  0.625256834905
    R18_25  BAL4_25  0.592719895599
    R18_25  BAL5_25  0.421768653926
    R18_25  BAL6_25  0.860592090496
    R18_25  BAL12_25  0.633935663135
    R18_25  BAL13_25  0.687681335266
    R18_25  BAL17_25  0.153637786397
    R18_25  BAL19_25  0.232417496196
    R18_25  BAL26_25  0.366178395954
    R18_25  BAL28_25  0.704270393705
    R18_25  BAL29_25  0.783583557783
    R18_25  CAP25  1
    R18_26  COST  12.8281948042
    R18_26  BAL0_26  0.609153681857
    R18_26  BAL2_26  0.625256834905
    R18_26  BAL4_26  0.592719895599
    R18_26  BAL5_26  0.421768653926
    R18_26  BAL6_26  0.860592090496
    R18_26  BAL12_26  0.633935663135
    R18_26  BAL13_26  0.687681335266
    R18_26  BAL17_26  0.153637786397
    R18_26  BAL19_26  0.232417496196
    R18_26  BAL26_26  0.366178395954
    R18_26  BAL28_26  0.704270393705
    R18_26  BAL29_26  0.783583557783
    R18_26  CAP26  1
    R18_27  COST  12.8281948042
    R18_27  BAL0_27  0.609153681857
    R18_27  BAL2_27  0.625256834905
    R18_27  BAL4_27  0.592719895599
    R18_27  BAL5_27  0.421768653926
    R18_27  BAL6_27  0.860592090496
    R18_27  BAL12_27  0.633935663135
    R18_27  BAL13_27  0.687681335266
    R18_27  BAL17_27  0.153637786397
    R18_27  BAL19_27  0.232417496196
    R18_27  BAL26_27  0.366178395954
    R18_27  BAL28_27  0.704270393705
    R18_27  BAL29_27  0.783583557783
    R18_27  CAP27  1
    R18_28  COST  12.8281948042
    R18_28  BAL0_28  0.609153681857
    R18_28  BAL2_28  0.625256834905
    R18_28  BAL4_28  0.592719895599
    R18_28  BAL5_28  0.421768653926
    R18_28  BAL6_28  0.860592090496
    R18_28  BAL12_28  0.633935663135
    R18_28  BAL13_28  0.687681335266
    R18_28  BAL17_28  0.153637786397
    R18_28  BAL19_28  0.232417496196
    R18_28  BAL26_28  0.366178395954
    R18_28  BAL28_28  0.704270393705
    R18_28  BAL29_28  0.783583557783
    R18_28  CAP28  1
    R18_29  COST  12.8281948042
    R18_29  BAL0_29  0.609153681857
    R18_29  BAL2_29  0.625256834905
    R18_29  BAL4_29  0.592719895599
    R18_29  BAL5_29  0.421768653926
    R18_29  BAL6_29  0.860592090496
    R18_29  BAL12_29  0.633935663135
    R18_29  BAL13_29  0.687681335266
    R18_29  BAL17_29  0.153637786397
    R18_29  BAL19_29  0.232417496196
    R18_29  BAL26_29  0.366178395954
    R18_29  BAL28_29  0.704270393705
    R18_29  BAL29_29  0.783583557783
    R18_29  CAP29  1
    R18_30  COST  12.8281948042
    R18_30  BAL0_30  0.609153681857
    R18_30  BAL2_30  0.625256834905
    R18_30  BAL4_30  0.592719895599
    R18_30  BAL5_30  0.421768653926
    R18_30  BAL6_30  0.860592090496
    R18_30  BAL12_30  0.633935663135
    R18_30  BAL13_30  0.687681335266
    R18_30  BAL17_30  0.153637786397
    R18_30  BAL19_30  0.232417496196
    R18_30  BAL26_30  0.366178395954
    R18_30  BAL28_30  0.704270393705
    R18_30  BAL29_30  0.783583557783
    R18_30  CAP30  1
    R18_31  COST  12.8281948042
    R18_31  BAL0_31  0.609153681857
    R18_31  BAL2_31  0.625256834905
    R18_31  BAL4_31  0.592719895599
    R18_31  BAL5_31  0.421768653926
    R18_31  BAL6_31  0.860592090496
    R18_31  BAL12_31  0.633935663135
    R18_31  BAL13_31  0.687681335266
    R18_31  BAL17_31  0.153637786397
    R18_31  BAL19_31  0.232417496196
    R18_31  BAL26_31  0.366178395954
    R18_31  BAL28_31  0.704270393705
    R18_31  BAL29_31  0.783583557783
    R18_31  CAP31  1
    R18_32  COST  12.8281948042
    R18_32  BAL0_32  0.609153681857
    R18_32  BAL2_32  0.625256834905
    R18_32  BAL4_32  0.592719895599
    R18_32  BAL5_32  0.421768653926
    R18_32  BAL6_32  0.860592090496
    R18_32  BAL12_32  0.633935663135
    R18_32  BAL13_32  0.687681335266
    R18_32  BAL17_32  0.153637786397
    R18_32  BAL19_32  0.232417496196
    R18_32  BAL26_32  0.366178395954
    R18_32  BAL28_32  0.704270393705
    R18_32  BAL29_32  0.783583557783
    R18_32  CAP32  1
    R18_33  COST  12.8281948042
    R18_33  BAL0_33  0.609153681857
    R18_33  BAL2_33  0.625256834905
    R18_33  BAL4_33  0.592719895599
    R18_33  BAL5_33  0.421768653926
    R18_33  BAL6_33  0.860592090496
    R18_33  BAL12_33  0.633935663135
    R18_33  BAL13_33  0.687681335266
    R18_33  BAL17_33  0.153637786397
    R18_33  BAL19_33  0.232417496196
    R18_33  BAL26_33  0.366178395954
    R18_33  BAL28_33  0.704270393705
    R18_33  BAL29_33  0.783583557783
    R18_33  CAP33  1
    R18_34  COST  12.8281948042
    R18_34  BAL0_34  0.609153681857
    R18_34  BAL2_34  0.625256834905
    R18_34  BAL4_34  0.592719895599
    R18_34  BAL5_34  0.421768653926
    R18_34  BAL6_34  0.860592090496
    R18_34  BAL12_34  0.633935663135
    R18_34  BAL13_34  0.687681335266
    R18_34  BAL17_34  0.153637786397
    R18_34  BAL19_34  0.232417496196
    R18_34  BAL26_34  0.366178395954
    R18_34  BAL28_34  0.704270393705
    R18_34  BAL29_34  0.783583557783
    R18_34  CAP34  1
    R18_35  COST  12.8281948042
    R18_35  BAL0_35  0.609153681857
    R18_35  BAL2_35  0.625256834905
    R18_35  BAL4_35  0.592719895599
    R18_35  BAL5_35  0.421768653926
    R18_35  BAL6_35  0.860592090496
    R18_35  BAL12_35  0.633935663135
    R18_35  BAL13_35  0.687681335266
    R18_35  BAL17_35  0.153637786397
    R18_35  BAL19_35  0.232417496196
    R18_35  BAL26_35  0.366178395954
    R18_35  BAL28_35  0.704270393705
    R18_35  BAL29_35  0.783583557783
    R18_35  CAP35  1
    R19_0  COST  17.1427562084
    R19_0  BAL0_0  0.353158735348
    R19_0  BAL6_0  0.651324954585
    R19_0  BAL9_0  0.42905721462
    R19_0  BAL10_0  0.841370468035
    R19_0  BAL12_0  0.590519377848
    R19_0  BAL13_0  0.899437946118
    R19_0  BAL14_0  0.930612731482
    R19_0  BAL18_0  0.941006627654
    R19_0  BAL20_0  0.592392085646
    R19_0  BAL22_0  0.407470583198
    R19_0  BAL25_0  0.33141217969
    R19_0  BAL26_0  0.791355681629
    R19_0  CAP0  1
    R19_1  COST  17.1427562084
    R19_1  BAL0_1  0.353158735348
    R19_1  BAL6_1  0.651324954585
    R19_1  BAL9_1  0.42905721462
    R19_1  BAL10_1  0.841370468035
    R19_1  BAL12_1  0.590519377848
    R19_1  BAL13_1  0.899437946118
    R19_1  BAL14_1  0.930612731482
    R19_1  BAL18_1  0.941006627654
    R19_1  BAL20_1  0.592392085646
    R19_1  BAL22_1  0.407470583198
    R19_1  BAL25_1  0.33141217969
    R19_1  BAL26_1  0.791355681629
    R19_1  CAP1  1
    R19_2  COST  17.1427562084
    R19_2  BAL0_2  0.353158735348
    R19_2  BAL6_2  0.651324954585
    R19_2  BAL9_2  0.42905721462
    R19_2  BAL10_2  0.841370468035
    R19_2  BAL12_2  0.590519377848
    R19_2  BAL13_2  0.899437946118
    R19_2  BAL14_2  0.930612731482
    R19_2  BAL18_2  0.941006627654
    R19_2  BAL20_2  0.592392085646
    R19_2  BAL22_2  0.407470583198
    R19_2  BAL25_2  0.33141217969
    R19_2  BAL26_2  0.791355681629
    R19_2  CAP2  1
    R19_3  COST  17.1427562084
    R19_3  BAL0_3  0.353158735348
    R19_3  BAL6_3  0.651324954585
    R19_3  BAL9_3  0.42905721462
    R19_3  BAL10_3  0.841370468035
    R19_3  BAL12_3  0.590519377848
    R19_3  BAL13_3  0.899437946118
    R19_3  BAL14_3  0.930612731482
    R19_3  BAL18_3  0.941006627654
    R19_3  BAL20_3  0.592392085646
    R19_3  BAL22_3  0.407470583198
    R19_3  BAL25_3  0.33141217969
    R19_3  BAL26_3  0.791355681629
    R19_3  CAP3  1
    R19_4  COST  17.1427562084
    R19_4  BAL0_4  0.353158735348
    R19_4  BAL6_4  0.651324954585
    R19_4  BAL9_4  0.42905721462
    R19_4  BAL10_4  0.841370468035
    R19_4  BAL12_4  0.590519377848
    R19_4  BAL13_4  0.899437946118
    R19_4  BAL14_4  0.930612731482
    R19_4  BAL18_4  0.941006627654
    R19_4  BAL20_4  0.592392085646
    R19_4  BAL22_4  0.407470583198
    R19_4  BAL25_4  0.33141217969
    R19_4  BAL26_4  0.791355681629
    R19_4  CAP4  1
    R19_5  COST  17.1427562084
    R19_5  BAL0_5  0.353158735348
    R19_5  BAL6_5  0.651324954585
    R19_5  BAL9_5  0.42905721462
    R19_5  BAL10_5  0.841370468035
    R19_5  BAL12_5  0.590519377848
    R19_5  BAL13_5  0.899437946118
    R19_5  BAL14_5  0.930612731482
    R19_5  BAL18_5  0.941006627654
    R19_5  BAL20_5  0.592392085646
    R19_5  BAL22_5  0.407470583198
    R19_5  BAL25_5  0.33141217969
    R19_5  BAL26_5  0.791355681629
    R19_5  CAP5  1
    R19_6  COST  17.1427562084
    R19_6  BAL0_6  0.353158735348
    R19_6  BAL6_6  0.651324954585
    R19_6  BAL9_6  0.42905721462
    R19_6  BAL10_6  0.841370468035
    R19_6  BAL12_6  0.590519377848
    R19_6  BAL13_6  0.899437946118
    R19_6  BAL14_6  0.930612731482
    R19_6  BAL18_6  0.941006627654
    R19_6  BAL20_6  0.592392085646
    R19_6  BAL22_6  0.407470583198
    R19_6  BAL25_6  0.33141217969
    R19_6  BAL26_6  0.791355681629
    R19_6  CAP6  1
    R19_7  COST  17.1427562084
    R19_7  BAL0_7  0.353158735348
    R19_7  BAL6_7  0.651324954585
    R19_7  BAL9_7  0.42905721462
    R19_7  BAL10_7  0.841370468035
    R19_7  BAL12_7  0.590519377848
    R19_7  BAL13_7  0.899437946118
    R19_7  BAL14_7  0.930612731482
    R19_7  BAL18_7  0.941006627654
    R19_7  BAL20_7  0.592392085646
    R19_7  BAL22_7  0.407470583198
    R19_7  BAL25_7  0.33141217969
    R19_7  BAL26_7  0.791355681629
    R19_7  CAP7  1
    R19_8  COST  17.1427562084
    R19_8  BAL0_8  0.353158735348
    R19_8  BAL6_8  0.651324954585
    R19_8  BAL9_8  0.42905721462
    R19_8  BAL10_8  0.841370468035
    R19_8  BAL12_8  0.590519377848
    R19_8  BAL13_8  0.899437946118
    R19_8  BAL14_8  0.930612731482
    R19_8  BAL18_8  0.941006627654
    R19_8  BAL20_8  0.592392085646
    R19_8  BAL22_8  0.407470583198
    R19_8  BAL25_8  0.33141217969
    R19_8  BAL26_8  0.791355681629
    R19_8  CAP8  1
    R19_9  COST  17.1427562084
    R19_9  BAL0_9  0.353158735348
    R19_9  BAL6_9  0.651324954585
    R19_9  BAL9_9  0.42905721462
    R19_9  BAL10_9  0.841370468035
    R19_9  BAL12_9  0.590519377848
    R19_9  BAL13_9  0.899437946118
    R19_9  BAL14_9  0.930612731482
    R19_9  BAL18_9  0.941006627654
    R19_9  BAL20_9  0.592392085646
    R19_9  BAL22_9  0.407470583198
    R19_9  BAL25_9  0.33141217969
    R19_9  BAL26_9  0.791355681629
    R19_9  CAP9  1
    R19_10  COST  17.1427562084
    R19_10  BAL0_10  0.353158735348
    R19_10  BAL6_10  0.651324954585
    R19_10  BAL9_10  0.42905721462
    R19_10  BAL10_10  0.841370468035
    R19_10  BAL12_10  0.590519377848
    R19_10  BAL13_10  0.899437946118
    R19_10  BAL14_10  0.930612731482
    R19_10  BAL18_10  0.941006627654
    R19_10  BAL20_10  0.592392085646
    R19_10  BAL22_10  0.407470583198
    R19_10  BAL25_10  0.33141217969
    R19_10  BAL26_10  0.791355681629
    R19_10  CAP10  1
    R19_11  COST  17.1427562084
    R19_11  BAL0_11  0.353158735348
    R19_11  BAL6_11  0.651324954585
    R19_11  BAL9_11  0.42905721462
    R19_11  BAL10_11  0.841370468035
    R19_11  BAL12_11  0.590519377848
    R19_11  BAL13_11  0.899437946118
    R19_11  BAL14_11  0.930612731482
    R19_11  BAL18_11  0.941006627654
    R19_11  BAL20_11  0.592392085646
    R19_11  BAL22_11  0.407470583198
    R19_11  BAL25_11  0.33141217969
    R19_11  BAL26_11  0.791355681629
    R19_11  CAP11  1
    R19_12  COST  17.1427562084
    R19_12  BAL0_12  0.353158735348
    R19_12  BAL6_12  0.651324954585
    R19_12  BAL9_12  0.42905721462
    R19_12  BAL10_12  0.841370468035
    R19_12  BAL12_12  0.590519377848
    R19_12  BAL13_12  0.899437946118
    R19_12  BAL14_12  0.930612731482
    R19_12  BAL18_12  0.941006627654
    R19_12  BAL20_12  0.592392085646
    R19_12  BAL22_12  0.407470583198
    R19_12  BAL25_12  0.33141217969
    R19_12  BAL26_12  0.791355681629
    R19_12  CAP12  1
    R19_13  COST  17.1427562084
    R19_13  BAL0_13  0.353158735348
    R19_13  BAL6_13  0.651324954585
    R19_13  BAL9_13  0.42905721462
    R19_13  BAL10_13  0.841370468035
    R19_13  BAL12_13  0.590519377848
    R19_13  BAL13_13  0.899437946118
    R19_13  BAL14_13  0.930612731482
    R19_13  BAL18_13  0.941006627654
    R19_13  BAL20_13  0.592392085646
    R19_13  BAL22_13  0.407470583198
    R19_13  BAL25_13  0.33141217969
    R19_13  BAL26_13  0.791355681629
    R19_13  CAP13  1
    R19_14  COST  17.1427562084
    R19_14  BAL0_14  0.353158735348
    R19_14  BAL6_14  0.651324954585
    R19_14  BAL9_14  0.42905721462
    R19_14  BAL10_14  0.841370468035
    R19_14  BAL12_14  0.590519377848
    R19_14  BAL13_14  0.899437946118
    R19_14  BAL14_14  0.930612731482
    R19_14  BAL18_14  0.941006627654
    R19_14  BAL20_14  0.592392085646
    R19_14  BAL22_14  0.407470583198
    R19_14  BAL25_14  0.33141217969
    R19_14  BAL26_14  0.791355681629
    R19_14  CAP14  1
    R19_15  COST  17.1427562084
    R19_15  BAL0_15  0.353158735348
    R19_15  BAL6_15  0.651324954585
    R19_15  BAL9_15  0.42905721462
    R19_15  BAL10_15  0.841370468035
    R19_15  BAL12_15  0.590519377848
    R19_15  BAL13_15  0.899437946118
    R19_15  BAL14_15  0.930612731482
    R19_15  BAL18_15  0.941006627654
    R19_15  BAL20_15  0.592392085646
    R19_15  BAL22_15  0.407470583198
    R19_15  BAL25_15  0.33141217969
    R19_15  BAL26_15  0.791355681629
    R19_15  CAP15  1
    R19_16  COST  17.1427562084
    R19_16  BAL0_16  0.353158735348
    R19_16  BAL6_16  0.651324954585
    R19_16  BAL9_16  0.42905721462
    R19_16  BAL10_16  0.841370468035
    R19_16  BAL12_16  0.590519377848
    R19_16  BAL13_16  0.899437946118
    R19_16  BAL14_16  0.930612731482
    R19_16  BAL18_16  0.941006627654
    R19_16  BAL20_16  0.592392085646
    R19_16  BAL22_16  0.407470583198
    R19_16  BAL25_16  0.33141217969
    R19_16  BAL26_16  0.791355681629
    R19_16  CAP16  1
    R19_17  COST  17.1427562084
    R19_17  BAL0_17  0.353158735348
    R19_17  BAL6_17  0.651324954585
    R19_17  BAL9_17  0.42905721462
    R19_17  BAL10_17  0.841370468035
    R19_17  BAL12_17  0.590519377848
    R19_17  BAL13_17  0.899437946118
    R19_17  BAL14_17  0.930612731482
    R19_17  BAL18_17  0.941006627654
    R19_17  BAL20_17  0.592392085646
    R19_17  BAL22_17  0.407470583198
    R19_17  BAL25_17  0.33141217969
    R19_17  BAL26_17  0.791355681629
    R19_17  CAP17  1
    R19_18  COST  17.1427562084
    R19_18  BAL0_18  0.353158735348
    R19_18  BAL6_18  0.651324954585
    R19_18  BAL9_18  0.42905721462
    R19_18  BAL10_18  0.841370468035
    R19_18  BAL12_18  0.590519377848
    R19_18  BAL13_18  0.899437946118
    R19_18  BAL14_18  0.930612731482
    R19_18  BAL18_18  0.941006627654
    R19_18  BAL20_18  0.592392085646
    R19_18  BAL22_18  0.407470583198
    R19_18  BAL25_18  0.33141217969
    R19_18  BAL26_18  0.791355681629
    R19_18  CAP18  1
    R19_19  COST  17.1427562084
    R19_19  BAL0_19  0.353158735348
    R19_19  BAL6_19  0.651324954585
    R19_19  BAL9_19  0.42905721462
    R19_19  BAL10_19  0.841370468035
    R19_19  BAL12_19  0.590519377848
    R19_19  BAL13_19  0.899437946118
    R19_19  BAL14_19  0.930612731482
    R19_19  BAL18_19  0.941006627654
    R19_19  BAL20_19  0.592392085646
    R19_19  BAL22_19  0.407470583198
    R19_19  BAL25_19  0.33141217969
    R19_19  BAL26_19  0.791355681629
    R19_19  CAP19  1
    R19_20  COST  17.1427562084
    R19_20  BAL0_20  0.353158735348
    R19_20  BAL6_20  0.651324954585
    R19_20  BAL9_20  0.42905721462
    R19_20  BAL10_20  0.841370468035
    R19_20  BAL12_20  0.590519377848
    R19_20  BAL13_20  0.899437946118
    R19_20  BAL14_20  0.930612731482
    R19_20  BAL18_20  0.941006627654
    R19_20  BAL20_20  0.592392085646
    R19_20  BAL22_20  0.407470583198
    R19_20  BAL25_20  0.33141217969
    R19_20  BAL26_20  0.791355681629
    R19_20  CAP20  1
    R19_21  COST  17.1427562084
    R19_21  BAL0_21  0.353158735348
    R19_21  BAL6_21  0.651324954585
    R19_21  BAL9_21  0.42905721462
    R19_21  BAL10_21  0.841370468035
    R19_21  BAL12_21  0.590519377848
    R19_21  BAL13_21  0.899437946118
    R19_21  BAL14_21  0.930612731482
    R19_21  BAL18_21  0.941006627654
    R19_21  BAL20_21  0.592392085646
    R19_21  BAL22_21  0.407470583198
    R19_21  BAL25_21  0.33141217969
    R19_21  BAL26_21  0.791355681629
    R19_21  CAP21  1
    R19_22  COST  17.1427562084
    R19_22  BAL0_22  0.353158735348
    R19_22  BAL6_22  0.651324954585
    R19_22  BAL9_22  0.42905721462
    R19_22  BAL10_22  0.841370468035
    R19_22  BAL12_22  0.590519377848
    R19_22  BAL13_22  0.899437946118
    R19_22  BAL14_22  0.930612731482
    R19_22  BAL18_22  0.941006627654
    R19_22  BAL20_22  0.592392085646
    R19_22  BAL22_22  0.407470583198
    R19_22  BAL25_22  0.33141217969
    R19_22  BAL26_22  0.791355681629
    R19_22  CAP22  1
    R19_23  COST  17.1427562084
    R19_23  BAL0_23  0.353158735348
    R19_23  BAL6_23  0.651324954585
    R19_23  BAL9_23  0.42905721462
    R19_23  BAL10_23  0.841370468035
    R19_23  BAL12_23  0.590519377848
    R19_23  BAL13_23  0.899437946118
    R19_23  BAL14_23  0.930612731482
    R19_23  BAL18_23  0.941006627654
    R19_23  BAL20_23  0.592392085646
    R19_23  BAL22_23  0.407470583198
    R19_23  BAL25_23  0.33141217969
    R19_23  BAL26_23  0.791355681629
    R19_23  CAP23  1
    R19_24  COST  17.1427562084
    R19_24  BAL0_24  0.353158735348
    R19_24  BAL6_24  0.651324954585
    R19_24  BAL9_24  0.42905721462
    R19_24  BAL10_24  0.841370468035
    R19_24  BAL12_24  0.590519377848
    R19_24  BAL13_24  0.899437946118
    R19_24  BAL14_24  0.930612731482
    R19_24  BAL18_24  0.941006627654
    R19_24  BAL20_24  0.592392085646
    R19_24  BAL22_24  0.407470583198
    R19_24  BAL25_24  0.33141217969
    R19_24  BAL26_24  0.791355681629
    R19_24  CAP24  1
    R19_25  COST  17.1427562084
    R19_25  BAL0_25  0.353158735348
    R19_25  BAL6_25  0.651324954585
    R19_25  BAL9_25  0.42905721462
    R19_25  BAL10_25  0.841370468035
    R19_25  BAL12_25  0.590519377848
    R19_25  BAL13_25  0.899437946118
    R19_25  BAL14_25  0.930612731482
    R19_25  BAL18_25  0.941006627654
    R19_25  BAL20_25  0.592392085646
    R19_25  BAL22_25  0.407470583198
    R19_25  BAL25_25  0.33141217969
    R19_25  BAL26_25  0.791355681629
    R19_25  CAP25  1
    R19_26  COST  17.1427562084
    R19_26  BAL0_26  0.353158735348
    R19_26  BAL6_26  0.651324954585
    R19_26  BAL9_26  0.42905721462
    R19_26  BAL10_26  0.841370468035
    R19_26  BAL12_26  0.590519377848
    R19_26  BAL13_26  0.899437946118
    R19_26  BAL14_26  0.930612731482
    R19_26  BAL18_26  0.941006627654
    R19_26  BAL20_26  0.592392085646
    R19_26  BAL22_26  0.407470583198
    R19_26  BAL25_26  0.33141217969
    R19_26  BAL26_26  0.791355681629
    R19_26  CAP26  1
    R19_27  COST  17.1427562084
    R19_27  BAL0_27  0.353158735348
    R19_27  BAL6_27  0.651324954585
    R19_27  BAL9_27  0.42905721462
    R19_27  BAL10_27  0.841370468035
    R19_27  BAL12_27  0.590519377848
    R19_27  BAL13_27  0.899437946118
    R19_27  BAL14_27  0.930612731482
    R19_27  BAL18_27  0.941006627654
    R19_27  BAL20_27  0.592392085646
    R19_27  BAL22_27  0.407470583198
    R19_27  BAL25_27  0.33141217969
    R19_27  BAL26_27  0.791355681629
    R19_27  CAP27  1
    R19_28  COST  17.1427562084
    R19_28  BAL0_28  0.353158735348
    R19_28  BAL6_28  0.651324954585
    R19_28  BAL9_28  0.42905721462
    R19_28  BAL10_28  0.841370468035
    R19_28  BAL12_28  0.590519377848
    R19_28  BAL13_28  0.899437946118
    R19_28  BAL14_28  0.930612731482
    R19_28  BAL18_28  0.941006627654
    R19_28  BAL20_28  0.592392085646
    R19_28  BAL22_28  0.407470583198
    R19_28  BAL25_28  0.33141217969
    R19_28  BAL26_28  0.791355681629
    R19_28  CAP28  1
    R19_29  COST  17.1427562084
    R19_29  BAL0_29  0.353158735348
    R19_29  BAL6_29  0.651324954585
    R19_29  BAL9_29  0.42905721462
    R19_29  BAL10_29  0.841370468035
    R19_29  BAL12_29  0.590519377848
    R19_29  BAL13_29  0.899437946118
    R19_29  BAL14_29  0.930612731482
    R19_29  BAL18_29  0.941006627654
    R19_29  BAL20_29  0.592392085646
    R19_29  BAL22_29  0.407470583198
    R19_29  BAL25_29  0.33141217969
    R19_29  BAL26_29  0.791355681629
    R19_29  CAP29  1
    R19_30  COST  17.1427562084
    R19_30  BAL0_30  0.353158735348
    R19_30  BAL6_30  0.651324954585
    R19_30  BAL9_30  0.42905721462
    R19_30  BAL10_30  0.841370468035
    R19_30  BAL12_30  0.590519377848
    R19_30  BAL13_30  0.899437946118
    R19_30  BAL14_30  0.930612731482
    R19_30  BAL18_30  0.941006627654
    R19_30  BAL20_30  0.592392085646
    R19_30  BAL22_30  0.407470583198
    R19_30  BAL25_30  0.33141217969
    R19_30  BAL26_30  0.791355681629
    R19_30  CAP30  1
    R19_31  COST  17.1427562084
    R19_31  BAL0_31  0.353158735348
    R19_31  BAL6_31  0.651324954585
    R19_31  BAL9_31  0.42905721462
    R19_31  BAL10_31  0.841370468035
    R19_31  BAL12_31  0.590519377848
    R19_31  BAL13_31  0.899437946118
    R19_31  BAL14_31  0.930612731482
    R19_31  BAL18_31  0.941006627654
    R19_31  BAL20_31  0.592392085646
    R19_31  BAL22_31  0.407470583198
    R19_31  BAL25_31  0.33141217969
    R19_31  BAL26_31  0.791355681629
    R19_31  CAP31  1
    R19_32  COST  17.1427562084
    R19_32  BAL0_32  0.353158735348
    R19_32  BAL6_32  0.651324954585
    R19_32  BAL9_32  0.42905721462
    R19_32  BAL10_32  0.841370468035
    R19_32  BAL12_32  0.590519377848
    R19_32  BAL13_32  0.899437946118
    R19_32  BAL14_32  0.930612731482
    R19_32  BAL18_32  0.941006627654
    R19_32  BAL20_32  0.592392085646
    R19_32  BAL22_32  0.407470583198
    R19_32  BAL25_32  0.33141217969
    R19_32  BAL26_32  0.791355681629
    R19_32  CAP32  1
    R19_33  COST  17.1427562084
    R19_33  BAL0_33  0.353158735348
    R19_33  BAL6_33  0.651324954585
    R19_33  BAL9_33  0.42905721462
    R19_33  BAL10_33  0.841370468035
    R19_33  BAL12_33  0.590519377848
    R19_33  BAL13_33  0.899437946118
    R19_33  BAL14_33  0.930612731482
    R19_33  BAL18_33  0.941006627654
    R19_33  BAL20_33  0.592392085646
    R19_33  BAL22_33  0.407470583198
    R19_33  BAL25_33  0.33141217969
    R19_33  BAL26_33  0.791355681629
    R19_33  CAP33  1
    R19_34  COST  17.1427562084
    R19_34  BAL0_34  0.353158735348
    R19_34  BAL6_34  0.651324954585
    R19_34  BAL9_34  0.42905721462
    R19_34  BAL10_34  0.841370468035
    R19_34  BAL12_34  0.590519377848
    R19_34  BAL13_34  0.899437946118
    R19_34  BAL14_34  0.930612731482
    R19_34  BAL18_34  0.941006627654
    R19_34  BAL20_34  0.592392085646
    R19_34  BAL22_34  0.407470583198
    R19_34  BAL25_34  0.33141217969
    R19_34  BAL26_34  0.791355681629
    R19_34  CAP34  1
    R19_35  COST  17.1427562084
    R19_35  BAL0_35  0.353158735348
    R19_35  BAL6_35  0.651324954585
    R19_35  BAL9_35  0.42905721462
    R19_35  BAL10_35  0.841370468035
    R19_35  BAL12_35  0.590519377848
    R19_35  BAL13_35  0.899437946118
    R19_35  BAL14_35  0.930612731482
    R19_35  BAL18_35  0.941006627654
    R19_35  BAL20_35  0.592392085646
    R19_35  BAL22_35  0.407470583198
    R19_35  BAL25_35  0.33141217969
    R19_35  BAL26_35  0.791355681629
    R19_35  CAP35  1
    R20_0  COST  11.6385618228
    R20_0  BAL1_0  0.365292422099
    R20_0  BAL3_0  0.806581524563
    R20_0  BAL6_0  0.363042835301
    R20_0  BAL10_0  0.308346265232
    R20_0  BAL14_0  0.154719153516
    R20_0  BAL20_0  0.566957791458
    R20_0  BAL21_0  0.721553084059
    R20_0  BAL23_0  0.680318804435
    R20_0  BAL24_0  0.237701658638
    R20_0  BAL25_0  0.435222474337
    R20_0  BAL26_0  0.179891515524
    R20_0  BAL28_0  0.202870810941
    R20_0  CAP0  1
    R20_1  COST  11.6385618228
    R20_1  BAL1_1  0.365292422099
    R20_1  BAL3_1  0.806581524563
    R20_1  BAL6_1  0.363042835301
    R20_1  BAL10_1  0.308346265232
    R20_1  BAL14_1  0.154719153516
    R20_1  BAL20_1  0.566957791458
    R20_1  BAL21_1  0.721553084059
    R20_1  BAL23_1  0.680318804435
    R20_1  BAL24_1  0.237701658638
    R20_1  BAL25_1  0.435222474337
    R20_1  BAL26_1  0.179891515524
    R20_1  BAL28_1  0.202870810941
    R20_1  CAP1  1
    R20_2  COST  11.6385618228
    R20_2  BAL1_2  0.365292422099
    R20_2  BAL3_2  0.806581524563
    R20_2  BAL6_2  0.363042835301
    R20_2  BAL10_2  0.308346265232
    R20_2  BAL14_2  0.154719153516
    R20_2  BAL20_2  0.566957791458
    R20_2  BAL21_2  0.721553084059
    R20_2  BAL23_2  0.680318804435
    R20_2  BAL24_2  0.237701658638
    R20_2  BAL25_2  0.435222474337
    R20_2  BAL26_2  0.179891515524
    R20_2  BAL28_2  0.202870810941
    R20_2  CAP2  1
    R20_3  COST  11.6385618228
    R20_3  BAL1_3  0.365292422099
    R20_3  BAL3_3  0.806581524563
    R20_3  BAL6_3  0.363042835301
    R20_3  BAL10_3  0.308346265232
    R20_3  BAL14_3  0.154719153516
    R20_3  BAL20_3  0.566957791458
    R20_3  BAL21_3  0.721553084059
    R20_3  BAL23_3  0.680318804435
    R20_3  BAL24_3  0.237701658638
    R20_3  BAL25_3  0.435222474337
    R20_3  BAL26_3  0.179891515524
    R20_3  BAL28_3  0.202870810941
    R20_3  CAP3  1
    R20_4  COST  11.6385618228
    R20_4  BAL1_4  0.365292422099
    R20_4  BAL3_4  0.806581524563
    R20_4  BAL6_4  0.363042835301
    R20_4  BAL10_4  0.308346265232
    R20_4  BAL14_4  0.154719153516
    R20_4  BAL20_4  0.566957791458
    R20_4  BAL21_4  0.721553084059
    R20_4  BAL23_4  0.680318804435
    R20_4  BAL24_4  0.237701658638
    R20_4  BAL25_4  0.435222474337
    R20_4  BAL26_4  0.179891515524
    R20_4  BAL28_4  0.202870810941
    R20_4  CAP4  1
    R20_5  COST  11.6385618228
    R20_5  BAL1_5  0.365292422099
    R20_5  BAL3_5  0.806581524563
    R20_5  BAL6_5  0.363042835301
    R20_5  BAL10_5  0.308346265232
    R20_5  BAL14_5  0.154719153516
    R20_5  BAL20_5  0.566957791458
    R20_5  BAL21_5  0.721553084059
    R20_5  BAL23_5  0.680318804435
    R20_5  BAL24_5  0.237701658638
    R20_5  BAL25_5  0.435222474337
    R20_5  BAL26_5  0.179891515524
    R20_5  BAL28_5  0.202870810941
    R20_5  CAP5  1
    R20_6  COST  11.6385618228
    R20_6  BAL1_6  0.365292422099
    R20_6  BAL3_6  0.806581524563
    R20_6  BAL6_6  0.363042835301
    R20_6  BAL10_6  0.308346265232
    R20_6  BAL14_6  0.154719153516
    R20_6  BAL20_6  0.566957791458
    R20_6  BAL21_6  0.721553084059
    R20_6  BAL23_6  0.680318804435
    R20_6  BAL24_6  0.237701658638
    R20_6  BAL25_6  0.435222474337
    R20_6  BAL26_6  0.179891515524
    R20_6  BAL28_6  0.202870810941
    R20_6  CAP6  1
    R20_7  COST  11.6385618228
    R20_7  BAL1_7  0.365292422099
    R20_7  BAL3_7  0.806581524563
    R20_7  BAL6_7  0.363042835301
    R20_7  BAL10_7  0.308346265232
    R20_7  BAL14_7  0.154719153516
    R20_7  BAL20_7  0.566957791458
    R20_7  BAL21_7  0.721553084059
    R20_7  BAL23_7  0.680318804435
    R20_7  BAL24_7  0.237701658638
    R20_7  BAL25_7  0.435222474337
    R20_7  BAL26_7  0.179891515524
    R20_7  BAL28_7  0.202870810941
    R20_7  CAP7  1
    R20_8  COST  11.6385618228
    R20_8  BAL1_8  0.365292422099
    R20_8  BAL3_8  0.806581524563
    R20_8  BAL6_8  0.363042835301
    R20_8  BAL10_8  0.308346265232
    R20_8  BAL14_8  0.154719153516
    R20_8  BAL20_8  0.566957791458
    R20_8  BAL21_8  0.721553084059
    R20_8  BAL23_8  0.680318804435
    R20_8  BAL24_8  0.237701658638
    R20_8  BAL25_8  0.435222474337
    R20_8  BAL26_8  0.179891515524
    R20_8  BAL28_8  0.202870810941
    R20_8  CAP8  1
    R20_9  COST  11.6385618228
    R20_9  BAL1_9  0.365292422099
    R20_9  BAL3_9  0.806581524563
    R20_9  BAL6_9  0.363042835301
    R20_9  BAL10_9  0.308346265232
    R20_9  BAL14_9  0.154719153516
    R20_9  BAL20_9  0.566957791458
    R20_9  BAL21_9  0.721553084059
    R20_9  BAL23_9  0.680318804435
    R20_9  BAL24_9  0.237701658638
    R20_9  BAL25_9  0.435222474337
    R20_9  BAL26_9  0.179891515524
    R20_9  BAL28_9  0.202870810941
    R20_9  CAP9  1
    R20_10  COST  11.6385618228
    R20_10  BAL1_10  0.365292422099
    R20_10  BAL3_10  0.806581524563
    R20_10  BAL6_10  0.363042835301
    R20_10  BAL10_10  0.308346265232
    R20_10  BAL14_10  0.154719153516
    R20_10  BAL20_10  0.566957791458
    R20_10  BAL21_10  0.721553084059
    R20_10  BAL23_10  0.680318804435
    R20_10  BAL24_10  0.237701658638
    R20_10  BAL25_10  0.435222474337
    R20_10  BAL26_10  0.179891515524
    R20_10  BAL28_10  0.202870810941
    R20_10  CAP10  1
    R20_11  COST  11.6385618228
    R20_11  BAL1_11  0.365292422099
    R20_11  BAL3_11  0.806581524563
    R20_11  BAL6_11  0.363042835301
    R20_11  BAL10_11  0.308346265232
    R20_11  BAL14_11  0.154719153516
    R20_11  BAL20_11  0.566957791458
    R20_11  BAL21_11  0.721553084059
    R20_11  BAL23_11  0.680318804435
    R20_11  BAL24_11  0.237701658638
    R20_11  BAL25_11  0.435222474337
    R20_11  BAL26_11  0.179891515524
    R20_11  BAL28_11  0.202870810941
    R20_11  CAP11  1
    R20_12  COST  11.6385618228
    R20_12  BAL1_12  0.365292422099
    R20_12  BAL3_12  0.806581524563
    R20_12  BAL6_12  0.363042835301
    R20_12  BAL10_12  0.308346265232
    R20_12  BAL14_12  0.154719153516
    R20_12  BAL20_12  0.566957791458
    R20_12  BAL21_12  0.721553084059
    R20_12  BAL23_12  0.680318804435
    R20_12  BAL24_12  0.237701658638
    R20_12  BAL25_12  0.435222474337
    R20_12  BAL26_12  0.179891515524
    R20_12  BAL28_12  0.202870810941
    R20_12  CAP12  1
    R20_13  COST  11.6385618228
    R20_13  BAL1_13  0.365292422099
    R20_13  BAL3_13  0.806581524563
    R20_13  BAL6_13  0.363042835301
    R20_13  BAL10_13  0.308346265232
    R20_13  BAL14_13  0.154719153516
    R20_13  BAL20_13  0.566957791458
    R20_13  BAL21_13  0.721553084059
    R20_13  BAL23_13  0.680318804435
    R20_13  BAL24_13  0.237701658638
    R20_13  BAL25_13  0.435222474337
    R20_13  BAL26_13  0.179891515524
    R20_13  BAL28_13  0.202870810941
    R20_13  CAP13  1
    R20_14  COST  11.6385618228
    R20_14  BAL1_14  0.365292422099
    R20_14  BAL3_14  0.806581524563
    R20_14  BAL6_14  0.363042835301
    R20_14  BAL10_14  0.308346265232
    R20_14  BAL14_14  0.154719153516
    R20_14  BAL20_14  0.566957791458
    R20_14  BAL21_14  0.721553084059
    R20_14  BAL23_14  0.680318804435
    R20_14  BAL24_14  0.237701658638
    R20_14  BAL25_14  0.435222474337
    R20_14  BAL26_14  0.179891515524
    R20_14  BAL28_14  0.202870810941
    R20_14  CAP14  1
    R20_15  COST  11.6385618228
    R20_15  BAL1_15  0.365292422099
    R20_15  BAL3_15  0.806581524563
    R20_15  BAL6_15  0.363042835301
    R20_15  BAL10_15  0.308346265232
    R20_15  BAL14_15  0.154719153516
    R20_15  BAL20_15  0.566957791458
    R20_15  BAL21_15  0.721553084059
    R20_15  BAL23_15  0.680318804435
    R20_15  BAL24_15  0.237701658638
    R20_15  BAL25_15  0.435222474337
    R20_15  BAL26_15  0.179891515524
    R20_15  BAL28_15  0.202870810941
    R20_15  CAP15  1
    R20_16  COST  11.6385618228
    R20_16  BAL1_16  0.365292422099
    R20_16  BAL3_16  0.806581524563
    R20_16  BAL6_16  0.363042835301
    R20_16  BAL10_16  0.308346265232
    R20_16  BAL14_16  0.154719153516
    R20_16  BAL20_16  0.566957791458
    R20_16  BAL21_16  0.721553084059
    R20_16  BAL23_16  0.680318804435
    R20_16  BAL24_16  0.237701658638
    R20_16  BAL25_16  0.435222474337
    R20_16  BAL26_16  0.179891515524
    R20_16  BAL28_16  0.202870810941
    R20_16  CAP16  1
    R20_17  COST  11.6385618228
    R20_17  BAL1_17  0.365292422099
    R20_17  BAL3_17  0.806581524563
    R20_17  BAL6_17  0.363042835301
    R20_17  BAL10_17  0.308346265232
    R20_17  BAL14_17  0.154719153516
    R20_17  BAL20_17  0.566957791458
    R20_17  BAL21_17  0.721553084059
    R20_17  BAL23_17  0.680318804435
    R20_17  BAL24_17  0.237701658638
    R20_17  BAL25_17  0.435222474337
    R20_17  BAL26_17  0.179891515524
    R20_17  BAL28_17  0.202870810941
    R20_17  CAP17  1
    R20_18  COST  11.6385618228
    R20_18  BAL1_18  0.365292422099
    R20_18  BAL3_18  0.806581524563
    R20_18  BAL6_18  0.363042835301
    R20_18  BAL10_18  0.308346265232
    R20_18  BAL14_18  0.154719153516
    R20_18  BAL20_18  0.566957791458
    R20_18  BAL21_18  0.721553084059
    R20_18  BAL23_18  0.680318804435
    R20_18  BAL24_18  0.237701658638
    R20_18  BAL25_18  0.435222474337
    R20_18  BAL26_18  0.179891515524
    R20_18  BAL28_18  0.202870810941
    R20_18  CAP18  1
    R20_19  COST  11.6385618228
    R20_19  BAL1_19  0.365292422099
    R20_19  BAL3_19  0.806581524563
    R20_19  BAL6_19  0.363042835301
    R20_19  BAL10_19  0.308346265232
    R20_19  BAL14_19  0.154719153516
    R20_19  BAL20_19  0.566957791458
    R20_19  BAL21_19  0.721553084059
    R20_19  BAL23_19  0.680318804435
    R20_19  BAL24_19  0.237701658638
    R20_19  BAL25_19  0.435222474337
    R20_19  BAL26_19  0.179891515524
    R20_19  BAL28_19  0.202870810941
    R20_19  CAP19  1
    R20_20  COST  11.6385618228
    R20_20  BAL1_20  0.365292422099
    R20_20  BAL3_20  0.806581524563
    R20_20  BAL6_20  0.363042835301
    R20_20  BAL10_20  0.308346265232
    R20_20  BAL14_20  0.154719153516
    R20_20  BAL20_20  0.566957791458
    R20_20  BAL21_20  0.721553084059
    R20_20  BAL23_20  0.680318804435
    R20_20  BAL24_20  0.237701658638
    R20_20  BAL25_20  0.435222474337
    R20_20  BAL26_20  0.179891515524
    R20_20  BAL28_20  0.202870810941
    R20_20  CAP20  1
    R20_21  COST  11.6385618228
    R20_21  BAL1_21  0.365292422099
    R20_21  BAL3_21  0.806581524563
    R20_21  BAL6_21  0.363042835301
    R20_21  BAL10_21  0.308346265232
    R20_21  BAL14_21  0.154719153516
    R20_21  BAL20_21  0.566957791458
    R20_21  BAL21_21  0.721553084059
    R20_21  BAL23_21  0.680318804435
    R20_21  BAL24_21  0.237701658638
    R20_21  BAL25_21  0.435222474337
    R20_21  BAL26_21  0.179891515524
    R20_21  BAL28_21  0.202870810941
    R20_21  CAP21  1
    R20_22  COST  11.6385618228
    R20_22  BAL1_22  0.365292422099
    R20_22  BAL3_22  0.806581524563
    R20_22  BAL6_22  0.363042835301
    R20_22  BAL10_22  0.308346265232
    R20_22  BAL14_22  0.154719153516
    R20_22  BAL20_22  0.566957791458
    R20_22  BAL21_22  0.721553084059
    R20_22  BAL23_22  0.680318804435
    R20_22  BAL24_22  0.237701658638
    R20_22  BAL25_22  0.435222474337
    R20_22  BAL26_22  0.179891515524
    R20_22  BAL28_22  0.202870810941
    R20_22  CAP22  1
    R20_23  COST  11.6385618228
    R20_23  BAL1_23  0.365292422099
    R20_23  BAL3_23  0.806581524563
    R20_23  BAL6_23  0.363042835301
    R20_23  BAL10_23  0.308346265232
    R20_23  BAL14_23  0.154719153516
    R20_23  BAL20_23  0.566957791458
    R20_23  BAL21_23  0.721553084059
    R20_23  BAL23_23  0.680318804435
    R20_23  BAL24_23  0.237701658638
    R20_23  BAL25_23  0.435222474337
    R20_23  BAL26_23  0.179891515524
    R20_23  BAL28_23  0.202870810941
    R20_23  CAP23  1
    R20_24  COST  11.6385618228
    R20_24  BAL1_24  0.365292422099
    R20_24  BAL3_24  0.806581524563
    R20_24  BAL6_24  0.363042835301
    R20_24  BAL10_24  0.308346265232
    R20_24  BAL14_24  0.154719153516
    R20_24  BAL20_24  0.566957791458
    R20_24  BAL21_24  0.721553084059
    R20_24  BAL23_24  0.680318804435
    R20_24  BAL24_24  0.237701658638
    R20_24  BAL25_24  0.435222474337
    R20_24  BAL26_24  0.179891515524
    R20_24  BAL28_24  0.202870810941
    R20_24  CAP24  1
    R20_25  COST  11.6385618228
    R20_25  BAL1_25  0.365292422099
    R20_25  BAL3_25  0.806581524563
    R20_25  BAL6_25  0.363042835301
    R20_25  BAL10_25  0.308346265232
    R20_25  BAL14_25  0.154719153516
    R20_25  BAL20_25  0.566957791458
    R20_25  BAL21_25  0.721553084059
    R20_25  BAL23_25  0.680318804435
    R20_25  BAL24_25  0.237701658638
    R20_25  BAL25_25  0.435222474337
    R20_25  BAL26_25  0.179891515524
    R20_25  BAL28_25  0.202870810941
    R20_25  CAP25  1
    R20_26  COST  11.6385618228
    R20_26  BAL1_26  0.365292422099
    R20_26  BAL3_26  0.806581524563
    R20_26  BAL6_26  0.363042835301
    R20_26  BAL10_26  0.308346265232
    R20_26  BAL14_26  0.154719153516
    R20_26  BAL20_26  0.566957791458
    R20_26  BAL21_26  0.721553084059
    R20_26  BAL23_26  0.680318804435
    R20_26  BAL24_26  0.237701658638
    R20_26  BAL25_26  0.435222474337
    R20_26  BAL26_26  0.179891515524
    R20_26  BAL28_26  0.202870810941
    R20_26  CAP26  1
    R20_27  COST  11.6385618228
    R20_27  BAL1_27  0.365292422099
    R20_27  BAL3_27  0.806581524563
    R20_27  BAL6_27  0.363042835301
    R20_27  BAL10_27  0.308346265232
    R20_27  BAL14_27  0.154719153516
    R20_27  BAL20_27  0.566957791458
    R20_27  BAL21_27  0.721553084059
    R20_27  BAL23_27  0.680318804435
    R20_27  BAL24_27  0.237701658638
    R20_27  BAL25_27  0.435222474337
    R20_27  BAL26_27  0.179891515524
    R20_27  BAL28_27  0.202870810941
    R20_27  CAP27  1
    R20_28  COST  11.6385618228
    R20_28  BAL1_28  0.365292422099
    R20_28  BAL3_28  0.806581524563
    R20_28  BAL6_28  0.363042835301
    R20_28  BAL10_28  0.308346265232
    R20_28  BAL14_28  0.154719153516
    R20_28  BAL20_28  0.566957791458
    R20_28  BAL21_28  0.721553084059
    R20_28  BAL23_28  0.680318804435
    R20_28  BAL24_28  0.237701658638
    R20_28  BAL25_28  0.435222474337
    R20_28  BAL26_28  0.179891515524
    R20_28  BAL28_28  0.202870810941
    R20_28  CAP28  1
    R20_29  COST  11.6385618228
    R20_29  BAL1_29  0.365292422099
    R20_29  BAL3_29  0.806581524563
    R20_29  BAL6_29  0.363042835301
    R20_29  BAL10_29  0.308346265232
    R20_29  BAL14_29  0.154719153516
    R20_29  BAL20_29  0.566957791458
    R20_29  BAL21_29  0.721553084059
    R20_29  BAL23_29  0.680318804435
    R20_29  BAL24_29  0.237701658638
    R20_29  BAL25_29  0.435222474337
    R20_29  BAL26_29  0.179891515524
    R20_29  BAL28_29  0.202870810941
    R20_29  CAP29  1
    R20_30  COST  11.6385618228
    R20_30  BAL1_30  0.365292422099
    R20_30  BAL3_30  0.806581524563
    R20_30  BAL6_30  0.363042835301
    R20_30  BAL10_30  0.308346265232
    R20_30  BAL14_30  0.154719153516
    R20_30  BAL20_30  0.566957791458
    R20_30  BAL21_30  0.721553084059
    R20_30  BAL23_30  0.680318804435
    R20_30  BAL24_30  0.237701658638
    R20_30  BAL25_30  0.435222474337
    R20_30  BAL26_30  0.179891515524
    R20_30  BAL28_30  0.202870810941
    R20_30  CAP30  1
    R20_31  COST  11.6385618228
    R20_31  BAL1_31  0.365292422099
    R20_31  BAL3_31  0.806581524563
    R20_31  BAL6_31  0.363042835301
    R20_31  BAL10_31  0.308346265232
    R20_31  BAL14_31  0.154719153516
    R20_31  BAL20_31  0.566957791458
    R20_31  BAL21_31  0.721553084059
    R20_31  BAL23_31  0.680318804435
    R20_31  BAL24_31  0.237701658638
    R20_31  BAL25_31  0.435222474337
    R20_31  BAL26_31  0.179891515524
    R20_31  BAL28_31  0.202870810941
    R20_31  CAP31  1
    R20_32  COST  11.6385618228
    R20_32  BAL1_32  0.365292422099
    R20_32  BAL3_32  0.806581524563
    R20_32  BAL6_32  0.363042835301
    R20_32  BAL10_32  0.308346265232
    R20_32  BAL14_32  0.154719153516
    R20_32  BAL20_32  0.566957791458
    R20_32  BAL21_32  0.721553084059
    R20_32  BAL23_32  0.680318804435
    R20_32  BAL24_32  0.237701658638
    R20_32  BAL25_32  0.435222474337
    R20_32  BAL26_32  0.179891515524
    R20_32  BAL28_32  0.202870810941
    R20_32  CAP32  1
    R20_33  COST  11.6385618228
    R20_33  BAL1_33  0.365292422099
    R20_33  BAL3_33  0.806581524563
    R20_33  BAL6_33  0.363042835301
    R20_33  BAL10_33  0.308346265232
    R20_33  BAL14_33  0.154719153516
    R20_33  BAL20_33  0.566957791458
    R20_33  BAL21_33  0.721553084059
    R20_33  BAL23_33  0.680318804435
    R20_33  BAL24_33  0.237701658638
    R20_33  BAL25_33  0.435222474337
    R20_33  BAL26_33  0.179891515524
    R20_33  BAL28_33  0.202870810941
    R20_33  CAP33  1
    R20_34  COST  11.6385618228
    R20_34  BAL1_34  0.365292422099
    R20_34  BAL3_34  0.806581524563
    R20_34  BAL6_34  0.363042835301
    R20_34  BAL10_34  0.308346265232
    R20_34  BAL14_34  0.154719153516
    R20_34  BAL20_34  0.566957791458
    R20_34  BAL21_34  0.721553084059
    R20_34  BAL23_34  0.680318804435
    R20_34  BAL24_34  0.237701658638
    R20_34  BAL25_34  0.435222474337
    R20_34  BAL26_34  0.179891515524
    R20_34  BAL28_34  0.202870810941
    R20_34  CAP34  1
    R20_35  COST  11.6385618228
    R20_35  BAL1_35  0.365292422099
    R20_35  BAL3_35  0.806581524563
    R20_35  BAL6_35  0.363042835301
    R20_35  BAL10_35  0.308346265232
    R20_35  BAL14_35  0.154719153516
    R20_35  BAL20_35  0.566957791458
    R20_35  BAL21_35  0.721553084059
    R20_35  BAL23_35  0.680318804435
    R20_35  BAL24_35  0.237701658638
    R20_35  BAL25_35  0.435222474337
    R20_35  BAL26_35  0.179891515524
    R20_35  BAL28_35  0.202870810941
    R20_35  CAP35  1
    R21_0  COST  12.469588814
    R21_0  BAL3_0  0.677797552032
    R21_0  BAL4_0  0.51614398247
    R21_0  BAL5_0  0.296390745498
    R21_0  BAL7_0  0.497998032889
    R21_0  BAL8_0  0.923697726842
    R21_0  BAL10_0  0.429178732935
    R21_0  BAL11_0  0.527274363978
    R21_0  BAL12_0  0.163673212123
    R21_0  BAL13_0  0.17301522138
    R21_0  BAL18_0  0.707377780428
    R21_0  BAL21_0  0.188834588635
    R21_0  CAP0  1
    R21_1  COST  12.469588814
    R21_1  BAL3_1  0.677797552032
    R21_1  BAL4_1  0.51614398247
    R21_1  BAL5_1  0.296390745498
    R21_1  BAL7_1  0.497998032889
    R21_1  BAL8_1  0.923697726842
    R21_1  BAL10_1  0.429178732935
    R21_1  BAL11_1  0.527274363978
    R21_1  BAL12_1  0.163673212123
    R21_1  BAL13_1  0.17301522138
    R21_1  BAL18_1  0.707377780428
    R21_1  BAL21_1  0.188834588635
    R21_1  CAP1  1
    R21_2  COST  12.469588814
    R21_2  BAL3_2  0.677797552032
    R21_2  BAL4_2  0.51614398247
    R21_2  BAL5_2  0.296390745498
    R21_2  BAL7_2  0.497998032889
    R21_2  BAL8_2  0.923697726842
    R21_2  BAL10_2  0.429178732935
    R21_2  BAL11_2  0.527274363978
    R21_2  BAL12_2  0.163673212123
    R21_2  BAL13_2  0.17301522138
    R21_2  BAL18_2  0.707377780428
    R21_2  BAL21_2  0.188834588635
    R21_2  CAP2  1
    R21_3  COST  12.469588814
    R21_3  BAL3_3  0.677797552032
    R21_3  BAL4_3  0.51614398247
    R21_3  BAL5_3  0.296390745498
    R21_3  BAL7_3  0.497998032889
    R21_3  BAL8_3  0.923697726842
    R21_3  BAL10_3  0.429178732935
    R21_3  BAL11_3  0.527274363978
    R21_3  BAL12_3  0.163673212123
    R21_3  BAL13_3  0.17301522138
    R21_3  BAL18_3  0.707377780428
    R21_3  BAL21_3  0.188834588635
    R21_3  CAP3  1
    R21_4  COST  12.469588814
    R21_4  BAL3_4  0.677797552032
    R21_4  BAL4_4  0.51614398247
    R21_4  BAL5_4  0.296390745498
    R21_4  BAL7_4  0.497998032889
    R21_4  BAL8_4  0.923697726842
    R21_4  BAL10_4  0.429178732935
    R21_4  BAL11_4  0.527274363978
    R21_4  BAL12_4  0.163673212123
    R21_4  BAL13_4  0.17301522138
    R21_4  BAL18_4  0.707377780428
    R21_4  BAL21_4  0.188834588635
    R21_4  CAP4  1
    R21_5  COST  12.469588814
    R21_5  BAL3_5  0.677797552032
    R21_5  BAL4_5  0.51614398247
    R21_5  BAL5_5  0.296390745498
    R21_5  BAL7_5  0.497998032889
    R21_5  BAL8_5  0.923697726842
    R21_5  BAL10_5  0.429178732935
    R21_5  BAL11_5  0.527274363978
    R21_5  BAL12_5  0.163673212123
    R21_5  BAL13_5  0.17301522138
    R21_5  BAL18_5  0.707377780428
    R21_5  BAL21_5  0.188834588635
    R21_5  CAP5  1
    R21_6  COST  12.469588814
    R21_6  BAL3_6  0.677797552032
    R21_6  BAL4_6  0.51614398247
    R21_6  BAL5_6  0.296390745498
    R21_6  BAL7_6  0.497998032889
    R21_6  BAL8_6  0.923697726842
    R21_6  BAL10_6  0.429178732935
    R21_6  BAL11_6  0.527274363978
    R21_6  BAL12_6  0.163673212123
    R21_6  BAL13_6  0.17301522138
    R21_6  BAL18_6  0.707377780428
    R21_6  BAL21_6  0.188834588635
    R21_6  CAP6  1
    R21_7  COST  12.469588814
    R21_7  BAL3_7  0.677797552032
    R21_7  BAL4_7  0.51614398247
    R21_7  BAL5_7  0.296390745498
    R21_7  BAL7_7  0.497998032889
    R21_7  BAL8_7  0.923697726842
    R21_7  BAL10_7  0.429178732935
    R21_7  BAL11_7  0.527274363978
    R21_7  BAL12_7  0.163673212123
    R21_7  BAL13_7  0.17301522138
    R21_7  BAL18_7  0.707377780428
    R21_7  BAL21_7  0.188834588635
    R21_7  CAP7  1
    R21_8  COST  12.469588814
    R21_8  BAL3_8  0.677797552032
    R21_8  BAL4_8  0.51614398247
    R21_8  BAL5_8  0.296390745498
    R21_8  BAL7_8  0.497998032889
    R21_8  BAL8_8  0.923697726842
    R21_8  BAL10_8  0.429178732935
    R21_8  BAL11_8  0.527274363978
    R21_8  BAL12_8  0.163673212123
    R21_8  BAL13_8  0.17301522138
    R21_8  BAL18_8  0.707377780428
    R21_8  BAL21_8  0.188834588635
    R21_8  CAP8  1
    R21_9  COST  12.469588814
    R21_9  BAL3_9  0.677797552032
    R21_9  BAL4_9  0.51614398247
    R21_9  BAL5_9  0.296390745498
    R21_9  BAL7_9  0.497998032889
    R21_9  BAL8_9  0.923697726842
    R21_9  BAL10_9  0.429178732935
    R21_9  BAL11_9  0.527274363978
    R21_9  BAL12_9  0.163673212123
    R21_9  BAL13_9  0.17301522138
    R21_9  BAL18_9  0.707377780428
    R21_9  BAL21_9  0.188834588635
    R21_9  CAP9  1
    R21_10  COST  12.469588814
    R21_10  BAL3_10  0.677797552032
    R21_10  BAL4_10  0.51614398247
    R21_10  BAL5_10  0.296390745498
    R21_10  BAL7_10  0.497998032889
    R21_10  BAL8_10  0.923697726842
    R21_10  BAL10_10  0.429178732935
    R21_10  BAL11_10  0.527274363978
    R21_10  BAL12_10  0.163673212123
    R21_10  BAL13_10  0.17301522138
    R21_10  BAL18_10  0.707377780428
    R21_10  BAL21_10  0.188834588635
    R21_10  CAP10  1
    R21_11  COST  12.469588814
    R21_11  BAL3_11  0.677797552032
    R21_11  BAL4_11  0.51614398247
    R21_11  BAL5_11  0.296390745498
    R21_11  BAL7_11  0.497998032889
    R21_11  BAL8_11  0.923697726842
    R21_11  BAL10_11  0.429178732935
    R21_11  BAL11_11  0.527274363978
    R21_11  BAL12_11  0.163673212123
    R21_11  BAL13_11  0.17301522138
    R21_11  BAL18_11  0.707377780428
    R21_11  BAL21_11  0.188834588635
    R21_11  CAP11  1
    R21_12  COST  12.469588814
    R21_12  BAL3_12  0.677797552032
    R21_12  BAL4_12  0.51614398247
    R21_12  BAL5_12  0.296390745498
    R21_12  BAL7_12  0.497998032889
    R21_12  BAL8_12  0.923697726842
    R21_12  BAL10_12  0.429178732935
    R21_12  BAL11_12  0.527274363978
    R21_12  BAL12_12  0.163673212123
    R21_12  BAL13_12  0.17301522138
    R21_12  BAL18_12  0.707377780428
    R21_12  BAL21_12  0.188834588635
    R21_12  CAP12  1
    R21_13  COST  12.469588814
    R21_13  BAL3_13  0.677797552032
    R21_13  BAL4_13  0.51614398247
    R21_13  BAL5_13  0.296390745498
    R21_13  BAL7_13  0.497998032889
    R21_13  BAL8_13  0.923697726842
    R21_13  BAL10_13  0.429178732935
    R21_13  BAL11_13  0.527274363978
    R21_13  BAL12_13  0.163673212123
    R21_13  BAL13_13  0.17301522138
    R21_13  BAL18_13  0.707377780428
    R21_13  BAL21_13  0.188834588635
    R21_13  CAP13  1
    R21_14  COST  12.469588814
    R21_14  BAL3_14  0.677797552032
    R21_14  BAL4_14  0.51614398247
    R21_14  BAL5_14  0.296390745498
    R21_14  BAL7_14  0.497998032889
    R21_14  BAL8_14  0.923697726842
    R21_14  BAL10_14  0.429178732935
    R21_14  BAL11_14  0.527274363978
    R21_14  BAL12_14  0.163673212123
    R21_14  BAL13_14  0.17301522138
    R21_14  BAL18_14  0.707377780428
    R21_14  BAL21_14  0.188834588635
    R21_14  CAP14  1
    R21_15  COST  12.469588814
    R21_15  BAL3_15  0.677797552032
    R21_15  BAL4_15  0.51614398247
    R21_15  BAL5_15  0.296390745498
    R21_15  BAL7_15  0.497998032889
    R21_15  BAL8_15  0.923697726842
    R21_15  BAL10_15  0.429178732935
    R21_15  BAL11_15  0.527274363978
    R21_15  BAL12_15  0.163673212123
    R21_15  BAL13_15  0.17301522138
    R21_15  BAL18_15  0.707377780428
    R21_15  BAL21_15  0.188834588635
    R21_15  CAP15  1
    R21_16  COST  12.469588814
    R21_16  BAL3_16  0.677797552032
    R21_16  BAL4_16  0.51614398247
    R21_16  BAL5_16  0.296390745498
    R21_16  BAL7_16  0.497998032889
    R21_16  BAL8_16  0.923697726842
    R21_16  BAL10_16  0.429178732935
    R21_16  BAL11_16  0.527274363978
    R21_16  BAL12_16  0.163673212123
    R21_16  BAL13_16  0.17301522138
    R21_16  BAL18_16  0.707377780428
    R21_16  BAL21_16  0.188834588635
    R21_16  CAP16  1
    R21_17  COST  12.469588814
    R21_17  BAL3_17  0.677797552032
    R21_17  BAL4_17  0.51614398247
    R21_17  BAL5_17  0.296390745498
    R21_17  BAL7_17  0.497998032889
    R21_17  BAL8_17  0.923697726842
    R21_17  BAL10_17  0.429178732935
    R21_17  BAL11_17  0.527274363978
    R21_17  BAL12_17  0.163673212123
    R21_17  BAL13_17  0.17301522138
    R21_17  BAL18_17  0.707377780428
    R21_17  BAL21_17  0.188834588635
    R21_17  CAP17  1
    R21_18  COST  12.469588814
    R21_18  BAL3_18  0.677797552032
    R21_18  BAL4_18  0.51614398247
    R21_18  BAL5_18  0.296390745498
    R21_18  BAL7_18  0.497998032889
    R21_18  BAL8_18  0.923697726842
    R21_18  BAL10_18  0.429178732935
    R21_18  BAL11_18  0.527274363978
    R21_18  BAL12_18  0.163673212123
    R21_18  BAL13_18  0.17301522138
    R21_18  BAL18_18  0.707377780428
    R21_18  BAL21_18  0.188834588635
    R21_18  CAP18  1
    R21_19  COST  12.469588814
    R21_19  BAL3_19  0.677797552032
    R21_19  BAL4_19  0.51614398247
    R21_19  BAL5_19  0.296390745498
    R21_19  BAL7_19  0.497998032889
    R21_19  BAL8_19  0.923697726842
    R21_19  BAL10_19  0.429178732935
    R21_19  BAL11_19  0.527274363978
    R21_19  BAL12_19  0.163673212123
    R21_19  BAL13_19  0.17301522138
    R21_19  BAL18_19  0.707377780428
    R21_19  BAL21_19  0.188834588635
    R21_19  CAP19  1
    R21_20  COST  12.469588814
    R21_20  BAL3_20  0.677797552032
    R21_20  BAL4_20  0.51614398247
    R21_20  BAL5_20  0.296390745498
    R21_20  BAL7_20  0.497998032889
    R21_20  BAL8_20  0.923697726842
    R21_20  BAL10_20  0.429178732935
    R21_20  BAL11_20  0.527274363978
    R21_20  BAL12_20  0.163673212123
    R21_20  BAL13_20  0.17301522138
    R21_20  BAL18_20  0.707377780428
    R21_20  BAL21_20  0.188834588635
    R21_20  CAP20  1
    R21_21  COST  12.469588814
    R21_21  BAL3_21  0.677797552032
    R21_21  BAL4_21  0.51614398247
    R21_21  BAL5_21  0.296390745498
    R21_21  BAL7_21  0.497998032889
    R21_21  BAL8_21  0.923697726842
    R21_21  BAL10_21  0.429178732935
    R21_21  BAL11_21  0.527274363978
    R21_21  BAL12_21  0.163673212123
    R21_21  BAL13_21  0.17301522138
    R21_21  BAL18_21  0.707377780428
    R21_21  BAL21_21  0.188834588635
    R21_21  CAP21  1
    R21_22  COST  12.469588814
    R21_22  BAL3_22  0.677797552032
    R21_22  BAL4_22  0.51614398247
    R21_22  BAL5_22  0.296390745498
    R21_22  BAL7_22  0.497998032889
    R21_22  BAL8_22  0.923697726842
    R21_22  BAL10_22  0.429178732935
    R21_22  BAL11_22  0.527274363978
    R21_22  BAL12_22  0.163673212123
    R21_22  BAL13_22  0.17301522138
    R21_22  BAL18_22  0.707377780428
    R21_22  BAL21_22  0.188834588635
    R21_22  CAP22  1
    R21_23  COST  12.469588814
    R21_23  BAL3_23  0.677797552032
    R21_23  BAL4_23  0.51614398247
    R21_23  BAL5_23  0.296390745498
    R21_23  BAL7_23  0.497998032889
    R21_23  BAL8_23  0.923697726842
    R21_23  BAL10_23  0.429178732935
    R21_23  BAL11_23  0.527274363978
    R21_23  BAL12_23  0.163673212123
    R21_23  BAL13_23  0.17301522138
    R21_23  BAL18_23  0.707377780428
    R21_23  BAL21_23  0.188834588635
    R21_23  CAP23  1
    R21_24  COST  12.469588814
    R21_24  BAL3_24  0.677797552032
    R21_24  BAL4_24  0.51614398247
    R21_24  BAL5_24  0.296390745498
    R21_24  BAL7_24  0.497998032889
    R21_24  BAL8_24  0.923697726842
    R21_24  BAL10_24  0.429178732935
    R21_24  BAL11_24  0.527274363978
    R21_24  BAL12_24  0.163673212123
    R21_24  BAL13_24  0.17301522138
    R21_24  BAL18_24  0.707377780428
    R21_24  BAL21_24  0.188834588635
    R21_24  CAP24  1
    R21_25  COST  12.469588814
    R21_25  BAL3_25  0.677797552032
    R21_25  BAL4_25  0.51614398247
    R21_25  BAL5_25  0.296390745498
    R21_25  BAL7_25  0.497998032889
    R21_25  BAL8_25  0.923697726842
    R21_25  BAL10_25  0.429178732935
    R21_25  BAL11_25  0.527274363978
    R21_25  BAL12_25  0.163673212123
    R21_25  BAL13_25  0.17301522138
    R21_25  BAL18_25  0.707377780428
    R21_25  BAL21_25  0.188834588635
    R21_25  CAP25  1
    R21_26  COST  12.469588814
    R21_26  BAL3_26  0.677797552032
    R21_26  BAL4_26  0.51614398247
    R21_26  BAL5_26  0.296390745498
    R21_26  BAL7_26  0.497998032889
    R21_26  BAL8_26  0.923697726842
    R21_26  BAL10_26  0.429178732935
    R21_26  BAL11_26  0.527274363978
    R21_26  BAL12_26  0.163673212123
    R21_26  BAL13_26  0.17301522138
    R21_26  BAL18_26  0.707377780428
    R21_26  BAL21_26  0.188834588635
    R21_26  CAP26  1
    R21_27  COST  12.469588814
    R21_27  BAL3_27  0.677797552032
    R21_27  BAL4_27  0.51614398247
    R21_27  BAL5_27  0.296390745498
    R21_27  BAL7_27  0.497998032889
    R21_27  BAL8_27  0.923697726842
    R21_27  BAL10_27  0.429178732935
    R21_27  BAL11_27  0.527274363978
    R21_27  BAL12_27  0.163673212123
    R21_27  BAL13_27  0.17301522138
    R21_27  BAL18_27  0.707377780428
    R21_27  BAL21_27  0.188834588635
    R21_27  CAP27  1
    R21_28  COST  12.469588814
    R21_28  BAL3_28  0.677797552032
    R21_28  BAL4_28  0.51614398247
    R21_28  BAL5_28  0.296390745498
    R21_28  BAL7_28  0.497998032889
    R21_28  BAL8_28  0.923697726842
    R21_28  BAL10_28  0.429178732935
    R21_28  BAL11_28  0.527274363978
    R21_28  BAL12_28  0.163673212123
    R21_28  BAL13_28  0.17301522138
    R21_28  BAL18_28  0.707377780428
    R21_28  BAL21_28  0.188834588635
    R21_28  CAP28  1
    R21_29  COST  12.469588814
    R21_29  BAL3_29  0.677797552032
    R21_29  BAL4_29  0.51614398247
    R21_29  BAL5_29  0.296390745498
    R21_29  BAL7_29  0.497998032889
    R21_29  BAL8_29  0.923697726842
    R21_29  BAL10_29  0.429178732935
    R21_29  BAL11_29  0.527274363978
    R21_29  BAL12_29  0.163673212123
    R21_29  BAL13_29  0.17301522138
    R21_29  BAL18_29  0.707377780428
    R21_29  BAL21_29  0.188834588635
    R21_29  CAP29  1
    R21_30  COST  12.469588814
    R21_30  BAL3_30  0.677797552032
    R21_30  BAL4_30  0.51614398247
    R21_30  BAL5_30  0.296390745498
    R21_30  BAL7_30  0.497998032889
    R21_30  BAL8_30  0.923697726842
    R21_30  BAL10_30  0.429178732935
    R21_30  BAL11_30  0.527274363978
    R21_30  BAL12_30  0.163673212123
    R21_30  BAL13_30  0.17301522138
    R21_30  BAL18_30  0.707377780428
    R21_30  BAL21_30  0.188834588635
    R21_30  CAP30  1
    R21_31  COST  12.469588814
    R21_31  BAL3_31  0.677797552032
    R21_31  BAL4_31  0.51614398247
    R21_31  BAL5_31  0.296390745498
    R21_31  BAL7_31  0.497998032889
    R21_31  BAL8_31  0.923697726842
    R21_31  BAL10_31  0.429178732935
    R21_31  BAL11_31  0.527274363978
    R21_31  BAL12_31  0.163673212123
    R21_31  BAL13_31  0.17301522138
    R21_31  BAL18_31  0.707377780428
    R21_31  BAL21_31  0.188834588635
    R21_31  CAP31  1
    R21_32  COST  12.469588814
    R21_32  BAL3_32  0.677797552032
    R21_32  BAL4_32  0.51614398247
    R21_32  BAL5_32  0.296390745498
    R21_32  BAL7_32  0.497998032889
    R21_32  BAL8_32  0.923697726842
    R21_32  BAL10_32  0.429178732935
    R21_32  BAL11_32  0.527274363978
    R21_32  BAL12_32  0.163673212123
    R21_32  BAL13_32  0.17301522138
    R21_32  BAL18_32  0.707377780428
    R21_32  BAL21_32  0.188834588635
    R21_32  CAP32  1
    R21_33  COST  12.469588814
    R21_33  BAL3_33  0.677797552032
    R21_33  BAL4_33  0.51614398247
    R21_33  BAL5_33  0.296390745498
    R21_33  BAL7_33  0.497998032889
    R21_33  BAL8_33  0.923697726842
    R21_33  BAL10_33  0.429178732935
    R21_33  BAL11_33  0.527274363978
    R21_33  BAL12_33  0.163673212123
    R21_33  BAL13_33  0.17301522138
    R21_33  BAL18_33  0.707377780428
    R21_33  BAL21_33  0.188834588635
    R21_33  CAP33  1
    R21_34  COST  12.469588814
    R21_34  BAL3_34  0.677797552032
    R21_34  BAL4_34  0.51614398247
    R21_34  BAL5_34  0.296390745498
    R21_34  BAL7_34  0.497998032889
    R21_34  BAL8_34  0.923697726842
    R21_34  BAL10_34  0.429178732935
    R21_34  BAL11_34  0.527274363978
    R21_34  BAL12_34  0.163673212123
    R21_34  BAL13_34  0.17301522138
    R21_34  BAL18_34  0.707377780428
    R21_34  BAL21_34  0.188834588635
    R21_34  CAP34  1
    R21_35  COST  12.469588814
    R21_35  BAL3_35  0.677797552032
    R21_35  BAL4_35  0.51614398247
    R21_35  BAL5_35  0.296390745498
    R21_35  BAL7_35  0.497998032889
    R21_35  BAL8_35  0.923697726842
    R21_35  BAL10_35  0.429178732935
    R21_35  BAL11_35  0.527274363978
    R21_35  BAL12_35  0.163673212123
    R21_35  BAL13_35  0.17301522138
    R21_35  BAL18_35  0.707377780428
    R21_35  BAL21_35  0.188834588635
    R21_35  CAP35  1
    R22_0  COST  20.3618020276
    R22_0  BAL2_0  0.444769752033
    R22_0  BAL3_0  0.298748387719
    R22_0  BAL5_0  0.774558816031
    R22_0  BAL6_0  0.934968993196
    R22_0  BAL7_0  0.216091230808
    R22_0  BAL11_0  0.351094413549
    R22_0  BAL14_0  0.405844763709
    R22_0  BAL16_0  0.880187204519
    R22_0  BAL17_0  0.806512493017
    R22_0  BAL20_0  0.320837848587
    R22_0  BAL23_0  0.397023405022
    R22_0  BAL24_0  0.519466746376
    R22_0  BAL27_0  0.430932941559
    R22_0  BAL28_0  0.279367530273
    R22_0  CAP0  1
    R22_1  COST  20.3618020276
    R22_1  BAL2_1  0.444769752033
    R22_1  BAL3_1  0.298748387719
    R22_1  BAL5_1  0.774558816031
    R22_1  BAL6_1  0.934968993196
    R22_1  BAL7_1  0.216091230808
    R22_1  BAL11_1  0.351094413549
    R22_1  BAL14_1  0.405844763709
    R22_1  BAL16_1  0.880187204519
    R22_1  BAL17_1  0.806512493017
    R22_1  BAL20_1  0.320837848587
    R22_1  BAL23_1  0.397023405022
    R22_1  BAL24_1  0.519466746376
    R22_1  BAL27_1  0.430932941559
    R22_1  BAL28_1  0.279367530273
    R22_1  CAP1  1
    R22_2  COST  20.3618020276
    R22_2  BAL2_2  0.444769752033
    R22_2  BAL3_2  0.298748387719
    R22_2  BAL5_2  0.774558816031
    R22_2  BAL6_2  0.934968993196
    R22_2  BAL7_2  0.216091230808
    R22_2  BAL11_2  0.351094413549
    R22_2  BAL14_2  0.405844763709
    R22_2  BAL16_2  0.880187204519
    R22_2  BAL17_2  0.806512493017
    R22_2  BAL20_2  0.320837848587
    R22_2  BAL23_2  0.397023405022
    R22_2  BAL24_2  0.519466746376
    R22_2  BAL27_2  0.430932941559
    R22_2  BAL28_2  0.279367530273
    R22_2  CAP2  1
    R22_3  COST  20.3618020276
    R22_3  BAL2_3  0.444769752033
    R22_3  BAL3_3  0.298748387719
    R22_3  BAL5_3  0.774558816031
    R22_3  BAL6_3  0.934968993196
    R22_3  BAL7_3  0.216091230808
    R22_3  BAL11_3  0.351094413549
    R22_3  BAL14_3  0.405844763709
    R22_3  BAL16_3  0.880187204519
    R22_3  BAL17_3  0.806512493017
    R22_3  BAL20_3  0.320837848587
    R22_3  BAL23_3  0.397023405022
    R22_3  BAL24_3  0.519466746376
    R22_3  BAL27_3  0.430932941559
    R22_3  BAL28_3  0.279367530273
    R22_3  CAP3  1
    R22_4  COST  20.3618020276
    R22_4  BAL2_4  0.444769752033
    R22_4  BAL3_4  0.298748387719
    R22_4  BAL5_4  0.774558816031
    R22_4  BAL6_4  0.934968993196
    R22_4  BAL7_4  0.216091230808
    R22_4  BAL11_4  0.351094413549
    R22_4  BAL14_4  0.405844763709
    R22_4  BAL16_4  0.880187204519
    R22_4  BAL17_4  0.806512493017
    R22_4  BAL20_4  0.320837848587
    R22_4  BAL23_4  0.397023405022
    R22_4  BAL24_4  0.519466746376
    R22_4  BAL27_4  0.430932941559
    R22_4  BAL28_4  0.279367530273
    R22_4  CAP4  1
    R22_5  COST  20.3618020276
    R22_5  BAL2_5  0.444769752033
    R22_5  BAL3_5  0.298748387719
    R22_5  BAL5_5  0.774558816031
    R22_5  BAL6_5  0.934968993196
    R22_5  BAL7_5  0.216091230808
    R22_5  BAL11_5  0.351094413549
    R22_5  BAL14_5  0.405844763709
    R22_5  BAL16_5  0.880187204519
    R22_5  BAL17_5  0.806512493017
    R22_5  BAL20_5  0.320837848587
    R22_5  BAL23_5  0.397023405022
    R22_5  BAL24_5  0.519466746376
    R22_5  BAL27_5  0.430932941559
    R22_5  BAL28_5  0.279367530273
    R22_5  CAP5  1
    R22_6  COST  20.3618020276
    R22_6  BAL2_6  0.444769752033
    R22_6  BAL3_6  0.298748387719
    R22_6  BAL5_6  0.774558816031
    R22_6  BAL6_6  0.934968993196
    R22_6  BAL7_6  0.216091230808
    R22_6  BAL11_6  0.351094413549
    R22_6  BAL14_6  0.405844763709
    R22_6  BAL16_6  0.880187204519
    R22_6  BAL17_6  0.806512493017
    R22_6  BAL20_6  0.320837848587
    R22_6  BAL23_6  0.397023405022
    R22_6  BAL24_6  0.519466746376
    R22_6  BAL27_6  0.430932941559
    R22_6  BAL28_6  0.279367530273
    R22_6  CAP6  1
    R22_7  COST  20.3618020276
    R22_7  BAL2_7  0.444769752033
    R22_7  BAL3_7  0.298748387719
    R22_7  BAL5_7  0.774558816031
    R22_7  BAL6_7  0.934968993196
    R22_7  BAL7_7  0.216091230808
    R22_7  BAL11_7  0.351094413549
    R22_7  BAL14_7  0.405844763709
    R22_7  BAL16_7  0.880187204519
    R22_7  BAL17_7  0.806512493017
    R22_7  BAL20_7  0.320837848587
    R22_7  BAL23_7  0.397023405022
    R22_7  BAL24_7  0.519466746376
    R22_7  BAL27_7  0.430932941559
    R22_7  BAL28_7  0.279367530273
    R22_7  CAP7  1
    R22_8  COST  20.3618020276
    R22_8  BAL2_8  0.444769752033
    R22_8  BAL3_8  0.298748387719
    R22_8  BAL5_8  0.774558816031
    R22_8  BAL6_8  0.934968993196
    R22_8  BAL7_8  0.216091230808
    R22_8  BAL11_8  0.351094413549
    R22_8  BAL14_8  0.405844763709
    R22_8  BAL16_8  0.880187204519
    R22_8  BAL17_8  0.806512493017
    R22_8  BAL20_8  0.320837848587
    R22_8  BAL23_8  0.397023405022
    R22_8  BAL24_8  0.519466746376
    R22_8  BAL27_8  0.430932941559
    R22_8  BAL28_8  0.279367530273
    R22_8  CAP8  1
    R22_9  COST  20.3618020276
    R22_9  BAL2_9  0.444769752033
    R22_9  BAL3_9  0.298748387719
    R22_9  BAL5_9  0.774558816031
    R22_9  BAL6_9  0.934968993196
    R22_9  BAL7_9  0.216091230808
    R22_9  BAL11_9  0.351094413549
    R22_9  BAL14_9  0.405844763709
    R22_9  BAL16_9  0.880187204519
    R22_9  BAL17_9  0.806512493017
    R22_9  BAL20_9  0.320837848587
    R22_9  BAL23_9  0.397023405022
    R22_9  BAL24_9  0.519466746376
    R22_9  BAL27_9  0.430932941559
    R22_9  BAL28_9  0.279367530273
    R22_9  CAP9  1
    R22_10  COST  20.3618020276
    R22_10  BAL2_10  0.444769752033
    R22_10  BAL3_10  0.298748387719
    R22_10  BAL5_10  0.774558816031
    R22_10  BAL6_10  0.934968993196
    R22_10  BAL7_10  0.216091230808
    R22_10  BAL11_10  0.351094413549
    R22_10  BAL14_10  0.405844763709
    R22_10  BAL16_10  0.880187204519
    R22_10  BAL17_10  0.806512493017
    R22_10  BAL20_10  0.320837848587
    R22_10  BAL23_10  0.397023405022
    R22_10  BAL24_10  0.519466746376
    R22_10  BAL27_10  0.430932941559
    R22_10  BAL28_10  0.279367530273
    R22_10  CAP10  1
    R22_11  COST  20.3618020276
    R22_11  BAL2_11  0.444769752033
    R22_11  BAL3_11  0.298748387719
    R22_11  BAL5_11  0.774558816031
    R22_11  BAL6_11  0.934968993196
    R22_11  BAL7_11  0.216091230808
    R22_11  BAL11_11  0.351094413549
    R22_11  BAL14_11  0.405844763709
    R22_11  BAL16_11  0.880187204519
    R22_11  BAL17_11  0.806512493017
    R22_11  BAL20_11  0.320837848587
    R22_11  BAL23_11  0.397023405022
    R22_11  BAL24_11  0.519466746376
    R22_11  BAL27_11  0.430932941559
    R22_11  BAL28_11  0.279367530273
    R22_11  CAP11  1
    R22_12  COST  20.3618020276
    R22_12  BAL2_12  0.444769752033
    R22_12  BAL3_12  0.298748387719
    R22_12  BAL5_12  0.774558816031
    R22_12  BAL6_12  0.934968993196
    R22_12  BAL7_12  0.216091230808
    R22_12  BAL11_12  0.351094413549
    R22_12  BAL14_12  0.405844763709
    R22_12  BAL16_12  0.880187204519
    R22_12  BAL17_12  0.806512493017
    R22_12  BAL20_12  0.320837848587
    R22_12  BAL23_12  0.397023405022
    R22_12  BAL24_12  0.519466746376
    R22_12  BAL27_12  0.430932941559
    R22_12  BAL28_12  0.279367530273
    R22_12  CAP12  1
    R22_13  COST  20.3618020276
    R22_13  BAL2_13  0.444769752033
    R22_13  BAL3_13  0.298748387719
    R22_13  BAL5_13  0.774558816031
    R22_13  BAL6_13  0.934968993196
    R22_13  BAL7_13  0.216091230808
    R22_13  BAL11_13  0.351094413549
    R22_13  BAL14_13  0.405844763709
    R22_13  BAL16_13  0.880187204519
    R22_13  BAL17_13  0.806512493017
    R22_13  BAL20_13  0.320837848587
    R22_13  BAL23_13  0.397023405022
    R22_13  BAL24_13  0.519466746376
    R22_13  BAL27_13  0.430932941559
    R22_13  BAL28_13  0.279367530273
    R22_13  CAP13  1
    R22_14  COST  20.3618020276
    R22_14  BAL2_14  0.444769752033
    R22_14  BAL3_14  0.298748387719
    R22_14  BAL5_14  0.774558816031
    R22_14  BAL6_14  0.934968993196
    R22_14  BAL7_14  0.216091230808
    R22_14  BAL11_14  0.351094413549
    R22_14  BAL14_14  0.405844763709
    R22_14  BAL16_14  0.880187204519
    R22_14  BAL17_14  0.806512493017
    R22_14  BAL20_14  0.320837848587
    R22_14  BAL23_14  0.397023405022
    R22_14  BAL24_14  0.519466746376
    R22_14  BAL27_14  0.430932941559
    R22_14  BAL28_14  0.279367530273
    R22_14  CAP14  1
    R22_15  COST  20.3618020276
    R22_15  BAL2_15  0.444769752033
    R22_15  BAL3_15  0.298748387719
    R22_15  BAL5_15  0.774558816031
    R22_15  BAL6_15  0.934968993196
    R22_15  BAL7_15  0.216091230808
    R22_15  BAL11_15  0.351094413549
    R22_15  BAL14_15  0.405844763709
    R22_15  BAL16_15  0.880187204519
    R22_15  BAL17_15  0.806512493017
    R22_15  BAL20_15  0.320837848587
    R22_15  BAL23_15  0.397023405022
    R22_15  BAL24_15  0.519466746376
    R22_15  BAL27_15  0.430932941559
    R22_15  BAL28_15  0.279367530273
    R22_15  CAP15  1
    R22_16  COST  20.3618020276
    R22_16  BAL2_16  0.444769752033
    R22_16  BAL3_16  0.298748387719
    R22_16  BAL5_16  0.774558816031
    R22_16  BAL6_16  0.934968993196
    R22_16  BAL7_16  0.216091230808
    R22_16  BAL11_16  0.351094413549
    R22_16  BAL14_16  0.405844763709
    R22_16  BAL16_16  0.880187204519
    R22_16  BAL17_16  0.806512493017
    R22_16  BAL20_16  0.320837848587
    R22_16  BAL23_16  0.397023405022
    R22_16  BAL24_16  0.519466746376
    R22_16  BAL27_16  0.430932941559
    R22_16  BAL28_16  0.279367530273
    R22_16  CAP16  1
    R22_17  COST  20.3618020276
    R22_17  BAL2_17  0.444769752033
    R22_17  BAL3_17  0.298748387719
    R22_17  BAL5_17  0.774558816031
    R22_17  BAL6_17  0.934968993196
    R22_17  BAL7_17  0.216091230808
    R22_17  BAL11_17  0.351094413549
    R22_17  BAL14_17  0.405844763709
    R22_17  BAL16_17  0.880187204519
    R22_17  BAL17_17  0.806512493017
    R22_17  BAL20_17  0.320837848587
    R22_17  BAL23_17  0.397023405022
    R22_17  BAL24_17  0.519466746376
    R22_17  BAL27_17  0.430932941559
    R22_17  BAL28_17  0.279367530273
    R22_17  CAP17  1
    R22_18  COST  20.3618020276
    R22_18  BAL2_18  0.444769752033
    R22_18  BAL3_18  0.298748387719
    R22_18  BAL5_18  0.774558816031
    R22_18  BAL6_18  0.934968993196
    R22_18  BAL7_18  0.216091230808
    R22_18  BAL11_18  0.351094413549
    R22_18  BAL14_18  0.405844763709
    R22_18  BAL16_18  0.880187204519
    R22_18  BAL17_18  0.806512493017
    R22_18  BAL20_18  0.320837848587
    R22_18  BAL23_18  0.397023405022
    R22_18  BAL24_18  0.519466746376
    R22_18  BAL27_18  0.430932941559
    R22_18  BAL28_18  0.279367530273
    R22_18  CAP18  1
    R22_19  COST  20.3618020276
    R22_19  BAL2_19  0.444769752033
    R22_19  BAL3_19  0.298748387719
    R22_19  BAL5_19  0.774558816031
    R22_19  BAL6_19  0.934968993196
    R22_19  BAL7_19  0.216091230808
    R22_19  BAL11_19  0.351094413549
    R22_19  BAL14_19  0.405844763709
    R22_19  BAL16_19  0.880187204519
    R22_19  BAL17_19  0.806512493017
    R22_19  BAL20_19  0.320837848587
    R22_19  BAL23_19  0.397023405022
    R22_19  BAL24_19  0.519466746376
    R22_19  BAL27_19  0.430932941559
    R22_19  BAL28_19  0.279367530273
    R22_19  CAP19  1
    R22_20  COST  20.3618020276
    R22_20  BAL2_20  0.444769752033
    R22_20  BAL3_20  0.298748387719
    R22_20  BAL5_20  0.774558816031
    R22_20  BAL6_20  0.934968993196
    R22_20  BAL7_20  0.216091230808
    R22_20  BAL11_20  0.351094413549
    R22_20  BAL14_20  0.405844763709
    R22_20  BAL16_20  0.880187204519
    R22_20  BAL17_20  0.806512493017
    R22_20  BAL20_20  0.320837848587
    R22_20  BAL23_20  0.397023405022
    R22_20  BAL24_20  0.519466746376
    R22_20  BAL27_20  0.430932941559
    R22_20  BAL28_20  0.279367530273
    R22_20  CAP20  1
    R22_21  COST  20.3618020276
    R22_21  BAL2_21  0.444769752033
    R22_21  BAL3_21  0.298748387719
    R22_21  BAL5_21  0.774558816031
    R22_21  BAL6_21  0.934968993196
    R22_21  BAL7_21  0.216091230808
    R22_21  BAL11_21  0.351094413549
    R22_21  BAL14_21  0.405844763709
    R22_21  BAL16_21  0.880187204519
    R22_21  BAL17_21  0.806512493017
    R22_21  BAL20_21  0.320837848587
    R22_21  BAL23_21  0.397023405022
    R22_21  BAL24_21  0.519466746376
    R22_21  BAL27_21  0.430932941559
    R22_21  BAL28_21  0.279367530273
    R22_21  CAP21  1
    R22_22  COST  20.3618020276
    R22_22  BAL2_22  0.444769752033
    R22_22  BAL3_22  0.298748387719
    R22_22  BAL5_22  0.774558816031
    R22_22  BAL6_22  0.934968993196
    R22_22  BAL7_22  0.216091230808
    R22_22  BAL11_22  0.351094413549
    R22_22  BAL14_22  0.405844763709
    R22_22  BAL16_22  0.880187204519
    R22_22  BAL17_22  0.806512493017
    R22_22  BAL20_22  0.320837848587
    R22_22  BAL23_22  0.397023405022
    R22_22  BAL24_22  0.519466746376
    R22_22  BAL27_22  0.430932941559
    R22_22  BAL28_22  0.279367530273
    R22_22  CAP22  1
    R22_23  COST  20.3618020276
    R22_23  BAL2_23  0.444769752033
    R22_23  BAL3_23  0.298748387719
    R22_23  BAL5_23  0.774558816031
    R22_23  BAL6_23  0.934968993196
    R22_23  BAL7_23  0.216091230808
    R22_23  BAL11_23  0.351094413549
    R22_23  BAL14_23  0.405844763709
    R22_23  BAL16_23  0.880187204519
    R22_23  BAL17_23  0.806512493017
    R22_23  BAL20_23  0.320837848587
    R22_23  BAL23_23  0.397023405022
    R22_23  BAL24_23  0.519466746376
    R22_23  BAL27_23  0.430932941559
    R22_23  BAL28_23  0.279367530273
    R22_23  CAP23  1
    R22_24  COST  20.3618020276
    R22_24  BAL2_24  0.444769752033
    R22_24  BAL3_24  0.298748387719
    R22_24  BAL5_24  0.774558816031
    R22_24  BAL6_24  0.934968993196
    R22_24  BAL7_24  0.216091230808
    R22_24  BAL11_24  0.351094413549
    R22_24  BAL14_24  0.405844763709
    R22_24  BAL16_24  0.880187204519
    R22_24  BAL17_24  0.806512493017
    R22_24  BAL20_24  0.320837848587
    R22_24  BAL23_24  0.397023405022
    R22_24  BAL24_24  0.519466746376
    R22_24  BAL27_24  0.430932941559
    R22_24  BAL28_24  0.279367530273
    R22_24  CAP24  1
    R22_25  COST  20.3618020276
    R22_25  BAL2_25  0.444769752033
    R22_25  BAL3_25  0.298748387719
    R22_25  BAL5_25  0.774558816031
    R22_25  BAL6_25  0.934968993196
    R22_25  BAL7_25  0.216091230808
    R22_25  BAL11_25  0.351094413549
    R22_25  BAL14_25  0.405844763709
    R22_25  BAL16_25  0.880187204519
    R22_25  BAL17_25  0.806512493017
    R22_25  BAL20_25  0.320837848587
    R22_25  BAL23_25  0.397023405022
    R22_25  BAL24_25  0.519466746376
    R22_25  BAL27_25  0.430932941559
    R22_25  BAL28_25  0.279367530273
    R22_25  CAP25  1
    R22_26  COST  20.3618020276
    R22_26  BAL2_26  0.444769752033
    R22_26  BAL3_26  0.298748387719
    R22_26  BAL5_26  0.774558816031
    R22_26  BAL6_26  0.934968993196
    R22_26  BAL7_26  0.216091230808
    R22_26  BAL11_26  0.351094413549
    R22_26  BAL14_26  0.405844763709
    R22_26  BAL16_26  0.880187204519
    R22_26  BAL17_26  0.806512493017
    R22_26  BAL20_26  0.320837848587
    R22_26  BAL23_26  0.397023405022
    R22_26  BAL24_26  0.519466746376
    R22_26  BAL27_26  0.430932941559
    R22_26  BAL28_26  0.279367530273
    R22_26  CAP26  1
    R22_27  COST  20.3618020276
    R22_27  BAL2_27  0.444769752033
    R22_27  BAL3_27  0.298748387719
    R22_27  BAL5_27  0.774558816031
    R22_27  BAL6_27  0.934968993196
    R22_27  BAL7_27  0.216091230808
    R22_27  BAL11_27  0.351094413549
    R22_27  BAL14_27  0.405844763709
    R22_27  BAL16_27  0.880187204519
    R22_27  BAL17_27  0.806512493017
    R22_27  BAL20_27  0.320837848587
    R22_27  BAL23_27  0.397023405022
    R22_27  BAL24_27  0.519466746376
    R22_27  BAL27_27  0.430932941559
    R22_27  BAL28_27  0.279367530273
    R22_27  CAP27  1
    R22_28  COST  20.3618020276
    R22_28  BAL2_28  0.444769752033
    R22_28  BAL3_28  0.298748387719
    R22_28  BAL5_28  0.774558816031
    R22_28  BAL6_28  0.934968993196
    R22_28  BAL7_28  0.216091230808
    R22_28  BAL11_28  0.351094413549
    R22_28  BAL14_28  0.405844763709
    R22_28  BAL16_28  0.880187204519
    R22_28  BAL17_28  0.806512493017
    R22_28  BAL20_28  0.320837848587
    R22_28  BAL23_28  0.397023405022
    R22_28  BAL24_28  0.519466746376
    R22_28  BAL27_28  0.430932941559
    R22_28  BAL28_28  0.279367530273
    R22_28  CAP28  1
    R22_29  COST  20.3618020276
    R22_29  BAL2_29  0.444769752033
    R22_29  BAL3_29  0.298748387719
    R22_29  BAL5_29  0.774558816031
    R22_29  BAL6_29  0.934968993196
    R22_29  BAL7_29  0.216091230808
    R22_29  BAL11_29  0.351094413549
    R22_29  BAL14_29  0.405844763709
    R22_29  BAL16_29  0.880187204519
    R22_29  BAL17_29  0.806512493017
    R22_29  BAL20_29  0.320837848587
    R22_29  BAL23_29  0.397023405022
    R22_29  BAL24_29  0.519466746376
    R22_29  BAL27_29  0.430932941559
    R22_29  BAL28_29  0.279367530273
    R22_29  CAP29  1
    R22_30  COST  20.3618020276
    R22_30  BAL2_30  0.444769752033
    R22_30  BAL3_30  0.298748387719
    R22_30  BAL5_30  0.774558816031
    R22_30  BAL6_30  0.934968993196
    R22_30  BAL7_30  0.216091230808
    R22_30  BAL11_30  0.351094413549
    R22_30  BAL14_30  0.405844763709
    R22_30  BAL16_30  0.880187204519
    R22_30  BAL17_30  0.806512493017
    R22_30  BAL20_30  0.320837848587
    R22_30  BAL23_30  0.397023405022
    R22_30  BAL24_30  0.519466746376
    R22_30  BAL27_30  0.430932941559
    R22_30  BAL28_30  0.279367530273
    R22_30  CAP30  1
    R22_31  COST  20.3618020276
    R22_31  BAL2_31  0.444769752033
    R22_31  BAL3_31  0.298748387719
    R22_31  BAL5_31  0.774558816031
    R22_31  BAL6_31  0.934968993196
    R22_31  BAL7_31  0.216091230808
    R22_31  BAL11_31  0.351094413549
    R22_31  BAL14_31  0.405844763709
    R22_31  BAL16_31  0.880187204519
    R22_31  BAL17_31  0.806512493017
    R22_31  BAL20_31  0.320837848587
    R22_31  BAL23_31  0.397023405022
    R22_31  BAL24_31  0.519466746376
    R22_31  BAL27_31  0.430932941559
    R22_31  BAL28_31  0.279367530273
    R22_31  CAP31  1
    R22_32  COST  20.3618020276
    R22_32  BAL2_32  0.444769752033
    R22_32  BAL3_32  0.298748387719
    R22_32  BAL5_32  0.774558816031
    R22_32  BAL6_32  0.934968993196
    R22_32  BAL7_32  0.216091230808
    R22_32  BAL11_32  0.351094413549
    R22_32  BAL14_32  0.405844763709
    R22_32  BAL16_32  0.880187204519
    R22_32  BAL17_32  0.806512493017
    R22_32  BAL20_32  0.320837848587
    R22_32  BAL23_32  0.397023405022
    R22_32  BAL24_32  0.519466746376
    R22_32  BAL27_32  0.430932941559
    R22_32  BAL28_32  0.279367530273
    R22_32  CAP32  1
    R22_33  COST  20.3618020276
    R22_33  BAL2_33  0.444769752033
    R22_33  BAL3_33  0.298748387719
    R22_33  BAL5_33  0.774558816031
    R22_33  BAL6_33  0.934968993196
    R22_33  BAL7_33  0.216091230808
    R22_33  BAL11_33  0.351094413549
    R22_33  BAL14_33  0.405844763709
    R22_33  BAL16_33  0.880187204519
    R22_33  BAL17_33  0.806512493017
    R22_33  BAL20_33  0.320837848587
    R22_33  BAL23_33  0.397023405022
    R22_33  BAL24_33  0.519466746376
    R22_33  BAL27_33  0.430932941559
    R22_33  BAL28_33  0.279367530273
    R22_33  CAP33  1
    R22_34  COST  20.3618020276
    R22_34  BAL2_34  0.444769752033
    R22_34  BAL3_34  0.298748387719
    R22_34  BAL5_34  0.774558816031
    R22_34  BAL6_34  0.934968993196
    R22_34  BAL7_34  0.216091230808
    R22_34  BAL11_34  0.351094413549
    R22_34  BAL14_34  0.405844763709
    R22_34  BAL16_34  0.880187204519
    R22_34  BAL17_34  0.806512493017
    R22_34  BAL20_34  0.320837848587
    R22_34  BAL23_34  0.397023405022
    R22_34  BAL24_34  0.519466746376
    R22_34  BAL27_34  0.430932941559
    R22_34  BAL28_34  0.279367530273
    R22_34  CAP34  1
    R22_35  COST  20.3618020276
    R22_35  BAL2_35  0.444769752033
    R22_35  BAL3_35  0.298748387719
    R22_35  BAL5_35  0.774558816031
    R22_35  BAL6_35  0.934968993196
    R22_35  BAL7_35  0.216091230808
    R22_35  BAL11_35  0.351094413549
    R22_35  BAL14_35  0.405844763709
    R22_35  BAL16_35  0.880187204519
    R22_35  BAL17_35  0.806512493017
    R22_35  BAL20_35  0.320837848587
    R22_35  BAL23_35  0.397023405022
    R22_35  BAL24_35  0.519466746376
    R22_35  BAL27_35  0.430932941559
    R22_35  BAL28_35  0.279367530273
    R22_35  CAP35  1
    R23_0  COST  7.67843429058
    R23_0  BAL1_0  0.52610009893
    R23_0  BAL8_0  0.758947114538
    R23_0  BAL15_0  0.695337992893
    R23_0  BAL17_0  0.883788174258
    R23_0  BAL22_0  0.453793514629
    R23_0  BAL24_0  0.898488780207
    R23_0  BAL25_0  0.31338236657
    R23_0  BAL26_0  0.839984801285
    R23_0  BAL29_0  0.765328845627
    R23_0  CAP0  1
    R23_1  COST  7.67843429058
    R23_1  BAL1_1  0.52610009893
    R23_1  BAL8_1  0.758947114538
    R23_1  BAL15_1  0.695337992893
    R23_1  BAL17_1  0.883788174258
    R23_1  BAL22_1  0.453793514629
    R23_1  BAL24_1  0.898488780207
    R23_1  BAL25_1  0.31338236657
    R23_1  BAL26_1  0.839984801285
    R23_1  BAL29_1  0.765328845627
    R23_1  CAP1  1
    R23_2  COST  7.67843429058
    R23_2  BAL1_2  0.52610009893
    R23_2  BAL8_2  0.758947114538
    R23_2  BAL15_2  0.695337992893
    R23_2  BAL17_2  0.883788174258
    R23_2  BAL22_2  0.453793514629
    R23_2  BAL24_2  0.898488780207
    R23_2  BAL25_2  0.31338236657
    R23_2  BAL26_2  0.839984801285
    R23_2  BAL29_2  0.765328845627
    R23_2  CAP2  1
    R23_3  COST  7.67843429058
    R23_3  BAL1_3  0.52610009893
    R23_3  BAL8_3  0.758947114538
    R23_3  BAL15_3  0.695337992893
    R23_3  BAL17_3  0.883788174258
    R23_3  BAL22_3  0.453793514629
    R23_3  BAL24_3  0.898488780207
    R23_3  BAL25_3  0.31338236657
    R23_3  BAL26_3  0.839984801285
    R23_3  BAL29_3  0.765328845627
    R23_3  CAP3  1
    R23_4  COST  7.67843429058
    R23_4  BAL1_4  0.52610009893
    R23_4  BAL8_4  0.758947114538
    R23_4  BAL15_4  0.695337992893
    R23_4  BAL17_4  0.883788174258
    R23_4  BAL22_4  0.453793514629
    R23_4  BAL24_4  0.898488780207
    R23_4  BAL25_4  0.31338236657
    R23_4  BAL26_4  0.839984801285
    R23_4  BAL29_4  0.765328845627
    R23_4  CAP4  1
    R23_5  COST  7.67843429058
    R23_5  BAL1_5  0.52610009893
    R23_5  BAL8_5  0.758947114538
    R23_5  BAL15_5  0.695337992893
    R23_5  BAL17_5  0.883788174258
    R23_5  BAL22_5  0.453793514629
    R23_5  BAL24_5  0.898488780207
    R23_5  BAL25_5  0.31338236657
    R23_5  BAL26_5  0.839984801285
    R23_5  BAL29_5  0.765328845627
    R23_5  CAP5  1
    R23_6  COST  7.67843429058
    R23_6  BAL1_6  0.52610009893
    R23_6  BAL8_6  0.758947114538
    R23_6  BAL15_6  0.695337992893
    R23_6  BAL17_6  0.883788174258
    R23_6  BAL22_6  0.453793514629
    R23_6  BAL24_6  0.898488780207
    R23_6  BAL25_6  0.31338236657
    R23_6  BAL26_6  0.839984801285
    R23_6  BAL29_6  0.765328845627
    R23_6  CAP6  1
    R23_7  COST  7.67843429058
    R23_7  BAL1_7  0.52610009893
    R23_7  BAL8_7  0.758947114538
    R23_7  BAL15_7  0.695337992893
    R23_7  BAL17_7  0.883788174258
    R23_7  BAL22_7  0.453793514629
    R23_7  BAL24_7  0.898488780207
    R23_7  BAL25_7  0.31338236657
    R23_7  BAL26_7  0.839984801285
    R23_7  BAL29_7  0.765328845627
    R23_7  CAP7  1
    R23_8  COST  7.67843429058
    R23_8  BAL1_8  0.52610009893
    R23_8  BAL8_8  0.758947114538
    R23_8  BAL15_8  0.695337992893
    R23_8  BAL17_8  0.883788174258
    R23_8  BAL22_8  0.453793514629
    R23_8  BAL24_8  0.898488780207
    R23_8  BAL25_8  0.31338236657
    R23_8  BAL26_8  0.839984801285
    R23_8  BAL29_8  0.765328845627
    R23_8  CAP8  1
    R23_9  COST  7.67843429058
    R23_9  BAL1_9  0.52610009893
    R23_9  BAL8_9  0.758947114538
    R23_9  BAL15_9  0.695337992893
    R23_9  BAL17_9  0.883788174258
    R23_9  BAL22_9  0.453793514629
    R23_9  BAL24_9  0.898488780207
    R23_9  BAL25_9  0.31338236657
    R23_9  BAL26_9  0.839984801285
    R23_9  BAL29_9  0.765328845627
    R23_9  CAP9  1
    R23_10  COST  7.67843429058
    R23_10  BAL1_10  0.52610009893
    R23_10  BAL8_10  0.758947114538
    R23_10  BAL15_10  0.695337992893
    R23_10  BAL17_10  0.883788174258
    R23_10  BAL22_10  0.453793514629
    R23_10  BAL24_10  0.898488780207
    R23_10  BAL25_10  0.31338236657
    R23_10  BAL26_10  0.839984801285
    R23_10  BAL29_10  0.765328845627
    R23_10  CAP10  1
    R23_11  COST  7.67843429058
    R23_11  BAL1_11  0.52610009893
    R23_11  BAL8_11  0.758947114538
    R23_11  BAL15_11  0.695337992893
    R23_11  BAL17_11  0.883788174258
    R23_11  BAL22_11  0.453793514629
    R23_11  BAL24_11  0.898488780207
    R23_11  BAL25_11  0.31338236657
    R23_11  BAL26_11  0.839984801285
    R23_11  BAL29_11  0.765328845627
    R23_11  CAP11  1
    R23_12  COST  7.67843429058
    R23_12  BAL1_12  0.52610009893
    R23_12  BAL8_12  0.758947114538
    R23_12  BAL15_12  0.695337992893
    R23_12  BAL17_12  0.883788174258
    R23_12  BAL22_12  0.453793514629
    R23_12  BAL24_12  0.898488780207
    R23_12  BAL25_12  0.31338236657
    R23_12  BAL26_12  0.839984801285
    R23_12  BAL29_12  0.765328845627
    R23_12  CAP12  1
    R23_13  COST  7.67843429058
    R23_13  BAL1_13  0.52610009893
    R23_13  BAL8_13  0.758947114538
    R23_13  BAL15_13  0.695337992893
    R23_13  BAL17_13  0.883788174258
    R23_13  BAL22_13  0.453793514629
    R23_13  BAL24_13  0.898488780207
    R23_13  BAL25_13  0.31338236657
    R23_13  BAL26_13  0.839984801285
    R23_13  BAL29_13  0.765328845627
    R23_13  CAP13  1
    R23_14  COST  7.67843429058
    R23_14  BAL1_14  0.52610009893
    R23_14  BAL8_14  0.758947114538
    R23_14  BAL15_14  0.695337992893
    R23_14  BAL17_14  0.883788174258
    R23_14  BAL22_14  0.453793514629
    R23_14  BAL24_14  0.898488780207
    R23_14  BAL25_14  0.31338236657
    R23_14  BAL26_14  0.839984801285
    R23_14  BAL29_14  0.765328845627
    R23_14  CAP14  1
    R23_15  COST  7.67843429058
    R23_15  BAL1_15  0.52610009893
    R23_15  BAL8_15  0.758947114538
    R23_15  BAL15_15  0.695337992893
    R23_15  BAL17_15  0.883788174258
    R23_15  BAL22_15  0.453793514629
    R23_15  BAL24_15  0.898488780207
    R23_15  BAL25_15  0.31338236657
    R23_15  BAL26_15  0.839984801285
    R23_15  BAL29_15  0.765328845627
    R23_15  CAP15  1
    R23_16  COST  7.67843429058
    R23_16  BAL1_16  0.52610009893
    R23_16  BAL8_16  0.758947114538
    R23_16  BAL15_16  0.695337992893
    R23_16  BAL17_16  0.883788174258
    R23_16  BAL22_16  0.453793514629
    R23_16  BAL24_16  0.898488780207
    R23_16  BAL25_16  0.31338236657
    R23_16  BAL26_16  0.839984801285
    R23_16  BAL29_16  0.765328845627
    R23_16  CAP16  1
    R23_17  COST  7.67843429058
    R23_17  BAL1_17  0.52610009893
    R23_17  BAL8_17  0.758947114538
    R23_17  BAL15_17  0.695337992893
    R23_17  BAL17_17  0.883788174258
    R23_17  BAL22_17  0.453793514629
    R23_17  BAL24_17  0.898488780207
    R23_17  BAL25_17  0.31338236657
    R23_17  BAL26_17  0.839984801285
    R23_17  BAL29_17  0.765328845627
    R23_17  CAP17  1
    R23_18  COST  7.67843429058
    R23_18  BAL1_18  0.52610009893
    R23_18  BAL8_18  0.758947114538
    R23_18  BAL15_18  0.695337992893
    R23_18  BAL17_18  0.883788174258
    R23_18  BAL22_18  0.453793514629
    R23_18  BAL24_18  0.898488780207
    R23_18  BAL25_18  0.31338236657
    R23_18  BAL26_18  0.839984801285
    R23_18  BAL29_18  0.765328845627
    R23_18  CAP18  1
    R23_19  COST  7.67843429058
    R23_19  BAL1_19  0.52610009893
    R23_19  BAL8_19  0.758947114538
    R23_19  BAL15_19  0.695337992893
    R23_19  BAL17_19  0.883788174258
    R23_19  BAL22_19  0.453793514629
    R23_19  BAL24_19  0.898488780207
    R23_19  BAL25_19  0.31338236657
    R23_19  BAL26_19  0.839984801285
    R23_19  BAL29_19  0.765328845627
    R23_19  CAP19  1
    R23_20  COST  7.67843429058
    R23_20  BAL1_20  0.52610009893
    R23_20  BAL8_20  0.758947114538
    R23_20  BAL15_20  0.695337992893
    R23_20  BAL17_20  0.883788174258
    R23_20  BAL22_20  0.453793514629
    R23_20  BAL24_20  0.898488780207
    R23_20  BAL25_20  0.31338236657
    R23_20  BAL26_20  0.839984801285
    R23_20  BAL29_20  0.765328845627
    R23_20  CAP20  1
    R23_21  COST  7.67843429058
    R23_21  BAL1_21  0.52610009893
    R23_21  BAL8_21  0.758947114538
    R23_21  BAL15_21  0.695337992893
    R23_21  BAL17_21  0.883788174258
    R23_21  BAL22_21  0.453793514629
    R23_21  BAL24_21  0.898488780207
    R23_21  BAL25_21  0.31338236657
    R23_21  BAL26_21  0.839984801285
    R23_21  BAL29_21  0.765328845627
    R23_21  CAP21  1
    R23_22  COST  7.67843429058
    R23_22  BAL1_22  0.52610009893
    R23_22  BAL8_22  0.758947114538
    R23_22  BAL15_22  0.695337992893
    R23_22  BAL17_22  0.883788174258
    R23_22  BAL22_22  0.453793514629
    R23_22  BAL24_22  0.898488780207
    R23_22  BAL25_22  0.31338236657
    R23_22  BAL26_22  0.839984801285
    R23_22  BAL29_22  0.765328845627
    R23_22  CAP22  1
    R23_23  COST  7.67843429058
    R23_23  BAL1_23  0.52610009893
    R23_23  BAL8_23  0.758947114538
    R23_23  BAL15_23  0.695337992893
    R23_23  BAL17_23  0.883788174258
    R23_23  BAL22_23  0.453793514629
    R23_23  BAL24_23  0.898488780207
    R23_23  BAL25_23  0.31338236657
    R23_23  BAL26_23  0.839984801285
    R23_23  BAL29_23  0.765328845627
    R23_23  CAP23  1
    R23_24  COST  7.67843429058
    R23_24  BAL1_24  0.52610009893
    R23_24  BAL8_24  0.758947114538
    R23_24  BAL15_24  0.695337992893
    R23_24  BAL17_24  0.883788174258
    R23_24  BAL22_24  0.453793514629
    R23_24  BAL24_24  0.898488780207
    R23_24  BAL25_24  0.31338236657
    R23_24  BAL26_24  0.839984801285
    R23_24  BAL29_24  0.765328845627
    R23_24  CAP24  1
    R23_25  COST  7.67843429058
    R23_25  BAL1_25  0.52610009893
    R23_25  BAL8_25  0.758947114538
    R23_25  BAL15_25  0.695337992893
    R23_25  BAL17_25  0.883788174258
    R23_25  BAL22_25  0.453793514629
    R23_25  BAL24_25  0.898488780207
    R23_25  BAL25_25  0.31338236657
    R23_25  BAL26_25  0.839984801285
    R23_25  BAL29_25  0.765328845627
    R23_25  CAP25  1
    R23_26  COST  7.67843429058
    R23_26  BAL1_26  0.52610009893
    R23_26  BAL8_26  0.758947114538
    R23_26  BAL15_26  0.695337992893
    R23_26  BAL17_26  0.883788174258
    R23_26  BAL22_26  0.453793514629
    R23_26  BAL24_26  0.898488780207
    R23_26  BAL25_26  0.31338236657
    R23_26  BAL26_26  0.839984801285
    R23_26  BAL29_26  0.765328845627
    R23_26  CAP26  1
    R23_27  COST  7.67843429058
    R23_27  BAL1_27  0.52610009893
    R23_27  BAL8_27  0.758947114538
    R23_27  BAL15_27  0.695337992893
    R23_27  BAL17_27  0.883788174258
    R23_27  BAL22_27  0.453793514629
    R23_27  BAL24_27  0.898488780207
    R23_27  BAL25_27  0.31338236657
    R23_27  BAL26_27  0.839984801285
    R23_27  BAL29_27  0.765328845627
    R23_27  CAP27  1
    R23_28  COST  7.67843429058
    R23_28  BAL1_28  0.52610009893
    R23_28  BAL8_28  0.758947114538
    R23_28  BAL15_28  0.695337992893
    R23_28  BAL17_28  0.883788174258
    R23_28  BAL22_28  0.453793514629
    R23_28  BAL24_28  0.898488780207
    R23_28  BAL25_28  0.31338236657
    R23_28  BAL26_28  0.839984801285
    R23_28  BAL29_28  0.765328845627
    R23_28  CAP28  1
    R23_29  COST  7.67843429058
    R23_29  BAL1_29  0.52610009893
    R23_29  BAL8_29  0.758947114538
    R23_29  BAL15_29  0.695337992893
    R23_29  BAL17_29  0.883788174258
    R23_29  BAL22_29  0.453793514629
    R23_29  BAL24_29  0.898488780207
    R23_29  BAL25_29  0.31338236657
    R23_29  BAL26_29  0.839984801285
    R23_29  BAL29_29  0.765328845627
    R23_29  CAP29  1
    R23_30  COST  7.67843429058
    R23_30  BAL1_30  0.52610009893
    R23_30  BAL8_30  0.758947114538
    R23_30  BAL15_30  0.695337992893
    R23_30  BAL17_30  0.883788174258
    R23_30  BAL22_30  0.453793514629
    R23_30  BAL24_30  0.898488780207
    R23_30  BAL25_30  0.31338236657
    R23_30  BAL26_30  0.839984801285
    R23_30  BAL29_30  0.765328845627
    R23_30  CAP30  1
    R23_31  COST  7.67843429058
    R23_31  BAL1_31  0.52610009893
    R23_31  BAL8_31  0.758947114538
    R23_31  BAL15_31  0.695337992893
    R23_31  BAL17_31  0.883788174258
    R23_31  BAL22_31  0.453793514629
    R23_31  BAL24_31  0.898488780207
    R23_31  BAL25_31  0.31338236657
    R23_31  BAL26_31  0.839984801285
    R23_31  BAL29_31  0.765328845627
    R23_31  CAP31  1
    R23_32  COST  7.67843429058
    R23_32  BAL1_32  0.52610009893
    R23_32  BAL8_32  0.758947114538
    R23_32  BAL15_32  0.695337992893
    R23_32  BAL17_32  0.883788174258
    R23_32  BAL22_32  0.453793514629
    R23_32  BAL24_32  0.898488780207
    R23_32  BAL25_32  0.31338236657
    R23_32  BAL26_32  0.839984801285
    R23_32  BAL29_32  0.765328845627
    R23_32  CAP32  1
    R23_33  COST  7.67843429058
    R23_33  BAL1_33  0.52610009893
    R23_33  BAL8_33  0.758947114538
    R23_33  BAL15_33  0.695337992893
    R23_33  BAL17_33  0.883788174258
    R23_33  BAL22_33  0.453793514629
    R23_33  BAL24_33  0.898488780207
    R23_33  BAL25_33  0.31338236657
    R23_33  BAL26_33  0.839984801285
    R23_33  BAL29_33  0.765328845627
    R23_33  CAP33  1
    R23_34  COST  7.67843429058
    R23_34  BAL1_34  0.52610009893
    R23_34  BAL8_34  0.758947114538
    R23_34  BAL15_34  0.695337992893
    R23_34  BAL17_34  0.883788174258
    R23_34  BAL22_34  0.453793514629
    R23_34  BAL24_34  0.898488780207
    R23_34  BAL25_34  0.31338236657
    R23_34  BAL26_34  0.839984801285
    R23_34  BAL29_34  0.765328845627
    R23_34  CAP34  1
    R23_35  COST  7.67843429058
    R23_35  BAL1_35  0.52610009893
    R23_35  BAL8_35  0.758947114538
    R23_35  BAL15_35  0.695337992893
    R23_35  BAL17_35  0.883788174258
    R23_35  BAL22_35  0.453793514629
    R23_35  BAL24_35  0.898488780207
    R23_35  BAL25_35  0.31338236657
    R23_35  BAL26_35  0.839984801285
    R23_35  BAL29_35  0.765328845627
    R23_35  CAP35  1
    R24_0  COST  18.1881163077
    R24_0  BAL0_0  0.474189194241
    R24_0  BAL2_0  0.305103095464
    R24_0  BAL4_0  0.773000114771
    R24_0  BAL5_0  0.422430486749
    R24_0  BAL6_0  0.269171006532
    R24_0  BAL7_0  0.302015611294
    R24_0  BAL9_0  0.542725122994
    R24_0  BAL12_0  0.589028839958
    R24_0  BAL13_0  0.626170162603
    R24_0  BAL15_0  0.64424627971
    R24_0  BAL16_0  0.526751645688
    R24_0  BAL18_0  0.892830675083
    R24_0  BAL20_0  0.523386644674
    R24_0  BAL21_0  0.177060460213
    R24_0  BAL23_0  0.748590635249
    R24_0  BAL28_0  0.860440643161
    R24_0  CAP0  1
    R24_1  COST  18.1881163077
    R24_1  BAL0_1  0.474189194241
    R24_1  BAL2_1  0.305103095464
    R24_1  BAL4_1  0.773000114771
    R24_1  BAL5_1  0.422430486749
    R24_1  BAL6_1  0.269171006532
    R24_1  BAL7_1  0.302015611294
    R24_1  BAL9_1  0.542725122994
    R24_1  BAL12_1  0.589028839958
    R24_1  BAL13_1  0.626170162603
    R24_1  BAL15_1  0.64424627971
    R24_1  BAL16_1  0.526751645688
    R24_1  BAL18_1  0.892830675083
    R24_1  BAL20_1  0.523386644674
    R24_1  BAL21_1  0.177060460213
    R24_1  BAL23_1  0.748590635249
    R24_1  BAL28_1  0.860440643161
    R24_1  CAP1  1
    R24_2  COST  18.1881163077
    R24_2  BAL0_2  0.474189194241
    R24_2  BAL2_2  0.305103095464
    R24_2  BAL4_2  0.773000114771
    R24_2  BAL5_2  0.422430486749
    R24_2  BAL6_2  0.269171006532
    R24_2  BAL7_2  0.302015611294
    R24_2  BAL9_2  0.542725122994
    R24_2  BAL12_2  0.589028839958
    R24_2  BAL13_2  0.626170162603
    R24_2  BAL15_2  0.64424627971
    R24_2  BAL16_2  0.526751645688
    R24_2  BAL18_2  0.892830675083
    R24_2  BAL20_2  0.523386644674
    R24_2  BAL21_2  0.177060460213
    R24_2  BAL23_2  0.748590635249
    R24_2  BAL28_2  0.860440643161
    R24_2  CAP2  1
    R24_3  COST  18.1881163077
    R24_3  BAL0_3  0.474189194241
    R24_3  BAL2_3  0.305103095464
    R24_3  BAL4_3  0.773000114771
    R24_3  BAL5_3  0.422430486749
    R24_3  BAL6_3  0.269171006532
    R24_3  BAL7_3  0.302015611294
    R24_3  BAL9_3  0.542725122994
    R24_3  BAL12_3  0.589028839958
    R24_3  BAL13_3  0.626170162603
    R24_3  BAL15_3  0.64424627971
    R24_3  BAL16_3  0.526751645688
    R24_3  BAL18_3  0.892830675083
    R24_3  BAL20_3  0.523386644674
    R24_3  BAL21_3  0.177060460213
    R24_3  BAL23_3  0.748590635249
    R24_3  BAL28_3  0.860440643161
    R24_3  CAP3  1
    R24_4  COST  18.1881163077
    R24_4  BAL0_4  0.474189194241
    R24_4  BAL2_4  0.305103095464
    R24_4  BAL4_4  0.773000114771
    R24_4  BAL5_4  0.422430486749
    R24_4  BAL6_4  0.269171006532
    R24_4  BAL7_4  0.302015611294
    R24_4  BAL9_4  0.542725122994
    R24_4  BAL12_4  0.589028839958
    R24_4  BAL13_4  0.626170162603
    R24_4  BAL15_4  0.64424627971
    R24_4  BAL16_4  0.526751645688
    R24_4  BAL18_4  0.892830675083
    R24_4  BAL20_4  0.523386644674
    R24_4  BAL21_4  0.177060460213
    R24_4  BAL23_4  0.748590635249
    R24_4  BAL28_4  0.860440643161
    R24_4  CAP4  1
    R24_5  COST  18.1881163077
    R24_5  BAL0_5  0.474189194241
    R24_5  BAL2_5  0.305103095464
    R24_5  BAL4_5  0.773000114771
    R24_5  BAL5_5  0.422430486749
    R24_5  BAL6_5  0.269171006532
    R24_5  BAL7_5  0.302015611294
    R24_5  BAL9_5  0.542725122994
    R24_5  BAL12_5  0.589028839958
    R24_5  BAL13_5  0.626170162603
    R24_5  BAL15_5  0.64424627971
    R24_5  BAL16_5  0.526751645688
    R24_5  BAL18_5  0.892830675083
    R24_5  BAL20_5  0.523386644674
    R24_5  BAL21_5  0.177060460213
    R24_5  BAL23_5  0.748590635249
    R24_5  BAL28_5  0.860440643161
    R24_5  CAP5  1
    R24_6  COST  18.1881163077
    R24_6  BAL0_6  0.474189194241
    R24_6  BAL2_6  0.305103095464
    R24_6  BAL4_6  0.773000114771
    R24_6  BAL5_6  0.422430486749
    R24_6  BAL6_6  0.269171006532
    R24_6  BAL7_6  0.302015611294
    R24_6  BAL9_6  0.542725122994
    R24_6  BAL12_6  0.589028839958
    R24_6  BAL13_6  0.626170162603
    R24_6  BAL15_6  0.64424627971
    R24_6  BAL16_6  0.526751645688
    R24_6  BAL18_6  0.892830675083
    R24_6  BAL20_6  0.523386644674
    R24_6  BAL21_6  0.177060460213
    R24_6  BAL23_6  0.748590635249
    R24_6  BAL28_6  0.860440643161
    R24_6  CAP6  1
    R24_7  COST  18.1881163077
    R24_7  BAL0_7  0.474189194241
    R24_7  BAL2_7  0.305103095464
    R24_7  BAL4_7  0.773000114771
    R24_7  BAL5_7  0.422430486749
    R24_7  BAL6_7  0.269171006532
    R24_7  BAL7_7  0.302015611294
    R24_7  BAL9_7  0.542725122994
    R24_7  BAL12_7  0.589028839958
    R24_7  BAL13_7  0.626170162603
    R24_7  BAL15_7  0.64424627971
    R24_7  BAL16_7  0.526751645688
    R24_7  BAL18_7  0.892830675083
    R24_7  BAL20_7  0.523386644674
    R24_7  BAL21_7  0.177060460213
    R24_7  BAL23_7  0.748590635249
    R24_7  BAL28_7  0.860440643161
    R24_7  CAP7  1
    R24_8  COST  18.1881163077
    R24_8  BAL0_8  0.474189194241
    R24_8  BAL2_8  0.305103095464
    R24_8  BAL4_8  0.773000114771
    R24_8  BAL5_8  0.422430486749
    R24_8  BAL6_8  0.269171006532
    R24_8  BAL7_8  0.302015611294
    R24_8  BAL9_8  0.542725122994
    R24_8  BAL12_8  0.589028839958
    R24_8  BAL13_8  0.626170162603
    R24_8  BAL15_8  0.64424627971
    R24_8  BAL16_8  0.526751645688
    R24_8  BAL18_8  0.892830675083
    R24_8  BAL20_8  0.523386644674
    R24_8  BAL21_8  0.177060460213
    R24_8  BAL23_8  0.748590635249
    R24_8  BAL28_8  0.860440643161
    R24_8  CAP8  1
    R24_9  COST  18.1881163077
    R24_9  BAL0_9  0.474189194241
    R24_9  BAL2_9  0.305103095464
    R24_9  BAL4_9  0.773000114771
    R24_9  BAL5_9  0.422430486749
    R24_9  BAL6_9  0.269171006532
    R24_9  BAL7_9  0.302015611294
    R24_9  BAL9_9  0.542725122994
    R24_9  BAL12_9  0.589028839958
    R24_9  BAL13_9  0.626170162603
    R24_9  BAL15_9  0.64424627971
    R24_9  BAL16_9  0.526751645688
    R24_9  BAL18_9  0.892830675083
    R24_9  BAL20_9  0.523386644674
    R24_9  BAL21_9  0.177060460213
    R24_9  BAL23_9  0.748590635249
    R24_9  BAL28_9  0.860440643161
    R24_9  CAP9  1
    R24_10  COST  18.1881163077
    R24_10  BAL0_10  0.474189194241
    R24_10  BAL2_10  0.305103095464
    R24_10  BAL4_10  0.773000114771
    R24_10  BAL5_10  0.422430486749
    R24_10  BAL6_10  0.269171006532
    R24_10  BAL7_10  0.302015611294
    R24_10  BAL9_10  0.542725122994
    R24_10  BAL12_10  0.589028839958
    R24_10  BAL13_10  0.626170162603
    R24_10  BAL15_10  0.64424627971
    R24_10  BAL16_10  0.526751645688
    R24_10  BAL18_10  0.892830675083
    R24_10  BAL20_10  0.523386644674
    R24_10  BAL21_10  0.177060460213
    R24_10  BAL23_10  0.748590635249
    R24_10  BAL28_10  0.860440643161
    R24_10  CAP10  1
    R24_11  COST  18.1881163077
    R24_11  BAL0_11  0.474189194241
    R24_11  BAL2_11  0.305103095464
    R24_11  BAL4_11  0.773000114771
    R24_11  BAL5_11  0.422430486749
    R24_11  BAL6_11  0.269171006532
    R24_11  BAL7_11  0.302015611294
    R24_11  BAL9_11  0.542725122994
    R24_11  BAL12_11  0.589028839958
    R24_11  BAL13_11  0.626170162603
    R24_11  BAL15_11  0.64424627971
    R24_11  BAL16_11  0.526751645688
    R24_11  BAL18_11  0.892830675083
    R24_11  BAL20_11  0.523386644674
    R24_11  BAL21_11  0.177060460213
    R24_11  BAL23_11  0.748590635249
    R24_11  BAL28_11  0.860440643161
    R24_11  CAP11  1
    R24_12  COST  18.1881163077
    R24_12  BAL0_12  0.474189194241
    R24_12  BAL2_12  0.305103095464
    R24_12  BAL4_12  0.773000114771
    R24_12  BAL5_12  0.422430486749
    R24_12  BAL6_12  0.269171006532
    R24_12  BAL7_12  0.302015611294
    R24_12  BAL9_12  0.542725122994
    R24_12  BAL12_12  0.589028839958
    R24_12  BAL13_12  0.626170162603
    R24_12  BAL15_12  0.64424627971
    R24_12  BAL16_12  0.526751645688
    R24_12  BAL18_12  0.892830675083
    R24_12  BAL20_12  0.523386644674
    R24_12  BAL21_12  0.177060460213
    R24_12  BAL23_12  0.748590635249
    R24_12  BAL28_12  0.860440643161
    R24_12  CAP12  1
    R24_13  COST  18.1881163077
    R24_13  BAL0_13  0.474189194241
    R24_13  BAL2_13  0.305103095464
    R24_13  BAL4_13  0.773000114771
    R24_13  BAL5_13  0.422430486749
    R24_13  BAL6_13  0.269171006532
    R24_13  BAL7_13  0.302015611294
    R24_13  BAL9_13  0.542725122994
    R24_13  BAL12_13  0.589028839958
    R24_13  BAL13_13  0.626170162603
    R24_13  BAL15_13  0.64424627971
    R24_13  BAL16_13  0.526751645688
    R24_13  BAL18_13  0.892830675083
    R24_13  BAL20_13  0.523386644674
    R24_13  BAL21_13  0.177060460213
    R24_13  BAL23_13  0.748590635249
    R24_13  BAL28_13  0.860440643161
    R24_13  CAP13  1
    R24_14  COST  18.1881163077
    R24_14  BAL0_14  0.474189194241
    R24_14  BAL2_14  0.305103095464
    R24_14  BAL4_14  0.773000114771
    R24_14  BAL5_14  0.422430486749
    R24_14  BAL6_14  0.269171006532
    R24_14  BAL7_14  0.302015611294
    R24_14  BAL9_14  0.542725122994
    R24_14  BAL12_14  0.589028839958
    R24_14  BAL13_14  0.626170162603
    R24_14  BAL15_14  0.64424627971
    R24_14  BAL16_14  0.526751645688
    R24_14  BAL18_14  0.892830675083
    R24_14  BAL20_14  0.523386644674
    R24_14  BAL21_14  0.177060460213
    R24_14  BAL23_14  0.748590635249
    R24_14  BAL28_14  0.860440643161
    R24_14  CAP14  1
    R24_15  COST  18.1881163077
    R24_15  BAL0_15  0.474189194241
    R24_15  BAL2_15  0.305103095464
    R24_15  BAL4_15  0.773000114771
    R24_15  BAL5_15  0.422430486749
    R24_15  BAL6_15  0.269171006532
    R24_15  BAL7_15  0.302015611294
    R24_15  BAL9_15  0.542725122994
    R24_15  BAL12_15  0.589028839958
    R24_15  BAL13_15  0.626170162603
    R24_15  BAL15_15  0.64424627971
    R24_15  BAL16_15  0.526751645688
    R24_15  BAL18_15  0.892830675083
    R24_15  BAL20_15  0.523386644674
    R24_15  BAL21_15  0.177060460213
    R24_15  BAL23_15  0.748590635249
    R24_15  BAL28_15  0.860440643161
    R24_15  CAP15  1
    R24_16  COST  18.1881163077
    R24_16  BAL0_16  0.474189194241
    R24_16  BAL2_16  0.305103095464
    R24_16  BAL4_16  0.773000114771
    R24_16  BAL5_16  0.422430486749
    R24_16  BAL6_16  0.269171006532
    R24_16  BAL7_16  0.302015611294
    R24_16  BAL9_16  0.542725122994
    R24_16  BAL12_16  0.589028839958
    R24_16  BAL13_16  0.626170162603
    R24_16  BAL15_16  0.64424627971
    R24_16  BAL16_16  0.526751645688
    R24_16  BAL18_16  0.892830675083
    R24_16  BAL20_16  0.523386644674
    R24_16  BAL21_16  0.177060460213
    R24_16  BAL23_16  0.748590635249
    R24_16  BAL28_16  0.860440643161
    R24_16  CAP16  1
    R24_17  COST  18.1881163077
    R24_17  BAL0_17  0.474189194241
    R24_17  BAL2_17  0.305103095464
    R24_17  BAL4_17  0.773000114771
    R24_17  BAL5_17  0.422430486749
    R24_17  BAL6_17  0.269171006532
    R24_17  BAL7_17  0.302015611294
    R24_17  BAL9_17  0.542725122994
    R24_17  BAL12_17  0.589028839958
    R24_17  BAL13_17  0.626170162603
    R24_17  BAL15_17  0.64424627971
    R24_17  BAL16_17  0.526751645688
    R24_17  BAL18_17  0.892830675083
    R24_17  BAL20_17  0.523386644674
    R24_17  BAL21_17  0.177060460213
    R24_17  BAL23_17  0.748590635249
    R24_17  BAL28_17  0.860440643161
    R24_17  CAP17  1
    R24_18  COST  18.1881163077
    R24_18  BAL0_18  0.474189194241
    R24_18  BAL2_18  0.305103095464
    R24_18  BAL4_18  0.773000114771
    R24_18  BAL5_18  0.422430486749
    R24_18  BAL6_18  0.269171006532
    R24_18  BAL7_18  0.302015611294
    R24_18  BAL9_18  0.542725122994
    R24_18  BAL12_18  0.589028839958
    R24_18  BAL13_18  0.626170162603
    R24_18  BAL15_18  0.64424627971
    R24_18  BAL16_18  0.526751645688
    R24_18  BAL18_18  0.892830675083
    R24_18  BAL20_18  0.523386644674
    R24_18  BAL21_18  0.177060460213
    R24_18  BAL23_18  0.748590635249
    R24_18  BAL28_18  0.860440643161
    R24_18  CAP18  1
    R24_19  COST  18.1881163077
    R24_19  BAL0_19  0.474189194241
    R24_19  BAL2_19  0.305103095464
    R24_19  BAL4_19  0.773000114771
    R24_19  BAL5_19  0.422430486749
    R24_19  BAL6_19  0.269171006532
    R24_19  BAL7_19  0.302015611294
    R24_19  BAL9_19  0.542725122994
    R24_19  BAL12_19  0.589028839958
    R24_19  BAL13_19  0.626170162603
    R24_19  BAL15_19  0.64424627971
    R24_19  BAL16_19  0.526751645688
    R24_19  BAL18_19  0.892830675083
    R24_19  BAL20_19  0.523386644674
    R24_19  BAL21_19  0.177060460213
    R24_19  BAL23_19  0.748590635249
    R24_19  BAL28_19  0.860440643161
    R24_19  CAP19  1
    R24_20  COST  18.1881163077
    R24_20  BAL0_20  0.474189194241
    R24_20  BAL2_20  0.305103095464
    R24_20  BAL4_20  0.773000114771
    R24_20  BAL5_20  0.422430486749
    R24_20  BAL6_20  0.269171006532
    R24_20  BAL7_20  0.302015611294
    R24_20  BAL9_20  0.542725122994
    R24_20  BAL12_20  0.589028839958
    R24_20  BAL13_20  0.626170162603
    R24_20  BAL15_20  0.64424627971
    R24_20  BAL16_20  0.526751645688
    R24_20  BAL18_20  0.892830675083
    R24_20  BAL20_20  0.523386644674
    R24_20  BAL21_20  0.177060460213
    R24_20  BAL23_20  0.748590635249
    R24_20  BAL28_20  0.860440643161
    R24_20  CAP20  1
    R24_21  COST  18.1881163077
    R24_21  BAL0_21  0.474189194241
    R24_21  BAL2_21  0.305103095464
    R24_21  BAL4_21  0.773000114771
    R24_21  BAL5_21  0.422430486749
    R24_21  BAL6_21  0.269171006532
    R24_21  BAL7_21  0.302015611294
    R24_21  BAL9_21  0.542725122994
    R24_21  BAL12_21  0.589028839958
    R24_21  BAL13_21  0.626170162603
    R24_21  BAL15_21  0.64424627971
    R24_21  BAL16_21  0.526751645688
    R24_21  BAL18_21  0.892830675083
    R24_21  BAL20_21  0.523386644674
    R24_21  BAL21_21  0.177060460213
    R24_21  BAL23_21  0.748590635249
    R24_21  BAL28_21  0.860440643161
    R24_21  CAP21  1
    R24_22  COST  18.1881163077
    R24_22  BAL0_22  0.474189194241
    R24_22  BAL2_22  0.305103095464
    R24_22  BAL4_22  0.773000114771
    R24_22  BAL5_22  0.422430486749
    R24_22  BAL6_22  0.269171006532
    R24_22  BAL7_22  0.302015611294
    R24_22  BAL9_22  0.542725122994
    R24_22  BAL12_22  0.589028839958
    R24_22  BAL13_22  0.626170162603
    R24_22  BAL15_22  0.64424627971
    R24_22  BAL16_22  0.526751645688
    R24_22  BAL18_22  0.892830675083
    R24_22  BAL20_22  0.523386644674
    R24_22  BAL21_22  0.177060460213
    R24_22  BAL23_22  0.748590635249
    R24_22  BAL28_22  0.860440643161
    R24_22  CAP22  1
    R24_23  COST  18.1881163077
    R24_23  BAL0_23  0.474189194241
    R24_23  BAL2_23  0.305103095464
    R24_23  BAL4_23  0.773000114771
    R24_23  BAL5_23  0.422430486749
    R24_23  BAL6_23  0.269171006532
    R24_23  BAL7_23  0.302015611294
    R24_23  BAL9_23  0.542725122994
    R24_23  BAL12_23  0.589028839958
    R24_23  BAL13_23  0.626170162603
    R24_23  BAL15_23  0.64424627971
    R24_23  BAL16_23  0.526751645688
    R24_23  BAL18_23  0.892830675083
    R24_23  BAL20_23  0.523386644674
    R24_23  BAL21_23  0.177060460213
    R24_23  BAL23_23  0.748590635249
    R24_23  BAL28_23  0.860440643161
    R24_23  CAP23  1
    R24_24  COST  18.1881163077
    R24_24  BAL0_24  0.474189194241
    R24_24  BAL2_24  0.305103095464
    R24_24  BAL4_24  0.773000114771
    R24_24  BAL5_24  0.422430486749
    R24_24  BAL6_24  0.269171006532
    R24_24  BAL7_24  0.302015611294
    R24_24  BAL9_24  0.542725122994
    R24_24  BAL12_24  0.589028839958
    R24_24  BAL13_24  0.626170162603
    R24_24  BAL15_24  0.64424627971
    R24_24  BAL16_24  0.526751645688
    R24_24  BAL18_24  0.892830675083
    R24_24  BAL20_24  0.523386644674
    R24_24  BAL21_24  0.177060460213
    R24_24  BAL23_24  0.748590635249
    R24_24  BAL28_24  0.860440643161
    R24_24  CAP24  1
    R24_25  COST  18.1881163077
    R24_25  BAL0_25  0.474189194241
    R24_25  BAL2_25  0.305103095464
    R24_25  BAL4_25  0.773000114771
    R24_25  BAL5_25  0.422430486749
    R24_25  BAL6_25  0.269171006532
    R24_25  BAL7_25  0.302015611294
    R24_25  BAL9_25  0.542725122994
    R24_25  BAL12_25  0.589028839958
    R24_25  BAL13_25  0.626170162603
    R24_25  BAL15_25  0.64424627971
    R24_25  BAL16_25  0.526751645688
    R24_25  BAL18_25  0.892830675083
    R24_25  BAL20_25  0.523386644674
    R24_25  BAL21_25  0.177060460213
    R24_25  BAL23_25  0.748590635249
    R24_25  BAL28_25  0.860440643161
    R24_25  CAP25  1
    R24_26  COST  18.1881163077
    R24_26  BAL0_26  0.474189194241
    R24_26  BAL2_26  0.305103095464
    R24_26  BAL4_26  0.773000114771
    R24_26  BAL5_26  0.422430486749
    R24_26  BAL6_26  0.269171006532
    R24_26  BAL7_26  0.302015611294
    R24_26  BAL9_26  0.542725122994
    R24_26  BAL12_26  0.589028839958
    R24_26  BAL13_26  0.626170162603
    R24_26  BAL15_26  0.64424627971
    R24_26  BAL16_26  0.526751645688
    R24_26  BAL18_26  0.892830675083
    R24_26  BAL20_26  0.523386644674
    R24_26  BAL21_26  0.177060460213
    R24_26  BAL23_26  0.748590635249
    R24_26  BAL28_26  0.860440643161
    R24_26  CAP26  1
    R24_27  COST  18.1881163077
    R24_27  BAL0_27  0.474189194241
    R24_27  BAL2_27  0.305103095464
    R24_27  BAL4_27  0.773000114771
    R24_27  BAL5_27  0.422430486749
    R24_27  BAL6_27  0.269171006532
    R24_27  BAL7_27  0.302015611294
    R24_27  BAL9_27  0.542725122994
    R24_27  BAL12_27  0.589028839958
    R24_27  BAL13_27  0.626170162603
    R24_27  BAL15_27  0.64424627971
    R24_27  BAL16_27  0.526751645688
    R24_27  BAL18_27  0.892830675083
    R24_27  BAL20_27  0.523386644674
    R24_27  BAL21_27  0.177060460213
    R24_27  BAL23_27  0.748590635249
    R24_27  BAL28_27  0.860440643161
    R24_27  CAP27  1
    R24_28  COST  18.1881163077
    R24_28  BAL0_28  0.474189194241
    R24_28  BAL2_28  0.305103095464
    R24_28  BAL4_28  0.773000114771
    R24_28  BAL5_28  0.422430486749
    R24_28  BAL6_28  0.269171006532
    R24_28  BAL7_28  0.302015611294
    R24_28  BAL9_28  0.542725122994
    R24_28  BAL12_28  0.589028839958
    R24_28  BAL13_28  0.626170162603
    R24_28  BAL15_28  0.64424627971
    R24_28  BAL16_28  0.526751645688
    R24_28  BAL18_28  0.892830675083
    R24_28  BAL20_28  0.523386644674
    R24_28  BAL21_28  0.177060460213
    R24_28  BAL23_28  0.748590635249
    R24_28  BAL28_28  0.860440643161
    R24_28  CAP28  1
    R24_29  COST  18.1881163077
    R24_29  BAL0_29  0.474189194241
    R24_29  BAL2_29  0.305103095464
    R24_29  BAL4_29  0.773000114771
    R24_29  BAL5_29  0.422430486749
    R24_29  BAL6_29  0.269171006532
    R24_29  BAL7_29  0.302015611294
    R24_29  BAL9_29  0.542725122994
    R24_29  BAL12_29  0.589028839958
    R24_29  BAL13_29  0.626170162603
    R24_29  BAL15_29  0.64424627971
    R24_29  BAL16_29  0.526751645688
    R24_29  BAL18_29  0.892830675083
    R24_29  BAL20_29  0.523386644674
    R24_29  BAL21_29  0.177060460213
    R24_29  BAL23_29  0.748590635249
    R24_29  BAL28_29  0.860440643161
    R24_29  CAP29  1
    R24_30  COST  18.1881163077
    R24_30  BAL0_30  0.474189194241
    R24_30  BAL2_30  0.305103095464
    R24_30  BAL4_30  0.773000114771
    R24_30  BAL5_30  0.422430486749
    R24_30  BAL6_30  0.269171006532
    R24_30  BAL7_30  0.302015611294
    R24_30  BAL9_30  0.542725122994
    R24_30  BAL12_30  0.589028839958
    R24_30  BAL13_30  0.626170162603
    R24_30  BAL15_30  0.64424627971
    R24_30  BAL16_30  0.526751645688
    R24_30  BAL18_30  0.892830675083
    R24_30  BAL20_30  0.523386644674
    R24_30  BAL21_30  0.177060460213
    R24_30  BAL23_30  0.748590635249
    R24_30  BAL28_30  0.860440643161
    R24_30  CAP30  1
    R24_31  COST  18.1881163077
    R24_31  BAL0_31  0.474189194241
    R24_31  BAL2_31  0.305103095464
    R24_31  BAL4_31  0.773000114771
    R24_31  BAL5_31  0.422430486749
    R24_31  BAL6_31  0.269171006532
    R24_31  BAL7_31  0.302015611294
    R24_31  BAL9_31  0.542725122994
    R24_31  BAL12_31  0.589028839958
    R24_31  BAL13_31  0.626170162603
    R24_31  BAL15_31  0.64424627971
    R24_31  BAL16_31  0.526751645688
    R24_31  BAL18_31  0.892830675083
    R24_31  BAL20_31  0.523386644674
    R24_31  BAL21_31  0.177060460213
    R24_31  BAL23_31  0.748590635249
    R24_31  BAL28_31  0.860440643161
    R24_31  CAP31  1
    R24_32  COST  18.1881163077
    R24_32  BAL0_32  0.474189194241
    R24_32  BAL2_32  0.305103095464
    R24_32  BAL4_32  0.773000114771
    R24_32  BAL5_32  0.422430486749
    R24_32  BAL6_32  0.269171006532
    R24_32  BAL7_32  0.302015611294
    R24_32  BAL9_32  0.542725122994
    R24_32  BAL12_32  0.589028839958
    R24_32  BAL13_32  0.626170162603
    R24_32  BAL15_32  0.64424627971
    R24_32  BAL16_32  0.526751645688
    R24_32  BAL18_32  0.892830675083
    R24_32  BAL20_32  0.523386644674
    R24_32  BAL21_32  0.177060460213
    R24_32  BAL23_32  0.748590635249
    R24_32  BAL28_32  0.860440643161
    R24_32  CAP32  1
    R24_33  COST  18.1881163077
    R24_33  BAL0_33  0.474189194241
    R24_33  BAL2_33  0.305103095464
    R24_33  BAL4_33  0.773000114771
    R24_33  BAL5_33  0.422430486749
    R24_33  BAL6_33  0.269171006532
    R24_33  BAL7_33  0.302015611294
    R24_33  BAL9_33  0.542725122994
    R24_33  BAL12_33  0.589028839958
    R24_33  BAL13_33  0.626170162603
    R24_33  BAL15_33  0.64424627971
    R24_33  BAL16_33  0.526751645688
    R24_33  BAL18_33  0.892830675083
    R24_33  BAL20_33  0.523386644674
    R24_33  BAL21_33  0.177060460213
    R24_33  BAL23_33  0.748590635249
    R24_33  BAL28_33  0.860440643161
    R24_33  CAP33  1
    R24_34  COST  18.1881163077
    R24_34  BAL0_34  0.474189194241
    R24_34  BAL2_34  0.305103095464
    R24_34  BAL4_34  0.773000114771
    R24_34  BAL5_34  0.422430486749
    R24_34  BAL6_34  0.269171006532
    R24_34  BAL7_34  0.302015611294
    R24_34  BAL9_34  0.542725122994
    R24_34  BAL12_34  0.589028839958
    R24_34  BAL13_34  0.626170162603
    R24_34  BAL15_34  0.64424627971
    R24_34  BAL16_34  0.526751645688
    R24_34  BAL18_34  0.892830675083
    R24_34  BAL20_34  0.523386644674
    R24_34  BAL21_34  0.177060460213
    R24_34  BAL23_34  0.748590635249
    R24_34  BAL28_34  0.860440643161
    R24_34  CAP34  1
    R24_35  COST  18.1881163077
    R24_35  BAL0_35  0.474189194241
    R24_35  BAL2_35  0.305103095464
    R24_35  BAL4_35  0.773000114771
    R24_35  BAL5_35  0.422430486749
    R24_35  BAL6_35  0.269171006532
    R24_35  BAL7_35  0.302015611294
    R24_35  BAL9_35  0.542725122994
    R24_35  BAL12_35  0.589028839958
    R24_35  BAL13_35  0.626170162603
    R24_35  BAL15_35  0.64424627971
    R24_35  BAL16_35  0.526751645688
    R24_35  BAL18_35  0.892830675083
    R24_35  BAL20_35  0.523386644674
    R24_35  BAL21_35  0.177060460213
    R24_35  BAL23_35  0.748590635249
    R24_35  BAL28_35  0.860440643161
    R24_35  CAP35  1
    R25_0  COST  6.35797992758
    R25_0  BAL0_0  0.469699281532
    R25_0  BAL3_0  0.444137007644
    R25_0  BAL7_0  0.855647820298
    R25_0  BAL8_0  0.781580198427
    R25_0  BAL9_0  0.928067648303
    R25_0  BAL14_0  0.704469514187
    R25_0  BAL21_0  0.204303323823
    R25_0  BAL29_0  0.65928915973
    R25_0  CAP0  1
    R25_1  COST  6.35797992758
    R25_1  BAL0_1  0.469699281532
    R25_1  BAL3_1  0.444137007644
    R25_1  BAL7_1  0.855647820298
    R25_1  BAL8_1  0.781580198427
    R25_1  BAL9_1  0.928067648303
    R25_1  BAL14_1  0.704469514187
    R25_1  BAL21_1  0.204303323823
    R25_1  BAL29_1  0.65928915973
    R25_1  CAP1  1
    R25_2  COST  6.35797992758
    R25_2  BAL0_2  0.469699281532
    R25_2  BAL3_2  0.444137007644
    R25_2  BAL7_2  0.855647820298
    R25_2  BAL8_2  0.781580198427
    R25_2  BAL9_2  0.928067648303
    R25_2  BAL14_2  0.704469514187
    R25_2  BAL21_2  0.204303323823
    R25_2  BAL29_2  0.65928915973
    R25_2  CAP2  1
    R25_3  COST  6.35797992758
    R25_3  BAL0_3  0.469699281532
    R25_3  BAL3_3  0.444137007644
    R25_3  BAL7_3  0.855647820298
    R25_3  BAL8_3  0.781580198427
    R25_3  BAL9_3  0.928067648303
    R25_3  BAL14_3  0.704469514187
    R25_3  BAL21_3  0.204303323823
    R25_3  BAL29_3  0.65928915973
    R25_3  CAP3  1
    R25_4  COST  6.35797992758
    R25_4  BAL0_4  0.469699281532
    R25_4  BAL3_4  0.444137007644
    R25_4  BAL7_4  0.855647820298
    R25_4  BAL8_4  0.781580198427
    R25_4  BAL9_4  0.928067648303
    R25_4  BAL14_4  0.704469514187
    R25_4  BAL21_4  0.204303323823
    R25_4  BAL29_4  0.65928915973
    R25_4  CAP4  1
    R25_5  COST  6.35797992758
    R25_5  BAL0_5  0.469699281532
    R25_5  BAL3_5  0.444137007644
    R25_5  BAL7_5  0.855647820298
    R25_5  BAL8_5  0.781580198427
    R25_5  BAL9_5  0.928067648303
    R25_5  BAL14_5  0.704469514187
    R25_5  BAL21_5  0.204303323823
    R25_5  BAL29_5  0.65928915973
    R25_5  CAP5  1
    R25_6  COST  6.35797992758
    R25_6  BAL0_6  0.469699281532
    R25_6  BAL3_6  0.444137007644
    R25_6  BAL7_6  0.855647820298
    R25_6  BAL8_6  0.781580198427
    R25_6  BAL9_6  0.928067648303
    R25_6  BAL14_6  0.704469514187
    R25_6  BAL21_6  0.204303323823
    R25_6  BAL29_6  0.65928915973
    R25_6  CAP6  1
    R25_7  COST  6.35797992758
    R25_7  BAL0_7  0.469699281532
    R25_7  BAL3_7  0.444137007644
    R25_7  BAL7_7  0.855647820298
    R25_7  BAL8_7  0.781580198427
    R25_7  BAL9_7  0.928067648303
    R25_7  BAL14_7  0.704469514187
    R25_7  BAL21_7  0.204303323823
    R25_7  BAL29_7  0.65928915973
    R25_7  CAP7  1
    R25_8  COST  6.35797992758
    R25_8  BAL0_8  0.469699281532
    R25_8  BAL3_8  0.444137007644
    R25_8  BAL7_8  0.855647820298
    R25_8  BAL8_8  0.781580198427
    R25_8  BAL9_8  0.928067648303
    R25_8  BAL14_8  0.704469514187
    R25_8  BAL21_8  0.204303323823
    R25_8  BAL29_8  0.65928915973
    R25_8  CAP8  1
    R25_9  COST  6.35797992758
    R25_9  BAL0_9  0.469699281532
    R25_9  BAL3_9  0.444137007644
    R25_9  BAL7_9  0.855647820298
    R25_9  BAL8_9  0.781580198427
    R25_9  BAL9_9  0.928067648303
    R25_9  BAL14_9  0.704469514187
    R25_9  BAL21_9  0.204303323823
    R25_9  BAL29_9  0.65928915973
    R25_9  CAP9  1
    R25_10  COST  6.35797992758
    R25_10  BAL0_10  0.469699281532
    R25_10  BAL3_10  0.444137007644
    R25_10  BAL7_10  0.855647820298
    R25_10  BAL8_10  0.781580198427
    R25_10  BAL9_10  0.928067648303
    R25_10  BAL14_10  0.704469514187
    R25_10  BAL21_10  0.204303323823
    R25_10  BAL29_10  0.65928915973
    R25_10  CAP10  1
    R25_11  COST  6.35797992758
    R25_11  BAL0_11  0.469699281532
    R25_11  BAL3_11  0.444137007644
    R25_11  BAL7_11  0.855647820298
    R25_11  BAL8_11  0.781580198427
    R25_11  BAL9_11  0.928067648303
    R25_11  BAL14_11  0.704469514187
    R25_11  BAL21_11  0.204303323823
    R25_11  BAL29_11  0.65928915973
    R25_11  CAP11  1
    R25_12  COST  6.35797992758
    R25_12  BAL0_12  0.469699281532
    R25_12  BAL3_12  0.444137007644
    R25_12  BAL7_12  0.855647820298
    R25_12  BAL8_12  0.781580198427
    R25_12  BAL9_12  0.928067648303
    R25_12  BAL14_12  0.704469514187
    R25_12  BAL21_12  0.204303323823
    R25_12  BAL29_12  0.65928915973
    R25_12  CAP12  1
    R25_13  COST  6.35797992758
    R25_13  BAL0_13  0.469699281532
    R25_13  BAL3_13  0.444137007644
    R25_13  BAL7_13  0.855647820298
    R25_13  BAL8_13  0.781580198427
    R25_13  BAL9_13  0.928067648303
    R25_13  BAL14_13  0.704469514187
    R25_13  BAL21_13  0.204303323823
    R25_13  BAL29_13  0.65928915973
    R25_13  CAP13  1
    R25_14  COST  6.35797992758
    R25_14  BAL0_14  0.469699281532
    R25_14  BAL3_14  0.444137007644
    R25_14  BAL7_14  0.855647820298
    R25_14  BAL8_14  0.781580198427
    R25_14  BAL9_14  0.928067648303
    R25_14  BAL14_14  0.704469514187
    R25_14  BAL21_14  0.204303323823
    R25_14  BAL29_14  0.65928915973
    R25_14  CAP14  1
    R25_15  COST  6.35797992758
    R25_15  BAL0_15  0.469699281532
    R25_15  BAL3_15  0.444137007644
    R25_15  BAL7_15  0.855647820298
    R25_15  BAL8_15  0.781580198427
    R25_15  BAL9_15  0.928067648303
    R25_15  BAL14_15  0.704469514187
    R25_15  BAL21_15  0.204303323823
    R25_15  BAL29_15  0.65928915973
    R25_15  CAP15  1
    R25_16  COST  6.35797992758
    R25_16  BAL0_16  0.469699281532
    R25_16  BAL3_16  0.444137007644
    R25_16  BAL7_16  0.855647820298
    R25_16  BAL8_16  0.781580198427
    R25_16  BAL9_16  0.928067648303
    R25_16  BAL14_16  0.704469514187
    R25_16  BAL21_16  0.204303323823
    R25_16  BAL29_16  0.65928915973
    R25_16  CAP16  1
    R25_17  COST  6.35797992758
    R25_17  BAL0_17  0.469699281532
    R25_17  BAL3_17  0.444137007644
    R25_17  BAL7_17  0.855647820298
    R25_17  BAL8_17  0.781580198427
    R25_17  BAL9_17  0.928067648303
    R25_17  BAL14_17  0.704469514187
    R25_17  BAL21_17  0.204303323823
    R25_17  BAL29_17  0.65928915973
    R25_17  CAP17  1
    R25_18  COST  6.35797992758
    R25_18  BAL0_18  0.469699281532
    R25_18  BAL3_18  0.444137007644
    R25_18  BAL7_18  0.855647820298
    R25_18  BAL8_18  0.781580198427
    R25_18  BAL9_18  0.928067648303
    R25_18  BAL14_18  0.704469514187
    R25_18  BAL21_18  0.204303323823
    R25_18  BAL29_18  0.65928915973
    R25_18  CAP18  1
    R25_19  COST  6.35797992758
    R25_19  BAL0_19  0.469699281532
    R25_19  BAL3_19  0.444137007644
    R25_19  BAL7_19  0.855647820298
    R25_19  BAL8_19  0.781580198427
    R25_19  BAL9_19  0.928067648303
    R25_19  BAL14_19  0.704469514187
    R25_19  BAL21_19  0.204303323823
    R25_19  BAL29_19  0.65928915973
    R25_19  CAP19  1
    R25_20  COST  6.35797992758
    R25_20  BAL0_20  0.469699281532
    R25_20  BAL3_20  0.444137007644
    R25_20  BAL7_20  0.855647820298
    R25_20  BAL8_20  0.781580198427
    R25_20  BAL9_20  0.928067648303
    R25_20  BAL14_20  0.704469514187
    R25_20  BAL21_20  0.204303323823
    R25_20  BAL29_20  0.65928915973
    R25_20  CAP20  1
    R25_21  COST  6.35797992758
    R25_21  BAL0_21  0.469699281532
    R25_21  BAL3_21  0.444137007644
    R25_21  BAL7_21  0.855647820298
    R25_21  BAL8_21  0.781580198427
    R25_21  BAL9_21  0.928067648303
    R25_21  BAL14_21  0.704469514187
    R25_21  BAL21_21  0.204303323823
    R25_21  BAL29_21  0.65928915973
    R25_21  CAP21  1
    R25_22  COST  6.35797992758
    R25_22  BAL0_22  0.469699281532
    R25_22  BAL3_22  0.444137007644
    R25_22  BAL7_22  0.855647820298
    R25_22  BAL8_22  0.781580198427
    R25_22  BAL9_22  0.928067648303
    R25_22  BAL14_22  0.704469514187
    R25_22  BAL21_22  0.204303323823
    R25_22  BAL29_22  0.65928915973
    R25_22  CAP22  1
    R25_23  COST  6.35797992758
    R25_23  BAL0_23  0.469699281532
    R25_23  BAL3_23  0.444137007644
    R25_23  BAL7_23  0.855647820298
    R25_23  BAL8_23  0.781580198427
    R25_23  BAL9_23  0.928067648303
    R25_23  BAL14_23  0.704469514187
    R25_23  BAL21_23  0.204303323823
    R25_23  BAL29_23  0.65928915973
    R25_23  CAP23  1
    R25_24  COST  6.35797992758
    R25_24  BAL0_24  0.469699281532
    R25_24  BAL3_24  0.444137007644
    R25_24  BAL7_24  0.855647820298
    R25_24  BAL8_24  0.781580198427
    R25_24  BAL9_24  0.928067648303
    R25_24  BAL14_24  0.704469514187
    R25_24  BAL21_24  0.204303323823
    R25_24  BAL29_24  0.65928915973
    R25_24  CAP24  1
    R25_25  COST  6.35797992758
    R25_25  BAL0_25  0.469699281532
    R25_25  BAL3_25  0.444137007644
    R25_25  BAL7_25  0.855647820298
    R25_25  BAL8_25  0.781580198427
    R25_25  BAL9_25  0.928067648303
    R25_25  BAL14_25  0.704469514187
    R25_25  BAL21_25  0.204303323823
    R25_25  BAL29_25  0.65928915973
    R25_25  CAP25  1
    R25_26  COST  6.35797992758
    R25_26  BAL0_26  0.469699281532
    R25_26  BAL3_26  0.444137007644
    R25_26  BAL7_26  0.855647820298
    R25_26  BAL8_26  0.781580198427
    R25_26  BAL9_26  0.928067648303
    R25_26  BAL14_26  0.704469514187
    R25_26  BAL21_26  0.204303323823
    R25_26  BAL29_26  0.65928915973
    R25_26  CAP26  1
    R25_27  COST  6.35797992758
    R25_27  BAL0_27  0.469699281532
    R25_27  BAL3_27  0.444137007644
    R25_27  BAL7_27  0.855647820298
    R25_27  BAL8_27  0.781580198427
    R25_27  BAL9_27  0.928067648303
    R25_27  BAL14_27  0.704469514187
    R25_27  BAL21_27  0.204303323823
    R25_27  BAL29_27  0.65928915973
    R25_27  CAP27  1
    R25_28  COST  6.35797992758
    R25_28  BAL0_28  0.469699281532
    R25_28  BAL3_28  0.444137007644
    R25_28  BAL7_28  0.855647820298
    R25_28  BAL8_28  0.781580198427
    R25_28  BAL9_28  0.928067648303
    R25_28  BAL14_28  0.704469514187
    R25_28  BAL21_28  0.204303323823
    R25_28  BAL29_28  0.65928915973
    R25_28  CAP28  1
    R25_29  COST  6.35797992758
    R25_29  BAL0_29  0.469699281532
    R25_29  BAL3_29  0.444137007644
    R25_29  BAL7_29  0.855647820298
    R25_29  BAL8_29  0.781580198427
    R25_29  BAL9_29  0.928067648303
    R25_29  BAL14_29  0.704469514187
    R25_29  BAL21_29  0.204303323823
    R25_29  BAL29_29  0.65928915973
    R25_29  CAP29  1
    R25_30  COST  6.35797992758
    R25_30  BAL0_30  0.469699281532
    R25_30  BAL3_30  0.444137007644
    R25_30  BAL7_30  0.855647820298
    R25_30  BAL8_30  0.781580198427
    R25_30  BAL9_30  0.928067648303
    R25_30  BAL14_30  0.704469514187
    R25_30  BAL21_30  0.204303323823
    R25_30  BAL29_30  0.65928915973
    R25_30  CAP30  1
    R25_31  COST  6.35797992758
    R25_31  BAL0_31  0.469699281532
    R25_31  BAL3_31  0.444137007644
    R25_31  BAL7_31  0.855647820298
    R25_31  BAL8_31  0.781580198427
    R25_31  BAL9_31  0.928067648303
    R25_31  BAL14_31  0.704469514187
    R25_31  BAL21_31  0.204303323823
    R25_31  BAL29_31  0.65928915973
    R25_31  CAP31  1
    R25_32  COST  6.35797992758
    R25_32  BAL0_32  0.469699281532
    R25_32  BAL3_32  0.444137007644
    R25_32  BAL7_32  0.855647820298
    R25_32  BAL8_32  0.781580198427
    R25_32  BAL9_32  0.928067648303
    R25_32  BAL14_32  0.704469514187
    R25_32  BAL21_32  0.204303323823
    R25_32  BAL29_32  0.65928915973
    R25_32  CAP32  1
    R25_33  COST  6.35797992758
    R25_33  BAL0_33  0.469699281532
    R25_33  BAL3_33  0.444137007644
    R25_33  BAL7_33  0.855647820298
    R25_33  BAL8_33  0.781580198427
    R25_33  BAL9_33  0.928067648303
    R25_33  BAL14_33  0.704469514187
    R25_33  BAL21_33  0.204303323823
    R25_33  BAL29_33  0.65928915973
    R25_33  CAP33  1
    R25_34  COST  6.35797992758
    R25_34  BAL0_34  0.469699281532
    R25_34  BAL3_34  0.444137007644
    R25_34  BAL7_34  0.855647820298
    R25_34  BAL8_34  0.781580198427
    R25_34  BAL9_34  0.928067648303
    R25_34  BAL14_34  0.704469514187
    R25_34  BAL21_34  0.204303323823
    R25_34  BAL29_34  0.65928915973
    R25_34  CAP34  1
    R25_35  COST  6.35797992758
    R25_35  BAL0_35  0.469699281532
    R25_35  BAL3_35  0.444137007644
    R25_35  BAL7_35  0.855647820298
    R25_35  BAL8_35  0.781580198427
    R25_35  BAL9_35  0.928067648303
    R25_35  BAL14_35  0.704469514187
    R25_35  BAL21_35  0.204303323823
    R25_35  BAL29_35  0.65928915973
    R25_35  CAP35  1
    R26_0  COST  11.1227910561
    R26_0  BAL0_0  0.369587321267
    R26_0  BAL3_0  0.666589044832
    R26_0  BAL8_0  0.304598894735
    R26_0  BAL10_0  0.538620893364
    R26_0  BAL11_0  0.61706973299
    R26_0  BAL14_0  0.211933460548
    R26_0  BAL16_0  0.902816077715
    R26_0  BAL18_0  0.830482282309
    R26_0  BAL20_0  0.733284062977
    R26_0  BAL24_0  0.75183642788
    R26_0  BAL25_0  0.374445019269
    R26_0  BAL26_0  0.525903754894
    R26_0  BAL27_0  0.506984526641
    R26_0  BAL29_0  0.850119374949
    R26_0  CAP0  1
    R26_1  COST  11.1227910561
    R26_1  BAL0_1  0.369587321267
    R26_1  BAL3_1  0.666589044832
    R26_1  BAL8_1  0.304598894735
    R26_1  BAL10_1  0.538620893364
    R26_1  BAL11_1  0.61706973299
    R26_1  BAL14_1  0.211933460548
    R26_1  BAL16_1  0.902816077715
    R26_1  BAL18_1  0.830482282309
    R26_1  BAL20_1  0.733284062977
    R26_1  BAL24_1  0.75183642788
    R26_1  BAL25_1  0.374445019269
    R26_1  BAL26_1  0.525903754894
    R26_1  BAL27_1  0.506984526641
    R26_1  BAL29_1  0.850119374949
    R26_1  CAP1  1
    R26_2  COST  11.1227910561
    R26_2  BAL0_2  0.369587321267
    R26_2  BAL3_2  0.666589044832
    R26_2  BAL8_2  0.304598894735
    R26_2  BAL10_2  0.538620893364
    R26_2  BAL11_2  0.61706973299
    R26_2  BAL14_2  0.211933460548
    R26_2  BAL16_2  0.902816077715
    R26_2  BAL18_2  0.830482282309
    R26_2  BAL20_2  0.733284062977
    R26_2  BAL24_2  0.75183642788
    R26_2  BAL25_2  0.374445019269
    R26_2  BAL26_2  0.525903754894
    R26_2  BAL27_2  0.506984526641
    R26_2  BAL29_2  0.850119374949
    R26_2  CAP2  1
    R26_3  COST  11.1227910561
    R26_3  BAL0_3  0.369587321267
    R26_3  BAL3_3  0.666589044832
    R26_3  BAL8_3  0.304598894735
    R26_3  BAL10_3  0.538620893364
    R26_3  BAL11_3  0.61706973299
    R26_3  BAL14_3  0.211933460548
    R26_3  BAL16_3  0.902816077715
    R26_3  BAL18_3  0.830482282309
    R26_3  BAL20_3  0.733284062977
    R26_3  BAL24_3  0.75183642788
    R26_3  BAL25_3  0.374445019269
    R26_3  BAL26_3  0.525903754894
    R26_3  BAL27_3  0.506984526641
    R26_3  BAL29_3  0.850119374949
    R26_3  CAP3  1
    R26_4  COST  11.1227910561
    R26_4  BAL0_4  0.369587321267
    R26_4  BAL3_4  0.666589044832
    R26_4  BAL8_4  0.304598894735
    R26_4  BAL10_4  0.538620893364
    R26_4  BAL11_4  0.61706973299
    R26_4  BAL14_4  0.211933460548
    R26_4  BAL16_4  0.902816077715
    R26_4  BAL18_4  0.830482282309
    R26_4  BAL20_4  0.733284062977
    R26_4  BAL24_4  0.75183642788
    R26_4  BAL25_4  0.374445019269
    R26_4  BAL26_4  0.525903754894
    R26_4  BAL27_4  0.506984526641
    R26_4  BAL29_4  0.850119374949
    R26_4  CAP4  1
    R26_5  COST  11.1227910561
    R26_5  BAL0_5  0.369587321267
    R26_5  BAL3_5  0.666589044832
    R26_5  BAL8_5  0.304598894735
    R26_5  BAL10_5  0.538620893364
    R26_5  BAL11_5  0.61706973299
    R26_5  BAL14_5  0.211933460548
    R26_5  BAL16_5  0.902816077715
    R26_5  BAL18_5  0.830482282309
    R26_5  BAL20_5  0.733284062977
    R26_5  BAL24_5  0.75183642788
    R26_5  BAL25_5  0.374445019269
    R26_5  BAL26_5  0.525903754894
    R26_5  BAL27_5  0.506984526641
    R26_5  BAL29_5  0.850119374949
    R26_5  CAP5  1
    R26_6  COST  11.1227910561
    R26_6  BAL0_6  0.369587321267
    R26_6  BAL3_6  0.666589044832
    R26_6  BAL8_6  0.304598894735
    R26_6  BAL10_6  0.538620893364
    R26_6  BAL11_6  0.61706973299
    R26_6  BAL14_6  0.211933460548
    R26_6  BAL16_6  0.902816077715
    R26_6  BAL18_6  0.830482282309
    R26_6  BAL20_6  0.733284062977
    R26_6  BAL24_6  0.75183642788
    R26_6  BAL25_6  0.374445019269
    R26_6  BAL26_6  0.525903754894
    R26_6  BAL27_6  0.506984526641
    R26_6  BAL29_6  0.850119374949
    R26_6  CAP6  1
    R26_7  COST  11.1227910561
    R26_7  BAL0_7  0.369587321267
    R26_7  BAL3_7  0.666589044832
    R26_7  BAL8_7  0.304598894735
    R26_7  BAL10_7  0.538620893364
    R26_7  BAL11_7  0.61706973299
    R26_7  BAL14_7  0.211933460548
    R26_7  BAL16_7  0.902816077715
    R26_7  BAL18_7  0.830482282309
    R26_7  BAL20_7  0.733284062977
    R26_7  BAL24_7  0.75183642788
    R26_7  BAL25_7  0.374445019269
    R26_7  BAL26_7  0.525903754894
    R26_7  BAL27_7  0.506984526641
    R26_7  BAL29_7  0.850119374949
    R26_7  CAP7  1
    R26_8  COST  11.1227910561
    R26_8  BAL0_8  0.369587321267
    R26_8  BAL3_8  0.666589044832
    R26_8  BAL8_8  0.304598894735
    R26_8  BAL10_8  0.538620893364
    R26_8  BAL11_8  0.61706973299
    R26_8  BAL14_8  0.211933460548
    R26_8  BAL16_8  0.902816077715
    R26_8  BAL18_8  0.830482282309
    R26_8  BAL20_8  0.733284062977
    R26_8  BAL24_8  0.75183642788
    R26_8  BAL25_8  0.374445019269
    R26_8  BAL26_8  0.525903754894
    R26_8  BAL27_8  0.506984526641
    R26_8  BAL29_8  0.850119374949
    R26_8  CAP8  1
    R26_9  COST  11.1227910561
    R26_9  BAL0_9  0.369587321267
    R26_9  BAL3_9  0.666589044832
    R26_9  BAL8_9  0.304598894735
    R26_9  BAL10_9  0.538620893364
    R26_9  BAL11_9  0.61706973299
    R26_9  BAL14_9  0.211933460548
    R26_9  BAL16_9  0.902816077715
    R26_9  BAL18_9  0.830482282309
    R26_9  BAL20_9  0.733284062977
    R26_9  BAL24_9  0.75183642788
    R26_9  BAL25_9  0.374445019269
    R26_9  BAL26_9  0.525903754894
    R26_9  BAL27_9  0.506984526641
    R26_9  BAL29_9  0.850119374949
    R26_9  CAP9  1
    R26_10  COST  11.1227910561
    R26_10  BAL0_10  0.369587321267
    R26_10  BAL3_10  0.666589044832
    R26_10  BAL8_10  0.304598894735
    R26_10  BAL10_10  0.538620893364
    R26_10  BAL11_10  0.61706973299
    R26_10  BAL14_10  0.211933460548
    R26_10  BAL16_10  0.902816077715
    R26_10  BAL18_10  0.830482282309
    R26_10  BAL20_10  0.733284062977
    R26_10  BAL24_10  0.75183642788
    R26_10  BAL25_10  0.374445019269
    R26_10  BAL26_10  0.525903754894
    R26_10  BAL27_10  0.506984526641
    R26_10  BAL29_10  0.850119374949
    R26_10  CAP10  1
    R26_11  COST  11.1227910561
    R26_11  BAL0_11  0.369587321267
    R26_11  BAL3_11  0.666589044832
    R26_11  BAL8_11  0.304598894735
    R26_11  BAL10_11  0.538620893364
    R26_11  BAL11_11  0.61706973299
    R26_11  BAL14_11  0.211933460548
    R26_11  BAL16_11  0.902816077715
    R26_11  BAL18_11  0.830482282309
    R26_11  BAL20_11  0.733284062977
    R26_11  BAL24_11  0.75183642788
    R26_11  BAL25_11  0.374445019269
    R26_11  BAL26_11  0.525903754894
    R26_11  BAL27_11  0.506984526641
    R26_11  BAL29_11  0.850119374949
    R26_11  CAP11  1
    R26_12  COST  11.1227910561
    R26_12  BAL0_12  0.369587321267
    R26_12  BAL3_12  0.666589044832
    R26_12  BAL8_12  0.304598894735
    R26_12  BAL10_12  0.538620893364
    R26_12  BAL11_12  0.61706973299
    R26_12  BAL14_12  0.211933460548
    R26_12  BAL16_12  0.902816077715
    R26_12  BAL18_12  0.830482282309
    R26_12  BAL20_12  0.733284062977
    R26_12  BAL24_12  0.75183642788
    R26_12  BAL25_12  0.374445019269
    R26_12  BAL26_12  0.525903754894
    R26_12  BAL27_12  0.506984526641
    R26_12  BAL29_12  0.850119374949
    R26_12  CAP12  1
    R26_13  COST  11.1227910561
    R26_13  BAL0_13  0.369587321267
    R26_13  BAL3_13  0.666589044832
    R26_13  BAL8_13  0.304598894735
    R26_13  BAL10_13  0.538620893364
    R26_13  BAL11_13  0.61706973299
    R26_13  BAL14_13  0.211933460548
    R26_13  BAL16_13  0.902816077715
    R26_13  BAL18_13  0.830482282309
    R26_13  BAL20_13  0.733284062977
    R26_13  BAL24_13  0.75183642788
    R26_13  BAL25_13  0.374445019269
    R26_13  BAL26_13  0.525903754894
    R26_13  BAL27_13  0.506984526641
    R26_13  BAL29_13  0.850119374949
    R26_13  CAP13  1
    R26_14  COST  11.1227910561
    R26_14  BAL0_14  0.369587321267
    R26_14  BAL3_14  0.666589044832
    R26_14  BAL8_14  0.304598894735
    R26_14  BAL10_14  0.538620893364
    R26_14  BAL11_14  0.61706973299
    R26_14  BAL14_14  0.211933460548
    R26_14  BAL16_14  0.902816077715
    R26_14  BAL18_14  0.830482282309
    R26_14  BAL20_14  0.733284062977
    R26_14  BAL24_14  0.75183642788
    R26_14  BAL25_14  0.374445019269
    R26_14  BAL26_14  0.525903754894
    R26_14  BAL27_14  0.506984526641
    R26_14  BAL29_14  0.850119374949
    R26_14  CAP14  1
    R26_15  COST  11.1227910561
    R26_15  BAL0_15  0.369587321267
    R26_15  BAL3_15  0.666589044832
    R26_15  BAL8_15  0.304598894735
    R26_15  BAL10_15  0.538620893364
    R26_15  BAL11_15  0.61706973299
    R26_15  BAL14_15  0.211933460548
    R26_15  BAL16_15  0.902816077715
    R26_15  BAL18_15  0.830482282309
    R26_15  BAL20_15  0.733284062977
    R26_15  BAL24_15  0.75183642788
    R26_15  BAL25_15  0.374445019269
    R26_15  BAL26_15  0.525903754894
    R26_15  BAL27_15  0.506984526641
    R26_15  BAL29_15  0.850119374949
    R26_15  CAP15  1
    R26_16  COST  11.1227910561
    R26_16  BAL0_16  0.369587321267
    R26_16  BAL3_16  0.666589044832
    R26_16  BAL8_16  0.304598894735
    R26_16  BAL10_16  0.538620893364
    R26_16  BAL11_16  0.61706973299
    R26_16  BAL14_16  0.211933460548
    R26_16  BAL16_16  0.902816077715
    R26_16  BAL18_16  0.830482282309
    R26_16  BAL20_16  0.733284062977
    R26_16  BAL24_16  0.75183642788
    R26_16  BAL25_16  0.374445019269
    R26_16  BAL26_16  0.525903754894
    R26_16  BAL27_16  0.506984526641
    R26_16  BAL29_16  0.850119374949
    R26_16  CAP16  1
    R26_17  COST  11.1227910561
    R26_17  BAL0_17  0.369587321267
    R26_17  BAL3_17  0.666589044832
    R26_17  BAL8_17  0.304598894735
    R26_17  BAL10_17  0.538620893364
    R26_17  BAL11_17  0.61706973299
    R26_17  BAL14_17  0.211933460548
    R26_17  BAL16_17  0.902816077715
    R26_17  BAL18_17  0.830482282309
    R26_17  BAL20_17  0.733284062977
    R26_17  BAL24_17  0.75183642788
    R26_17  BAL25_17  0.374445019269
    R26_17  BAL26_17  0.525903754894
    R26_17  BAL27_17  0.506984526641
    R26_17  BAL29_17  0.850119374949
    R26_17  CAP17  1
    R26_18  COST  11.1227910561
    R26_18  BAL0_18  0.369587321267
    R26_18  BAL3_18  0.666589044832
    R26_18  BAL8_18  0.304598894735
    R26_18  BAL10_18  0.538620893364
    R26_18  BAL11_18  0.61706973299
    R26_18  BAL14_18  0.211933460548
    R26_18  BAL16_18  0.902816077715
    R26_18  BAL18_18  0.830482282309
    R26_18  BAL20_18  0.733284062977
    R26_18  BAL24_18  0.75183642788
    R26_18  BAL25_18  0.374445019269
    R26_18  BAL26_18  0.525903754894
    R26_18  BAL27_18  0.506984526641
    R26_18  BAL29_18  0.850119374949
    R26_18  CAP18  1
    R26_19  COST  11.1227910561
    R26_19  BAL0_19  0.369587321267
    R26_19  BAL3_19  0.666589044832
    R26_19  BAL8_19  0.304598894735
    R26_19  BAL10_19  0.538620893364
    R26_19  BAL11_19  0.61706973299
    R26_19  BAL14_19  0.211933460548
    R26_19  BAL16_19  0.902816077715
    R26_19  BAL18_19  0.830482282309
    R26_19  BAL20_19  0.733284062977
    R26_19  BAL24_19  0.75183642788
    R26_19  BAL25_19  0.374445019269
    R26_19  BAL26_19  0.525903754894
    R26_19  BAL27_19  0.506984526641
    R26_19  BAL29_19  0.850119374949
    R26_19  CAP19  1
    R26_20  COST  11.1227910561
    R26_20  BAL0_20  0.369587321267
    R26_20  BAL3_20  0.666589044832
    R26_20  BAL8_20  0.304598894735
    R26_20  BAL10_20  0.538620893364
    R26_20  BAL11_20  0.61706973299
    R26_20  BAL14_20  0.211933460548
    R26_20  BAL16_20  0.902816077715
    R26_20  BAL18_20  0.830482282309
    R26_20  BAL20_20  0.733284062977
    R26_20  BAL24_20  0.75183642788
    R26_20  BAL25_20  0.374445019269
    R26_20  BAL26_20  0.525903754894
    R26_20  BAL27_20  0.506984526641
    R26_20  BAL29_20  0.850119374949
    R26_20  CAP20  1
    R26_21  COST  11.1227910561
    R26_21  BAL0_21  0.369587321267
    R26_21  BAL3_21  0.666589044832
    R26_21  BAL8_21  0.304598894735
    R26_21  BAL10_21  0.538620893364
    R26_21  BAL11_21  0.61706973299
    R26_21  BAL14_21  0.211933460548
    R26_21  BAL16_21  0.902816077715
    R26_21  BAL18_21  0.830482282309
    R26_21  BAL20_21  0.733284062977
    R26_21  BAL24_21  0.75183642788
    R26_21  BAL25_21  0.374445019269
    R26_21  BAL26_21  0.525903754894
    R26_21  BAL27_21  0.506984526641
    R26_21  BAL29_21  0.850119374949
    R26_21  CAP21  1
    R26_22  COST  11.1227910561
    R26_22  BAL0_22  0.369587321267
    R26_22  BAL3_22  0.666589044832
    R26_22  BAL8_22  0.304598894735
    R26_22  BAL10_22  0.538620893364
    R26_22  BAL11_22  0.61706973299
    R26_22  BAL14_22  0.211933460548
    R26_22  BAL16_22  0.902816077715
    R26_22  BAL18_22  0.830482282309
    R26_22  BAL20_22  0.733284062977
    R26_22  BAL24_22  0.75183642788
    R26_22  BAL25_22  0.374445019269
    R26_22  BAL26_22  0.525903754894
    R26_22  BAL27_22  0.506984526641
    R26_22  BAL29_22  0.850119374949
    R26_22  CAP22  1
    R26_23  COST  11.1227910561
    R26_23  BAL0_23  0.369587321267
    R26_23  BAL3_23  0.666589044832
    R26_23  BAL8_23  0.304598894735
    R26_23  BAL10_23  0.538620893364
    R26_23  BAL11_23  0.61706973299
    R26_23  BAL14_23  0.211933460548
    R26_23  BAL16_23  0.902816077715
    R26_23  BAL18_23  0.830482282309
    R26_23  BAL20_23  0.733284062977
    R26_23  BAL24_23  0.75183642788
    R26_23  BAL25_23  0.374445019269
    R26_23  BAL26_23  0.525903754894
    R26_23  BAL27_23  0.506984526641
    R26_23  BAL29_23  0.850119374949
    R26_23  CAP23  1
    R26_24  COST  11.1227910561
    R26_24  BAL0_24  0.369587321267
    R26_24  BAL3_24  0.666589044832
    R26_24  BAL8_24  0.304598894735
    R26_24  BAL10_24  0.538620893364
    R26_24  BAL11_24  0.61706973299
    R26_24  BAL14_24  0.211933460548
    R26_24  BAL16_24  0.902816077715
    R26_24  BAL18_24  0.830482282309
    R26_24  BAL20_24  0.733284062977
    R26_24  BAL24_24  0.75183642788
    R26_24  BAL25_24  0.374445019269
    R26_24  BAL26_24  0.525903754894
    R26_24  BAL27_24  0.506984526641
    R26_24  BAL29_24  0.850119374949
    R26_24  CAP24  1
    R26_25  COST  11.1227910561
    R26_25  BAL0_25  0.369587321267
    R26_25  BAL3_25  0.666589044832
    R26_25  BAL8_25  0.304598894735
    R26_25  BAL10_25  0.538620893364
    R26_25  BAL11_25  0.61706973299
    R26_25  BAL14_25  0.211933460548
    R26_25  BAL16_25  0.902816077715
    R26_25  BAL18_25  0.830482282309
    R26_25  BAL20_25  0.733284062977
    R26_25  BAL24_25  0.75183642788
    R26_25  BAL25_25  0.374445019269
    R26_25  BAL26_25  0.525903754894
    R26_25  BAL27_25  0.506984526641
    R26_25  BAL29_25  0.850119374949
    R26_25  CAP25  1
    R26_26  COST  11.1227910561
    R26_26  BAL0_26  0.369587321267
    R26_26  BAL3_26  0.666589044832
    R26_26  BAL8_26  0.304598894735
    R26_26  BAL10_26  0.538620893364
    R26_26  BAL11_26  0.61706973299
    R26_26  BAL14_26  0.211933460548
    R26_26  BAL16_26  0.902816077715
    R26_26  BAL18_26  0.830482282309
    R26_26  BAL20_26  0.733284062977
    R26_26  BAL24_26  0.75183642788
    R26_26  BAL25_26  0.374445019269
    R26_26  BAL26_26  0.525903754894
    R26_26  BAL27_26  0.506984526641
    R26_26  BAL29_26  0.850119374949
    R26_26  CAP26  1
    R26_27  COST  11.1227910561
    R26_27  BAL0_27  0.369587321267
    R26_27  BAL3_27  0.666589044832
    R26_27  BAL8_27  0.304598894735
    R26_27  BAL10_27  0.538620893364
    R26_27  BAL11_27  0.61706973299
    R26_27  BAL14_27  0.211933460548
    R26_27  BAL16_27  0.902816077715
    R26_27  BAL18_27  0.830482282309
    R26_27  BAL20_27  0.733284062977
    R26_27  BAL24_27  0.75183642788
    R26_27  BAL25_27  0.374445019269
    R26_27  BAL26_27  0.525903754894
    R26_27  BAL27_27  0.506984526641
    R26_27  BAL29_27  0.850119374949
    R26_27  CAP27  1
    R26_28  COST  11.1227910561
    R26_28  BAL0_28  0.369587321267
    R26_28  BAL3_28  0.666589044832
    R26_28  BAL8_28  0.304598894735
    R26_28  BAL10_28  0.538620893364
    R26_28  BAL11_28  0.61706973299
    R26_28  BAL14_28  0.211933460548
    R26_28  BAL16_28  0.902816077715
    R26_28  BAL18_28  0.830482282309
    R26_28  BAL20_28  0.733284062977
    R26_28  BAL24_28  0.75183642788
    R26_28  BAL25_28  0.374445019269
    R26_28  BAL26_28  0.525903754894
    R26_28  BAL27_28  0.506984526641
    R26_28  BAL29_28  0.850119374949
    R26_28  CAP28  1
    R26_29  COST  11.1227910561
    R26_29  BAL0_29  0.369587321267
    R26_29  BAL3_29  0.666589044832
    R26_29  BAL8_29  0.304598894735
    R26_29  BAL10_29  0.538620893364
    R26_29  BAL11_29  0.61706973299
    R26_29  BAL14_29  0.211933460548
    R26_29  BAL16_29  0.902816077715
    R26_29  BAL18_29  0.830482282309
    R26_29  BAL20_29  0.733284062977
    R26_29  BAL24_29  0.75183642788
    R26_29  BAL25_29  0.374445019269
    R26_29  BAL26_29  0.525903754894
    R26_29  BAL27_29  0.506984526641
    R26_29  BAL29_29  0.850119374949
    R26_29  CAP29  1
    R26_30  COST  11.1227910561
    R26_30  BAL0_30  0.369587321267
    R26_30  BAL3_30  0.666589044832
    R26_30  BAL8_30  0.304598894735
    R26_30  BAL10_30  0.538620893364
    R26_30  BAL11_30  0.61706973299
    R26_30  BAL14_30  0.211933460548
    R26_30  BAL16_30  0.902816077715
    R26_30  BAL18_30  0.830482282309
    R26_30  BAL20_30  0.733284062977
    R26_30  BAL24_30  0.75183642788
    R26_30  BAL25_30  0.374445019269
    R26_30  BAL26_30  0.525903754894
    R26_30  BAL27_30  0.506984526641
    R26_30  BAL29_30  0.850119374949
    R26_30  CAP30  1
    R26_31  COST  11.1227910561
    R26_31  BAL0_31  0.369587321267
    R26_31  BAL3_31  0.666589044832
    R26_31  BAL8_31  0.304598894735
    R26_31  BAL10_31  0.538620893364
    R26_31  BAL11_31  0.61706973299
    R26_31  BAL14_31  0.211933460548
    R26_31  BAL16_31  0.902816077715
    R26_31  BAL18_31  0.830482282309
    R26_31  BAL20_31  0.733284062977
    R26_31  BAL24_31  0.75183642788
    R26_31  BAL25_31  0.374445019269
    R26_31  BAL26_31  0.525903754894
    R26_31  BAL27_31  0.506984526641
    R26_31  BAL29_31  0.850119374949
    R26_31  CAP31  1
    R26_32  COST  11.1227910561
    R26_32  BAL0_32  0.369587321267
    R26_32  BAL3_32  0.666589044832
    R26_32  BAL8_32  0.304598894735
    R26_32  BAL10_32  0.538620893364
    R26_32  BAL11_32  0.61706973299
    R26_32  BAL14_32  0.211933460548
    R26_32  BAL16_32  0.902816077715
    R26_32  BAL18_32  0.830482282309
    R26_32  BAL20_32  0.733284062977
    R26_32  BAL24_32  0.75183642788
    R26_32  BAL25_32  0.374445019269
    R26_32  BAL26_32  0.525903754894
    R26_32  BAL27_32  0.506984526641
    R26_32  BAL29_32  0.850119374949
    R26_32  CAP32  1
    R26_33  COST  11.1227910561
    R26_33  BAL0_33  0.369587321267
    R26_33  BAL3_33  0.666589044832
    R26_33  BAL8_33  0.304598894735
    R26_33  BAL10_33  0.538620893364
    R26_33  BAL11_33  0.61706973299
    R26_33  BAL14_33  0.211933460548
    R26_33  BAL16_33  0.902816077715
    R26_33  BAL18_33  0.830482282309
    R26_33  BAL20_33  0.733284062977
    R26_33  BAL24_33  0.75183642788
    R26_33  BAL25_33  0.374445019269
    R26_33  BAL26_33  0.525903754894
    R26_33  BAL27_33  0.506984526641
    R26_33  BAL29_33  0.850119374949
    R26_33  CAP33  1
    R26_34  COST  11.1227910561
    R26_34  BAL0_34  0.369587321267
    R26_34  BAL3_34  0.666589044832
    R26_34  BAL8_34  0.304598894735
    R26_34  BAL10_34  0.538620893364
    R26_34  BAL11_34  0.61706973299
    R26_34  BAL14_34  0.211933460548
    R26_34  BAL16_34  0.902816077715
    R26_34  BAL18_34  0.830482282309
    R26_34  BAL20_34  0.733284062977
    R26_34  BAL24_34  0.75183642788
    R26_34  BAL25_34  0.374445019269
    R26_34  BAL26_34  0.525903754894
    R26_34  BAL27_34  0.506984526641
    R26_34  BAL29_34  0.850119374949
    R26_34  CAP34  1
    R26_35  COST  11.1227910561
    R26_35  BAL0_35  0.369587321267
    R26_35  BAL3_35  0.666589044832
    R26_35  BAL8_35  0.304598894735
    R26_35  BAL10_35  0.538620893364
    R26_35  BAL11_35  0.61706973299
    R26_35  BAL14_35  0.211933460548
    R26_35  BAL16_35  0.902816077715
    R26_35  BAL18_35  0.830482282309
    R26_35  BAL20_35  0.733284062977
    R26_35  BAL24_35  0.75183642788
    R26_35  BAL25_35  0.374445019269
    R26_35  BAL26_35  0.525903754894
    R26_35  BAL27_35  0.506984526641
    R26_35  BAL29_35  0.850119374949
    R26_35  CAP35  1
    R27_0  COST  21.8893548012
    R27_0  BAL0_0  0.252387611004
    R27_0  BAL2_0  0.921730302495
    R27_0  BAL4_0  0.45794925026
    R27_0  BAL8_0  0.259537090607
    R27_0  BAL12_0  0.261038512476
    R27_0  BAL14_0  0.733800188807
    R27_0  BAL18_0  0.258319442748
    R27_0  BAL26_0  0.290856951402
    R27_0  BAL27_0  0.903463430121
    R27_0  CAP0  1
    R27_1  COST  21.8893548012
    R27_1  BAL0_1  0.252387611004
    R27_1  BAL2_1  0.921730302495
    R27_1  BAL4_1  0.45794925026
    R27_1  BAL8_1  0.259537090607
    R27_1  BAL12_1  0.261038512476
    R27_1  BAL14_1  0.733800188807
    R27_1  BAL18_1  0.258319442748
    R27_1  BAL26_1  0.290856951402
    R27_1  BAL27_1  0.903463430121
    R27_1  CAP1  1
    R27_2  COST  21.8893548012
    R27_2  BAL0_2  0.252387611004
    R27_2  BAL2_2  0.921730302495
    R27_2  BAL4_2  0.45794925026
    R27_2  BAL8_2  0.259537090607
    R27_2  BAL12_2  0.261038512476
    R27_2  BAL14_2  0.733800188807
    R27_2  BAL18_2  0.258319442748
    R27_2  BAL26_2  0.290856951402
    R27_2  BAL27_2  0.903463430121
    R27_2  CAP2  1
    R27_3  COST  21.8893548012
    R27_3  BAL0_3  0.252387611004
    R27_3  BAL2_3  0.921730302495
    R27_3  BAL4_3  0.45794925026
    R27_3  BAL8_3  0.259537090607
    R27_3  BAL12_3  0.261038512476
    R27_3  BAL14_3  0.733800188807
    R27_3  BAL18_3  0.258319442748
    R27_3  BAL26_3  0.290856951402
    R27_3  BAL27_3  0.903463430121
    R27_3  CAP3  1
    R27_4  COST  21.8893548012
    R27_4  BAL0_4  0.252387611004
    R27_4  BAL2_4  0.921730302495
    R27_4  BAL4_4  0.45794925026
    R27_4  BAL8_4  0.259537090607
    R27_4  BAL12_4  0.261038512476
    R27_4  BAL14_4  0.733800188807
    R27_4  BAL18_4  0.258319442748
    R27_4  BAL26_4  0.290856951402
    R27_4  BAL27_4  0.903463430121
    R27_4  CAP4  1
    R27_5  COST  21.8893548012
    R27_5  BAL0_5  0.252387611004
    R27_5  BAL2_5  0.921730302495
    R27_5  BAL4_5  0.45794925026
    R27_5  BAL8_5  0.259537090607
    R27_5  BAL12_5  0.261038512476
    R27_5  BAL14_5  0.733800188807
    R27_5  BAL18_5  0.258319442748
    R27_5  BAL26_5  0.290856951402
    R27_5  BAL27_5  0.903463430121
    R27_5  CAP5  1
    R27_6  COST  21.8893548012
    R27_6  BAL0_6  0.252387611004
    R27_6  BAL2_6  0.921730302495
    R27_6  BAL4_6  0.45794925026
    R27_6  BAL8_6  0.259537090607
    R27_6  BAL12_6  0.261038512476
    R27_6  BAL14_6  0.733800188807
    R27_6  BAL18_6  0.258319442748
    R27_6  BAL26_6  0.290856951402
    R27_6  BAL27_6  0.903463430121
    R27_6  CAP6  1
    R27_7  COST  21.8893548012
    R27_7  BAL0_7  0.252387611004
    R27_7  BAL2_7  0.921730302495
    R27_7  BAL4_7  0.45794925026
    R27_7  BAL8_7  0.259537090607
    R27_7  BAL12_7  0.261038512476
    R27_7  BAL14_7  0.733800188807
    R27_7  BAL18_7  0.258319442748
    R27_7  BAL26_7  0.290856951402
    R27_7  BAL27_7  0.903463430121
    R27_7  CAP7  1
    R27_8  COST  21.8893548012
    R27_8  BAL0_8  0.252387611004
    R27_8  BAL2_8  0.921730302495
    R27_8  BAL4_8  0.45794925026
    R27_8  BAL8_8  0.259537090607
    R27_8  BAL12_8  0.261038512476
    R27_8  BAL14_8  0.733800188807
    R27_8  BAL18_8  0.258319442748
    R27_8  BAL26_8  0.290856951402
    R27_8  BAL27_8  0.903463430121
    R27_8  CAP8  1
    R27_9  COST  21.8893548012
    R27_9  BAL0_9  0.252387611004
    R27_9  BAL2_9  0.921730302495
    R27_9  BAL4_9  0.45794925026
    R27_9  BAL8_9  0.259537090607
    R27_9  BAL12_9  0.261038512476
    R27_9  BAL14_9  0.733800188807
    R27_9  BAL18_9  0.258319442748
    R27_9  BAL26_9  0.290856951402
    R27_9  BAL27_9  0.903463430121
    R27_9  CAP9  1
    R27_10  COST  21.8893548012
    R27_10  BAL0_10  0.252387611004
    R27_10  BAL2_10  0.921730302495
    R27_10  BAL4_10  0.45794925026
    R27_10  BAL8_10  0.259537090607
    R27_10  BAL12_10  0.261038512476
    R27_10  BAL14_10  0.733800188807
    R27_10  BAL18_10  0.258319442748
    R27_10  BAL26_10  0.290856951402
    R27_10  BAL27_10  0.903463430121
    R27_10  CAP10  1
    R27_11  COST  21.8893548012
    R27_11  BAL0_11  0.252387611004
    R27_11  BAL2_11  0.921730302495
    R27_11  BAL4_11  0.45794925026
    R27_11  BAL8_11  0.259537090607
    R27_11  BAL12_11  0.261038512476
    R27_11  BAL14_11  0.733800188807
    R27_11  BAL18_11  0.258319442748
    R27_11  BAL26_11  0.290856951402
    R27_11  BAL27_11  0.903463430121
    R27_11  CAP11  1
    R27_12  COST  21.8893548012
    R27_12  BAL0_12  0.252387611004
    R27_12  BAL2_12  0.921730302495
    R27_12  BAL4_12  0.45794925026
    R27_12  BAL8_12  0.259537090607
    R27_12  BAL12_12  0.261038512476
    R27_12  BAL14_12  0.733800188807
    R27_12  BAL18_12  0.258319442748
    R27_12  BAL26_12  0.290856951402
    R27_12  BAL27_12  0.903463430121
    R27_12  CAP12  1
    R27_13  COST  21.8893548012
    R27_13  BAL0_13  0.252387611004
    R27_13  BAL2_13  0.921730302495
    R27_13  BAL4_13  0.45794925026
    R27_13  BAL8_13  0.259537090607
    R27_13  BAL12_13  0.261038512476
    R27_13  BAL14_13  0.733800188807
    R27_13  BAL18_13  0.258319442748
    R27_13  BAL26_13  0.290856951402
    R27_13  BAL27_13  0.903463430121
    R27_13  CAP13  1
    R27_14  COST  21.8893548012
    R27_14  BAL0_14  0.252387611004
    R27_14  BAL2_14  0.921730302495
    R27_14  BAL4_14  0.45794925026
    R27_14  BAL8_14  0.259537090607
    R27_14  BAL12_14  0.261038512476
    R27_14  BAL14_14  0.733800188807
    R27_14  BAL18_14  0.258319442748
    R27_14  BAL26_14  0.290856951402
    R27_14  BAL27_14  0.903463430121
    R27_14  CAP14  1
    R27_15  COST  21.8893548012
    R27_15  BAL0_15  0.252387611004
    R27_15  BAL2_15  0.921730302495
    R27_15  BAL4_15  0.45794925026
    R27_15  BAL8_15  0.259537090607
    R27_15  BAL12_15  0.261038512476
    R27_15  BAL14_15  0.733800188807
    R27_15  BAL18_15  0.258319442748
    R27_15  BAL26_15  0.290856951402
    R27_15  BAL27_15  0.903463430121
    R27_15  CAP15  1
    R27_16  COST  21.8893548012
    R27_16  BAL0_16  0.252387611004
    R27_16  BAL2_16  0.921730302495
    R27_16  BAL4_16  0.45794925026
    R27_16  BAL8_16  0.259537090607
    R27_16  BAL12_16  0.261038512476
    R27_16  BAL14_16  0.733800188807
    R27_16  BAL18_16  0.258319442748
    R27_16  BAL26_16  0.290856951402
    R27_16  BAL27_16  0.903463430121
    R27_16  CAP16  1
    R27_17  COST  21.8893548012
    R27_17  BAL0_17  0.252387611004
    R27_17  BAL2_17  0.921730302495
    R27_17  BAL4_17  0.45794925026
    R27_17  BAL8_17  0.259537090607
    R27_17  BAL12_17  0.261038512476
    R27_17  BAL14_17  0.733800188807
    R27_17  BAL18_17  0.258319442748
    R27_17  BAL26_17  0.290856951402
    R27_17  BAL27_17  0.903463430121
    R27_17  CAP17  1
    R27_18  COST  21.8893548012
    R27_18  BAL0_18  0.252387611004
    R27_18  BAL2_18  0.921730302495
    R27_18  BAL4_18  0.45794925026
    R27_18  BAL8_18  0.259537090607
    R27_18  BAL12_18  0.261038512476
    R27_18  BAL14_18  0.733800188807
    R27_18  BAL18_18  0.258319442748
    R27_18  BAL26_18  0.290856951402
    R27_18  BAL27_18  0.903463430121
    R27_18  CAP18  1
    R27_19  COST  21.8893548012
    R27_19  BAL0_19  0.252387611004
    R27_19  BAL2_19  0.921730302495
    R27_19  BAL4_19  0.45794925026
    R27_19  BAL8_19  0.259537090607
    R27_19  BAL12_19  0.261038512476
    R27_19  BAL14_19  0.733800188807
    R27_19  BAL18_19  0.258319442748
    R27_19  BAL26_19  0.290856951402
    R27_19  BAL27_19  0.903463430121
    R27_19  CAP19  1
    R27_20  COST  21.8893548012
    R27_20  BAL0_20  0.252387611004
    R27_20  BAL2_20  0.921730302495
    R27_20  BAL4_20  0.45794925026
    R27_20  BAL8_20  0.259537090607
    R27_20  BAL12_20  0.261038512476
    R27_20  BAL14_20  0.733800188807
    R27_20  BAL18_20  0.258319442748
    R27_20  BAL26_20  0.290856951402
    R27_20  BAL27_20  0.903463430121
    R27_20  CAP20  1
    R27_21  COST  21.8893548012
    R27_21  BAL0_21  0.252387611004
    R27_21  BAL2_21  0.921730302495
    R27_21  BAL4_21  0.45794925026
    R27_21  BAL8_21  0.259537090607
    R27_21  BAL12_21  0.261038512476
    R27_21  BAL14_21  0.733800188807
    R27_21  BAL18_21  0.258319442748
    R27_21  BAL26_21  0.290856951402
    R27_21  BAL27_21  0.903463430121
    R27_21  CAP21  1
    R27_22  COST  21.8893548012
    R27_22  BAL0_22  0.252387611004
    R27_22  BAL2_22  0.921730302495
    R27_22  BAL4_22  0.45794925026
    R27_22  BAL8_22  0.259537090607
    R27_22  BAL12_22  0.261038512476
    R27_22  BAL14_22  0.733800188807
    R27_22  BAL18_22  0.258319442748
    R27_22  BAL26_22  0.290856951402
    R27_22  BAL27_22  0.903463430121
    R27_22  CAP22  1
    R27_23  COST  21.8893548012
    R27_23  BAL0_23  0.252387611004
    R27_23  BAL2_23  0.921730302495
    R27_23  BAL4_23  0.45794925026
    R27_23  BAL8_23  0.259537090607
    R27_23  BAL12_23  0.261038512476
    R27_23  BAL14_23  0.733800188807
    R27_23  BAL18_23  0.258319442748
    R27_23  BAL26_23  0.290856951402
    R27_23  BAL27_23  0.903463430121
    R27_23  CAP23  1
    R27_24  COST  21.8893548012
    R27_24  BAL0_24  0.252387611004
    R27_24  BAL2_24  0.921730302495
    R27_24  BAL4_24  0.45794925026
    R27_24  BAL8_24  0.259537090607
    R27_24  BAL12_24  0.261038512476
    R27_24  BAL14_24  0.733800188807
    R27_24  BAL18_24  0.258319442748
    R27_24  BAL26_24  0.290856951402
    R27_24  BAL27_24  0.903463430121
    R27_24  CAP24  1
    R27_25  COST  21.8893548012
    R27_25  BAL0_25  0.252387611004
    R27_25  BAL2_25  0.921730302495
    R27_25  BAL4_25  0.45794925026
    R27_25  BAL8_25  0.259537090607
    R27_25  BAL12_25  0.261038512476
    R27_25  BAL14_25  0.733800188807
    R27_25  BAL18_25  0.258319442748
    R27_25  BAL26_25  0.290856951402
    R27_25  BAL27_25  0.903463430121
    R27_25  CAP25  1
    R27_26  COST  21.8893548012
    R27_26  BAL0_26  0.252387611004
    R27_26  BAL2_26  0.921730302495
    R27_26  BAL4_26  0.45794925026
    R27_26  BAL8_26  0.259537090607
    R27_26  BAL12_26  0.261038512476
    R27_26  BAL14_26  0.733800188807
    R27_26  BAL18_26  0.258319442748
    R27_26  BAL26_26  0.290856951402
    R27_26  BAL27_26  0.903463430121
    R27_26  CAP26  1
    R27_27  COST  21.8893548012
    R27_27  BAL0_27  0.252387611004
    R27_27  BAL2_27  0.921730302495
    R27_27  BAL4_27  0.45794925026
    R27_27  BAL8_27  0.259537090607
    R27_27  BAL12_27  0.261038512476
    R27_27  BAL14_27  0.733800188807
    R27_27  BAL18_27  0.258319442748
    R27_27  BAL26_27  0.290856951402
    R27_27  BAL27_27  0.903463430121
    R27_27  CAP27  1
    R27_28  COST  21.8893548012
    R27_28  BAL0_28  0.252387611004
    R27_28  BAL2_28  0.921730302495
    R27_28  BAL4_28  0.45794925026
    R27_28  BAL8_28  0.259537090607
    R27_28  BAL12_28  0.261038512476
    R27_28  BAL14_28  0.733800188807
    R27_28  BAL18_28  0.258319442748
    R27_28  BAL26_28  0.290856951402
    R27_28  BAL27_28  0.903463430121
    R27_28  CAP28  1
    R27_29  COST  21.8893548012
    R27_29  BAL0_29  0.252387611004
    R27_29  BAL2_29  0.921730302495
    R27_29  BAL4_29  0.45794925026
    R27_29  BAL8_29  0.259537090607
    R27_29  BAL12_29  0.261038512476
    R27_29  BAL14_29  0.733800188807
    R27_29  BAL18_29  0.258319442748
    R27_29  BAL26_29  0.290856951402
    R27_29  BAL27_29  0.903463430121
    R27_29  CAP29  1
    R27_30  COST  21.8893548012
    R27_30  BAL0_30  0.252387611004
    R27_30  BAL2_30  0.921730302495
    R27_30  BAL4_30  0.45794925026
    R27_30  BAL8_30  0.259537090607
    R27_30  BAL12_30  0.261038512476
    R27_30  BAL14_30  0.733800188807
    R27_30  BAL18_30  0.258319442748
    R27_30  BAL26_30  0.290856951402
    R27_30  BAL27_30  0.903463430121
    R27_30  CAP30  1
    R27_31  COST  21.8893548012
    R27_31  BAL0_31  0.252387611004
    R27_31  BAL2_31  0.921730302495
    R27_31  BAL4_31  0.45794925026
    R27_31  BAL8_31  0.259537090607
    R27_31  BAL12_31  0.261038512476
    R27_31  BAL14_31  0.733800188807
    R27_31  BAL18_31  0.258319442748
    R27_31  BAL26_31  0.290856951402
    R27_31  BAL27_31  0.903463430121
    R27_31  CAP31  1
    R27_32  COST  21.8893548012
    R27_32  BAL0_32  0.252387611004
    R27_32  BAL2_32  0.921730302495
    R27_32  BAL4_32  0.45794925026
    R27_32  BAL8_32  0.259537090607
    R27_32  BAL12_32  0.261038512476
    R27_32  BAL14_32  0.733800188807
    R27_32  BAL18_32  0.258319442748
    R27_32  BAL26_32  0.290856951402
    R27_32  BAL27_32  0.903463430121
    R27_32  CAP32  1
    R27_33  COST  21.8893548012
    R27_33  BAL0_33  0.252387611004
    R27_33  BAL2_33  0.921730302495
    R27_33  BAL4_33  0.45794925026
    R27_33  BAL8_33  0.259537090607
    R27_33  BAL12_33  0.261038512476
    R27_33  BAL14_33  0.733800188807
    R27_33  BAL18_33  0.258319442748
    R27_33  BAL26_33  0.290856951402
    R27_33  BAL27_33  0.903463430121
    R27_33  CAP33  1
    R27_34  COST  21.8893548012
    R27_34  BAL0_34  0.252387611004
    R27_34  BAL2_34  0.921730302495
    R27_34  BAL4_34  0.45794925026
    R27_34  BAL8_34  0.259537090607
    R27_34  BAL12_34  0.261038512476
    R27_34  BAL14_34  0.733800188807
    R27_34  BAL18_34  0.258319442748
    R27_34  BAL26_34  0.290856951402
    R27_34  BAL27_34  0.903463430121
    R27_34  CAP34  1
    R27_35  COST  21.8893548012
    R27_35  BAL0_35  0.252387611004
    R27_35  BAL2_35  0.921730302495
    R27_35  BAL4_35  0.45794925026
    R27_35  BAL8_35  0.259537090607
    R27_35  BAL12_35  0.261038512476
    R27_35  BAL14_35  0.733800188807
    R27_35  BAL18_35  0.258319442748
    R27_35  BAL26_35  0.290856951402
    R27_35  BAL27_35  0.903463430121
    R27_35  CAP35  1
    R28_0  COST  10.3182085979
    R28_0  BAL0_0  0.194258606633
    R28_0  BAL3_0  0.256000477485
    R28_0  BAL4_0  0.330497978326
    R28_0  BAL8_0  0.521593988544
    R28_0  BAL10_0  0.159200647741
    R28_0  BAL12_0  0.755304813479
    R28_0  BAL14_0  0.617739217712
    R28_0  BAL22_0  0.514606322107
    R28_0  BAL23_0  0.249126322865
    R28_0  CAP0  1
    R28_1  COST  10.3182085979
    R28_1  BAL0_1  0.194258606633
    R28_1  BAL3_1  0.256000477485
    R28_1  BAL4_1  0.330497978326
    R28_1  BAL8_1  0.521593988544
    R28_1  BAL10_1  0.159200647741
    R28_1  BAL12_1  0.755304813479
    R28_1  BAL14_1  0.617739217712
    R28_1  BAL22_1  0.514606322107
    R28_1  BAL23_1  0.249126322865
    R28_1  CAP1  1
    R28_2  COST  10.3182085979
    R28_2  BAL0_2  0.194258606633
    R28_2  BAL3_2  0.256000477485
    R28_2  BAL4_2  0.330497978326
    R28_2  BAL8_2  0.521593988544
    R28_2  BAL10_2  0.159200647741
    R28_2  BAL12_2  0.755304813479
    R28_2  BAL14_2  0.617739217712
    R28_2  BAL22_2  0.514606322107
    R28_2  BAL23_2  0.249126322865
    R28_2  CAP2  1
    R28_3  COST  10.3182085979
    R28_3  BAL0_3  0.194258606633
    R28_3  BAL3_3  0.256000477485
    R28_3  BAL4_3  0.330497978326
    R28_3  BAL8_3  0.521593988544
    R28_3  BAL10_3  0.159200647741
    R28_3  BAL12_3  0.755304813479
    R28_3  BAL14_3  0.617739217712
    R28_3  BAL22_3  0.514606322107
    R28_3  BAL23_3  0.249126322865
    R28_3  CAP3  1
    R28_4  COST  10.3182085979
    R28_4  BAL0_4  0.194258606633
    R28_4  BAL3_4  0.256000477485
    R28_4  BAL4_4  0.330497978326
    R28_4  BAL8_4  0.521593988544
    R28_4  BAL10_4  0.159200647741
    R28_4  BAL12_4  0.755304813479
    R28_4  BAL14_4  0.617739217712
    R28_4  BAL22_4  0.514606322107
    R28_4  BAL23_4  0.249126322865
    R28_4  CAP4  1
    R28_5  COST  10.3182085979
    R28_5  BAL0_5  0.194258606633
    R28_5  BAL3_5  0.256000477485
    R28_5  BAL4_5  0.330497978326
    R28_5  BAL8_5  0.521593988544
    R28_5  BAL10_5  0.159200647741
    R28_5  BAL12_5  0.755304813479
    R28_5  BAL14_5  0.617739217712
    R28_5  BAL22_5  0.514606322107
    R28_5  BAL23_5  0.249126322865
    R28_5  CAP5  1
    R28_6  COST  10.3182085979
    R28_6  BAL0_6  0.194258606633
    R28_6  BAL3_6  0.256000477485
    R28_6  BAL4_6  0.330497978326
    R28_6  BAL8_6  0.521593988544
    R28_6  BAL10_6  0.159200647741
    R28_6  BAL12_6  0.755304813479
    R28_6  BAL14_6  0.617739217712
    R28_6  BAL22_6  0.514606322107
    R28_6  BAL23_6  0.249126322865
    R28_6  CAP6  1
    R28_7  COST  10.3182085979
    R28_7  BAL0_7  0.194258606633
    R28_7  BAL3_7  0.256000477485
    R28_7  BAL4_7  0.330497978326
    R28_7  BAL8_7  0.521593988544
    R28_7  BAL10_7  0.159200647741
    R28_7  BAL12_7  0.755304813479
    R28_7  BAL14_7  0.617739217712
    R28_7  BAL22_7  0.514606322107
    R28_7  BAL23_7  0.249126322865
    R28_7  CAP7  1
    R28_8  COST  10.3182085979
    R28_8  BAL0_8  0.194258606633
    R28_8  BAL3_8  0.256000477485
    R28_8  BAL4_8  0.330497978326
    R28_8  BAL8_8  0.521593988544
    R28_8  BAL10_8  0.159200647741
    R28_8  BAL12_8  0.755304813479
    R28_8  BAL14_8  0.617739217712
    R28_8  BAL22_8  0.514606322107
    R28_8  BAL23_8  0.249126322865
    R28_8  CAP8  1
    R28_9  COST  10.3182085979
    R28_9  BAL0_9  0.194258606633
    R28_9  BAL3_9  0.256000477485
    R28_9  BAL4_9  0.330497978326
    R28_9  BAL8_9  0.521593988544
    R28_9  BAL10_9  0.159200647741
    R28_9  BAL12_9  0.755304813479
    R28_9  BAL14_9  0.617739217712
    R28_9  BAL22_9  0.514606322107
    R28_9  BAL23_9  0.249126322865
    R28_9  CAP9  1
    R28_10  COST  10.3182085979
    R28_10  BAL0_10  0.194258606633
    R28_10  BAL3_10  0.256000477485
    R28_10  BAL4_10  0.330497978326
    R28_10  BAL8_10  0.521593988544
    R28_10  BAL10_10  0.159200647741
    R28_10  BAL12_10  0.755304813479
    R28_10  BAL14_10  0.617739217712
    R28_10  BAL22_10  0.514606322107
    R28_10  BAL23_10  0.249126322865
    R28_10  CAP10  1
    R28_11  COST  10.3182085979
    R28_11  BAL0_11  0.194258606633
    R28_11  BAL3_11  0.256000477485
    R28_11  BAL4_11  0.330497978326
    R28_11  BAL8_11  0.521593988544
    R28_11  BAL10_11  0.159200647741
    R28_11  BAL12_11  0.755304813479
    R28_11  BAL14_11  0.617739217712
    R28_11  BAL22_11  0.514606322107
    R28_11  BAL23_11  0.249126322865
    R28_11  CAP11  1
    R28_12  COST  10.3182085979
    R28_12  BAL0_12  0.194258606633
    R28_12  BAL3_12  0.256000477485
    R28_12  BAL4_12  0.330497978326
    R28_12  BAL8_12  0.521593988544
    R28_12  BAL10_12  0.159200647741
    R28_12  BAL12_12  0.755304813479
    R28_12  BAL14_12  0.617739217712
    R28_12  BAL22_12  0.514606322107
    R28_12  BAL23_12  0.249126322865
    R28_12  CAP12  1
    R28_13  COST  10.3182085979
    R28_13  BAL0_13  0.194258606633
    R28_13  BAL3_13  0.256000477485
    R28_13  BAL4_13  0.330497978326
    R28_13  BAL8_13  0.521593988544
    R28_13  BAL10_13  0.159200647741
    R28_13  BAL12_13  0.755304813479
    R28_13  BAL14_13  0.617739217712
    R28_13  BAL22_13  0.514606322107
    R28_13  BAL23_13  0.249126322865
    R28_13  CAP13  1
    R28_14  COST  10.3182085979
    R28_14  BAL0_14  0.194258606633
    R28_14  BAL3_14  0.256000477485
    R28_14  BAL4_14  0.330497978326
    R28_14  BAL8_14  0.521593988544
    R28_14  BAL10_14  0.159200647741
    R28_14  BAL12_14  0.755304813479
    R28_14  BAL14_14  0.617739217712
    R28_14  BAL22_14  0.514606322107
    R28_14  BAL23_14  0.249126322865
    R28_14  CAP14  1
    R28_15  COST  10.3182085979
    R28_15  BAL0_15  0.194258606633
    R28_15  BAL3_15  0.256000477485
    R28_15  BAL4_15  0.330497978326
    R28_15  BAL8_15  0.521593988544
    R28_15  BAL10_15  0.159200647741
    R28_15  BAL12_15  0.755304813479
    R28_15  BAL14_15  0.617739217712
    R28_15  BAL22_15  0.514606322107
    R28_15  BAL23_15  0.249126322865
    R28_15  CAP15  1
    R28_16  COST  10.3182085979
    R28_16  BAL0_16  0.194258606633
    R28_16  BAL3_16  0.256000477485
    R28_16  BAL4_16  0.330497978326
    R28_16  BAL8_16  0.521593988544
    R28_16  BAL10_16  0.159200647741
    R28_16  BAL12_16  0.755304813479
    R28_16  BAL14_16  0.617739217712
    R28_16  BAL22_16  0.514606322107
    R28_16  BAL23_16  0.249126322865
    R28_16  CAP16  1
    R28_17  COST  10.3182085979
    R28_17  BAL0_17  0.194258606633
    R28_17  BAL3_17  0.256000477485
    R28_17  BAL4_17  0.330497978326
    R28_17  BAL8_17  0.521593988544
    R28_17  BAL10_17  0.159200647741
    R28_17  BAL12_17  0.755304813479
    R28_17  BAL14_17  0.617739217712
    R28_17  BAL22_17  0.514606322107
    R28_17  BAL23_17  0.249126322865
    R28_17  CAP17  1
    R28_18  COST  10.3182085979
    R28_18  BAL0_18  0.194258606633
    R28_18  BAL3_18  0.256000477485
    R28_18  BAL4_18  0.330497978326
    R28_18  BAL8_18  0.521593988544
    R28_18  BAL10_18  0.159200647741
    R28_18  BAL12_18  0.755304813479
    R28_18  BAL14_18  0.617739217712
    R28_18  BAL22_18  0.514606322107
    R28_18  BAL23_18  0.249126322865
    R28_18  CAP18  1
    R28_19  COST  10.3182085979
    R28_19  BAL0_19  0.194258606633
    R28_19  BAL3_19  0.256000477485
    R28_19  BAL4_19  0.330497978326
    R28_19  BAL8_19  0.521593988544
    R28_19  BAL10_19  0.159200647741
    R28_19  BAL12_19  0.755304813479
    R28_19  BAL14_19  0.617739217712
    R28_19  BAL22_19  0.514606322107
    R28_19  BAL23_19  0.249126322865
    R28_19  CAP19  1
    R28_20  COST  10.3182085979
    R28_20  BAL0_20  0.194258606633
    R28_20  BAL3_20  0.256000477485
    R28_20  BAL4_20  0.330497978326
    R28_20  BAL8_20  0.521593988544
    R28_20  BAL10_20  0.159200647741
    R28_20  BAL12_20  0.755304813479
    R28_20  BAL14_20  0.617739217712
    R28_20  BAL22_20  0.514606322107
    R28_20  BAL23_20  0.249126322865
    R28_20  CAP20  1
    R28_21  COST  10.3182085979
    R28_21  BAL0_21  0.194258606633
    R28_21  BAL3_21  0.256000477485
    R28_21  BAL4_21  0.330497978326
    R28_21  BAL8_21  0.521593988544
    R28_21  BAL10_21  0.159200647741
    R28_21  BAL12_21  0.755304813479
    R28_21  BAL14_21  0.617739217712
    R28_21  BAL22_21  0.514606322107
    R28_21  BAL23_21  0.249126322865
    R28_21  CAP21  1
    R28_22  COST  10.3182085979
    R28_22  BAL0_22  0.194258606633
    R28_22  BAL3_22  0.256000477485
    R28_22  BAL4_22  0.330497978326
    R28_22  BAL8_22  0.521593988544
    R28_22  BAL10_22  0.159200647741
    R28_22  BAL12_22  0.755304813479
    R28_22  BAL14_22  0.617739217712
    R28_22  BAL22_22  0.514606322107
    R28_22  BAL23_22  0.249126322865
    R28_22  CAP22  1
    R28_23  COST  10.3182085979
    R28_23  BAL0_23  0.194258606633
    R28_23  BAL3_23  0.256000477485
    R28_23  BAL4_23  0.330497978326
    R28_23  BAL8_23  0.521593988544
    R28_23  BAL10_23  0.159200647741
    R28_23  BAL12_23  0.755304813479
    R28_23  BAL14_23  0.617739217712
    R28_23  BAL22_23  0.514606322107
    R28_23  BAL23_23  0.249126322865
    R28_23  CAP23  1
    R28_24  COST  10.3182085979
    R28_24  BAL0_24  0.194258606633
    R28_24  BAL3_24  0.256000477485
    R28_24  BAL4_24  0.330497978326
    R28_24  BAL8_24  0.521593988544
    R28_24  BAL10_24  0.159200647741
    R28_24  BAL12_24  0.755304813479
    R28_24  BAL14_24  0.617739217712
    R28_24  BAL22_24  0.514606322107
    R28_24  BAL23_24  0.249126322865
    R28_24  CAP24  1
    R28_25  COST  10.3182085979
    R28_25  BAL0_25  0.194258606633
    R28_25  BAL3_25  0.256000477485
    R28_25  BAL4_25  0.330497978326
    R28_25  BAL8_25  0.521593988544
    R28_25  BAL10_25  0.159200647741
    R28_25  BAL12_25  0.755304813479
    R28_25  BAL14_25  0.617739217712
    R28_25  BAL22_25  0.514606322107
    R28_25  BAL23_25  0.249126322865
    R28_25  CAP25  1
    R28_26  COST  10.3182085979
    R28_26  BAL0_26  0.194258606633
    R28_26  BAL3_26  0.256000477485
    R28_26  BAL4_26  0.330497978326
    R28_26  BAL8_26  0.521593988544
    R28_26  BAL10_26  0.159200647741
    R28_26  BAL12_26  0.755304813479
    R28_26  BAL14_26  0.617739217712
    R28_26  BAL22_26  0.514606322107
    R28_26  BAL23_26  0.249126322865
    R28_26  CAP26  1
    R28_27  COST  10.3182085979
    R28_27  BAL0_27  0.194258606633
    R28_27  BAL3_27  0.256000477485
    R28_27  BAL4_27  0.330497978326
    R28_27  BAL8_27  0.521593988544
    R28_27  BAL10_27  0.159200647741
    R28_27  BAL12_27  0.755304813479
    R28_27  BAL14_27  0.617739217712
    R28_27  BAL22_27  0.514606322107
    R28_27  BAL23_27  0.249126322865
    R28_27  CAP27  1
    R28_28  COST  10.3182085979
    R28_28  BAL0_28  0.194258606633
    R28_28  BAL3_28  0.256000477485
    R28_28  BAL4_28  0.330497978326
    R28_28  BAL8_28  0.521593988544
    R28_28  BAL10_28  0.159200647741
    R28_28  BAL12_28  0.755304813479
    R28_28  BAL14_28  0.617739217712
    R28_28  BAL22_28  0.514606322107
    R28_28  BAL23_28  0.249126322865
    R28_28  CAP28  1
    R28_29  COST  10.3182085979
    R28_29  BAL0_29  0.194258606633
    R28_29  BAL3_29  0.256000477485
    R28_29  BAL4_29  0.330497978326
    R28_29  BAL8_29  0.521593988544
    R28_29  BAL10_29  0.159200647741
    R28_29  BAL12_29  0.755304813479
    R28_29  BAL14_29  0.617739217712
    R28_29  BAL22_29  0.514606322107
    R28_29  BAL23_29  0.249126322865
    R28_29  CAP29  1
    R28_30  COST  10.3182085979
    R28_30  BAL0_30  0.194258606633
    R28_30  BAL3_30  0.256000477485
    R28_30  BAL4_30  0.330497978326
    R28_30  BAL8_30  0.521593988544
    R28_30  BAL10_30  0.159200647741
    R28_30  BAL12_30  0.755304813479
    R28_30  BAL14_30  0.617739217712
    R28_30  BAL22_30  0.514606322107
    R28_30  BAL23_30  0.249126322865
    R28_30  CAP30  1
    R28_31  COST  10.3182085979
    R28_31  BAL0_31  0.194258606633
    R28_31  BAL3_31  0.256000477485
    R28_31  BAL4_31  0.330497978326
    R28_31  BAL8_31  0.521593988544
    R28_31  BAL10_31  0.159200647741
    R28_31  BAL12_31  0.755304813479
    R28_31  BAL14_31  0.617739217712
    R28_31  BAL22_31  0.514606322107
    R28_31  BAL23_31  0.249126322865
    R28_31  CAP31  1
    R28_32  COST  10.3182085979
    R28_32  BAL0_32  0.194258606633
    R28_32  BAL3_32  0.256000477485
    R28_32  BAL4_32  0.330497978326
    R28_32  BAL8_32  0.521593988544
    R28_32  BAL10_32  0.159200647741
    R28_32  BAL12_32  0.755304813479
    R28_32  BAL14_32  0.617739217712
    R28_32  BAL22_32  0.514606322107
    R28_32  BAL23_32  0.249126322865
    R28_32  CAP32  1
    R28_33  COST  10.3182085979
    R28_33  BAL0_33  0.194258606633
    R28_33  BAL3_33  0.256000477485
    R28_33  BAL4_33  0.330497978326
    R28_33  BAL8_33  0.521593988544
    R28_33  BAL10_33  0.159200647741
    R28_33  BAL12_33  0.755304813479
    R28_33  BAL14_33  0.617739217712
    R28_33  BAL22_33  0.514606322107
    R28_33  BAL23_33  0.249126322865
    R28_33  CAP33  1
    R28_34  COST  10.3182085979
    R28_34  BAL0_34  0.194258606633
    R28_34  BAL3_34  0.256000477485
    R28_34  BAL4_34  0.330497978326
    R28_34  BAL8_34  0.521593988544
    R28_34  BAL10_34  0.159200647741
    R28_34  BAL12_34  0.755304813479
    R28_34  BAL14_34  0.617739217712
    R28_34  BAL22_34  0.514606322107
    R28_34  BAL23_34  0.249126322865
    R28_34  CAP34  1
    R28_35  COST  10.3182085979
    R28_35  BAL0_35  0.194258606633
    R28_35  BAL3_35  0.256000477485
    R28_35  BAL4_35  0.330497978326
    R28_35  BAL8_35  0.521593988544
    R28_35  BAL10_35  0.159200647741
    R28_35  BAL12_35  0.755304813479
    R28_35  BAL14_35  0.617739217712
    R28_35  BAL22_35  0.514606322107
    R28_35  BAL23_35  0.249126322865
    R28_35  CAP35  1
    R29_0  COST  14.9996072906
    R29_0  BAL0_0  0.475635562188
    R29_0  BAL1_0  0.726426903906
    R29_0  BAL3_0  0.718921789328
    R29_0  BAL4_0  0.786943366955
    R29_0  BAL6_0  0.568935182536
    R29_0  BAL8_0  0.421864268719
    R29_0  BAL10_0  0.695229090127
    R29_0  BAL14_0  0.807728535378
    R29_0  BAL19_0  0.315119469271
    R29_0  BAL20_0  0.677403588009
    R29_0  BAL21_0  0.56951105017
    R29_0  BAL26_0  0.394040536504
    R29_0  BAL27_0  0.161400580357
    R29_0  BAL29_0  0.623485744235
    R29_0  CAP0  1
    R29_1  COST  14.9996072906
    R29_1  BAL0_1  0.475635562188
    R29_1  BAL1_1  0.726426903906
    R29_1  BAL3_1  0.718921789328
    R29_1  BAL4_1  0.786943366955
    R29_1  BAL6_1  0.568935182536
    R29_1  BAL8_1  0.421864268719
    R29_1  BAL10_1  0.695229090127
    R29_1  BAL14_1  0.807728535378
    R29_1  BAL19_1  0.315119469271
    R29_1  BAL20_1  0.677403588009
    R29_1  BAL21_1  0.56951105017
    R29_1  BAL26_1  0.394040536504
    R29_1  BAL27_1  0.161400580357
    R29_1  BAL29_1  0.623485744235
    R29_1  CAP1  1
    R29_2  COST  14.9996072906
    R29_2  BAL0_2  0.475635562188
    R29_2  BAL1_2  0.726426903906
    R29_2  BAL3_2  0.718921789328
    R29_2  BAL4_2  0.786943366955
    R29_2  BAL6_2  0.568935182536
    R29_2  BAL8_2  0.421864268719
    R29_2  BAL10_2  0.695229090127
    R29_2  BAL14_2  0.807728535378
    R29_2  BAL19_2  0.315119469271
    R29_2  BAL20_2  0.677403588009
    R29_2  BAL21_2  0.56951105017
    R29_2  BAL26_2  0.394040536504
    R29_2  BAL27_2  0.161400580357
    R29_2  BAL29_2  0.623485744235
    R29_2  CAP2  1
    R29_3  COST  14.9996072906
    R29_3  BAL0_3  0.475635562188
    R29_3  BAL1_3  0.726426903906
    R29_3  BAL3_3  0.718921789328
    R29_3  BAL4_3  0.786943366955
    R29_3  BAL6_3  0.568935182536
    R29_3  BAL8_3  0.421864268719
    R29_3  BAL10_3  0.695229090127
    R29_3  BAL14_3  0.807728535378
    R29_3  BAL19_3  0.315119469271
    R29_3  BAL20_3  0.677403588009
    R29_3  BAL21_3  0.56951105017
    R29_3  BAL26_3  0.394040536504
    R29_3  BAL27_3  0.161400580357
    R29_3  BAL29_3  0.623485744235
    R29_3  CAP3  1
    R29_4  COST  14.9996072906
    R29_4  BAL0_4  0.475635562188
    R29_4  BAL1_4  0.726426903906
    R29_4  BAL3_4  0.718921789328
    R29_4  BAL4_4  0.786943366955
    R29_4  BAL6_4  0.568935182536
    R29_4  BAL8_4  0.421864268719
    R29_4  BAL10_4  0.695229090127
    R29_4  BAL14_4  0.807728535378
    R29_4  BAL19_4  0.315119469271
    R29_4  BAL20_4  0.677403588009
    R29_4  BAL21_4  0.56951105017
    R29_4  BAL26_4  0.394040536504
    R29_4  BAL27_4  0.161400580357
    R29_4  BAL29_4  0.623485744235
    R29_4  CAP4  1
    R29_5  COST  14.9996072906
    R29_5  BAL0_5  0.475635562188
    R29_5  BAL1_5  0.726426903906
    R29_5  BAL3_5  0.718921789328
    R29_5  BAL4_5  0.786943366955
    R29_5  BAL6_5  0.568935182536
    R29_5  BAL8_5  0.421864268719
    R29_5  BAL10_5  0.695229090127
    R29_5  BAL14_5  0.807728535378
    R29_5  BAL19_5  0.315119469271
    R29_5  BAL20_5  0.677403588009
    R29_5  BAL21_5  0.56951105017
    R29_5  BAL26_5  0.394040536504
    R29_5  BAL27_5  0.161400580357
    R29_5  BAL29_5  0.623485744235
    R29_5  CAP5  1
    R29_6  COST  14.9996072906
    R29_6  BAL0_6  0.475635562188
    R29_6  BAL1_6  0.726426903906
    R29_6  BAL3_6  0.718921789328
    R29_6  BAL4_6  0.786943366955
    R29_6  BAL6_6  0.568935182536
    R29_6  BAL8_6  0.421864268719
    R29_6  BAL10_6  0.695229090127
    R29_6  BAL14_6  0.807728535378
    R29_6  BAL19_6  0.315119469271
    R29_6  BAL20_6  0.677403588009
    R29_6  BAL21_6  0.56951105017
    R29_6  BAL26_6  0.394040536504
    R29_6  BAL27_6  0.161400580357
    R29_6  BAL29_6  0.623485744235
    R29_6  CAP6  1
    R29_7  COST  14.9996072906
    R29_7  BAL0_7  0.475635562188
    R29_7  BAL1_7  0.726426903906
    R29_7  BAL3_7  0.718921789328
    R29_7  BAL4_7  0.786943366955
    R29_7  BAL6_7  0.568935182536
    R29_7  BAL8_7  0.421864268719
    R29_7  BAL10_7  0.695229090127
    R29_7  BAL14_7  0.807728535378
    R29_7  BAL19_7  0.315119469271
    R29_7  BAL20_7  0.677403588009
    R29_7  BAL21_7  0.56951105017
    R29_7  BAL26_7  0.394040536504
    R29_7  BAL27_7  0.161400580357
    R29_7  BAL29_7  0.623485744235
    R29_7  CAP7  1
    R29_8  COST  14.9996072906
    R29_8  BAL0_8  0.475635562188
    R29_8  BAL1_8  0.726426903906
    R29_8  BAL3_8  0.718921789328
    R29_8  BAL4_8  0.786943366955
    R29_8  BAL6_8  0.568935182536
    R29_8  BAL8_8  0.421864268719
    R29_8  BAL10_8  0.695229090127
    R29_8  BAL14_8  0.807728535378
    R29_8  BAL19_8  0.315119469271
    R29_8  BAL20_8  0.677403588009
    R29_8  BAL21_8  0.56951105017
    R29_8  BAL26_8  0.394040536504
    R29_8  BAL27_8  0.161400580357
    R29_8  BAL29_8  0.623485744235
    R29_8  CAP8  1
    R29_9  COST  14.9996072906
    R29_9  BAL0_9  0.475635562188
    R29_9  BAL1_9  0.726426903906
    R29_9  BAL3_9  0.718921789328
    R29_9  BAL4_9  0.786943366955
    R29_9  BAL6_9  0.568935182536
    R29_9  BAL8_9  0.421864268719
    R29_9  BAL10_9  0.695229090127
    R29_9  BAL14_9  0.807728535378
    R29_9  BAL19_9  0.315119469271
    R29_9  BAL20_9  0.677403588009
    R29_9  BAL21_9  0.56951105017
    R29_9  BAL26_9  0.394040536504
    R29_9  BAL27_9  0.161400580357
    R29_9  BAL29_9  0.623485744235
    R29_9  CAP9  1
    R29_10  COST  14.9996072906
    R29_10  BAL0_10  0.475635562188
    R29_10  BAL1_10  0.726426903906
    R29_10  BAL3_10  0.718921789328
    R29_10  BAL4_10  0.786943366955
    R29_10  BAL6_10  0.568935182536
    R29_10  BAL8_10  0.421864268719
    R29_10  BAL10_10  0.695229090127
    R29_10  BAL14_10  0.807728535378
    R29_10  BAL19_10  0.315119469271
    R29_10  BAL20_10  0.677403588009
    R29_10  BAL21_10  0.56951105017
    R29_10  BAL26_10  0.394040536504
    R29_10  BAL27_10  0.161400580357
    R29_10  BAL29_10  0.623485744235
    R29_10  CAP10  1
    R29_11  COST  14.9996072906
    R29_11  BAL0_11  0.475635562188
    R29_11  BAL1_11  0.726426903906
    R29_11  BAL3_11  0.718921789328
    R29_11  BAL4_11  0.786943366955
    R29_11  BAL6_11  0.568935182536
    R29_11  BAL8_11  0.421864268719
    R29_11  BAL10_11  0.695229090127
    R29_11  BAL14_11  0.807728535378
    R29_11  BAL19_11  0.315119469271
    R29_11  BAL20_11  0.677403588009
    R29_11  BAL21_11  0.56951105017
    R29_11  BAL26_11  0.394040536504
    R29_11  BAL27_11  0.161400580357
    R29_11  BAL29_11  0.623485744235
    R29_11  CAP11  1
    R29_12  COST  14.9996072906
    R29_12  BAL0_12  0.475635562188
    R29_12  BAL1_12  0.726426903906
    R29_12  BAL3_12  0.718921789328
    R29_12  BAL4_12  0.786943366955
    R29_12  BAL6_12  0.568935182536
    R29_12  BAL8_12  0.421864268719
    R29_12  BAL10_12  0.695229090127
    R29_12  BAL14_12  0.807728535378
    R29_12  BAL19_12  0.315119469271
    R29_12  BAL20_12  0.677403588009
    R29_12  BAL21_12  0.56951105017
    R29_12  BAL26_12  0.394040536504
    R29_12  BAL27_12  0.161400580357
    R29_12  BAL29_12  0.623485744235
    R29_12  CAP12  1
    R29_13  COST  14.9996072906
    R29_13  BAL0_13  0.475635562188
    R29_13  BAL1_13  0.726426903906
    R29_13  BAL3_13  0.718921789328
    R29_13  BAL4_13  0.786943366955
    R29_13  BAL6_13  0.568935182536
    R29_13  BAL8_13  0.421864268719
    R29_13  BAL10_13  0.695229090127
    R29_13  BAL14_13  0.807728535378
    R29_13  BAL19_13  0.315119469271
    R29_13  BAL20_13  0.677403588009
    R29_13  BAL21_13  0.56951105017
    R29_13  BAL26_13  0.394040536504
    R29_13  BAL27_13  0.161400580357
    R29_13  BAL29_13  0.623485744235
    R29_13  CAP13  1
    R29_14  COST  14.9996072906
    R29_14  BAL0_14  0.475635562188
    R29_14  BAL1_14  0.726426903906
    R29_14  BAL3_14  0.718921789328
    R29_14  BAL4_14  0.786943366955
    R29_14  BAL6_14  0.568935182536
    R29_14  BAL8_14  0.421864268719
    R29_14  BAL10_14  0.695229090127
    R29_14  BAL14_14  0.807728535378
    R29_14  BAL19_14  0.315119469271
    R29_14  BAL20_14  0.677403588009
    R29_14  BAL21_14  0.56951105017
    R29_14  BAL26_14  0.394040536504
    R29_14  BAL27_14  0.161400580357
    R29_14  BAL29_14  0.623485744235
    R29_14  CAP14  1
    R29_15  COST  14.9996072906
    R29_15  BAL0_15  0.475635562188
    R29_15  BAL1_15  0.726426903906
    R29_15  BAL3_15  0.718921789328
    R29_15  BAL4_15  0.786943366955
    R29_15  BAL6_15  0.568935182536
    R29_15  BAL8_15  0.421864268719
    R29_15  BAL10_15  0.695229090127
    R29_15  BAL14_15  0.807728535378
    R29_15  BAL19_15  0.315119469271
    R29_15  BAL20_15  0.677403588009
    R29_15  BAL21_15  0.56951105017
    R29_15  BAL26_15  0.394040536504
    R29_15  BAL27_15  0.161400580357
    R29_15  BAL29_15  0.623485744235
    R29_15  CAP15  1
    R29_16  COST  14.9996072906
    R29_16  BAL0_16  0.475635562188
    R29_16  BAL1_16  0.726426903906
    R29_16  BAL3_16  0.718921789328
    R29_16  BAL4_16  0.786943366955
    R29_16  BAL6_16  0.568935182536
    R29_16  BAL8_16  0.421864268719
    R29_16  BAL10_16  0.695229090127
    R29_16  BAL14_16  0.807728535378
    R29_16  BAL19_16  0.315119469271
    R29_16  BAL20_16  0.677403588009
    R29_16  BAL21_16  0.56951105017
    R29_16  BAL26_16  0.394040536504
    R29_16  BAL27_16  0.161400580357
    R29_16  BAL29_16  0.623485744235
    R29_16  CAP16  1
    R29_17  COST  14.9996072906
    R29_17  BAL0_17  0.475635562188
    R29_17  BAL1_17  0.726426903906
    R29_17  BAL3_17  0.718921789328
    R29_17  BAL4_17  0.786943366955
    R29_17  BAL6_17  0.568935182536
    R29_17  BAL8_17  0.421864268719
    R29_17  BAL10_17  0.695229090127
    R29_17  BAL14_17  0.807728535378
    R29_17  BAL19_17  0.315119469271
    R29_17  BAL20_17  0.677403588009
    R29_17  BAL21_17  0.56951105017
    R29_17  BAL26_17  0.394040536504
    R29_17  BAL27_17  0.161400580357
    R29_17  BAL29_17  0.623485744235
    R29_17  CAP17  1
    R29_18  COST  14.9996072906
    R29_18  BAL0_18  0.475635562188
    R29_18  BAL1_18  0.726426903906
    R29_18  BAL3_18  0.718921789328
    R29_18  BAL4_18  0.786943366955
    R29_18  BAL6_18  0.568935182536
    R29_18  BAL8_18  0.421864268719
    R29_18  BAL10_18  0.695229090127
    R29_18  BAL14_18  0.807728535378
    R29_18  BAL19_18  0.315119469271
    R29_18  BAL20_18  0.677403588009
    R29_18  BAL21_18  0.56951105017
    R29_18  BAL26_18  0.394040536504
    R29_18  BAL27_18  0.161400580357
    R29_18  BAL29_18  0.623485744235
    R29_18  CAP18  1
    R29_19  COST  14.9996072906
    R29_19  BAL0_19  0.475635562188
    R29_19  BAL1_19  0.726426903906
    R29_19  BAL3_19  0.718921789328
    R29_19  BAL4_19  0.786943366955
    R29_19  BAL6_19  0.568935182536
    R29_19  BAL8_19  0.421864268719
    R29_19  BAL10_19  0.695229090127
    R29_19  BAL14_19  0.807728535378
    R29_19  BAL19_19  0.315119469271
    R29_19  BAL20_19  0.677403588009
    R29_19  BAL21_19  0.56951105017
    R29_19  BAL26_19  0.394040536504
    R29_19  BAL27_19  0.161400580357
    R29_19  BAL29_19  0.623485744235
    R29_19  CAP19  1
    R29_20  COST  14.9996072906
    R29_20  BAL0_20  0.475635562188
    R29_20  BAL1_20  0.726426903906
    R29_20  BAL3_20  0.718921789328
    R29_20  BAL4_20  0.786943366955
    R29_20  BAL6_20  0.568935182536
    R29_20  BAL8_20  0.421864268719
    R29_20  BAL10_20  0.695229090127
    R29_20  BAL14_20  0.807728535378
    R29_20  BAL19_20  0.315119469271
    R29_20  BAL20_20  0.677403588009
    R29_20  BAL21_20  0.56951105017
    R29_20  BAL26_20  0.394040536504
    R29_20  BAL27_20  0.161400580357
    R29_20  BAL29_20  0.623485744235
    R29_20  CAP20  1
    R29_21  COST  14.9996072906
    R29_21  BAL0_21  0.475635562188
    R29_21  BAL1_21  0.726426903906
    R29_21  BAL3_21  0.718921789328
    R29_21  BAL4_21  0.786943366955
    R29_21  BAL6_21  0.568935182536
    R29_21  BAL8_21  0.421864268719
    R29_21  BAL10_21  0.695229090127
    R29_21  BAL14_21  0.807728535378
    R29_21  BAL19_21  0.315119469271
    R29_21  BAL20_21  0.677403588009
    R29_21  BAL21_21  0.56951105017
    R29_21  BAL26_21  0.394040536504
    R29_21  BAL27_21  0.161400580357
    R29_21  BAL29_21  0.623485744235
    R29_21  CAP21  1
    R29_22  COST  14.9996072906
    R29_22  BAL0_22  0.475635562188
    R29_22  BAL1_22  0.726426903906
    R29_22  BAL3_22  0.718921789328
    R29_22  BAL4_22  0.786943366955
    R29_22  BAL6_22  0.568935182536
    R29_22  BAL8_22  0.421864268719
    R29_22  BAL10_22  0.695229090127
    R29_22  BAL14_22  0.807728535378
    R29_22  BAL19_22  0.315119469271
    R29_22  BAL20_22  0.677403588009
    R29_22  BAL21_22  0.56951105017
    R29_22  BAL26_22  0.394040536504
    R29_22  BAL27_22  0.161400580357
    R29_22  BAL29_22  0.623485744235
    R29_22  CAP22  1
    R29_23  COST  14.9996072906
    R29_23  BAL0_23  0.475635562188
    R29_23  BAL1_23  0.726426903906
    R29_23  BAL3_23  0.718921789328
    R29_23  BAL4_23  0.786943366955
    R29_23  BAL6_23  0.568935182536
    R29_23  BAL8_23  0.421864268719
    R29_23  BAL10_23  0.695229090127
    R29_23  BAL14_23  0.807728535378
    R29_23  BAL19_23  0.315119469271
    R29_23  BAL20_23  0.677403588009
    R29_23  BAL21_23  0.56951105017
    R29_23  BAL26_23  0.394040536504
    R29_23  BAL27_23  0.161400580357
    R29_23  BAL29_23  0.623485744235
    R29_23  CAP23  1
    R29_24  COST  14.9996072906
    R29_24  BAL0_24  0.475635562188
    R29_24  BAL1_24  0.726426903906
    R29_24  BAL3_24  0.718921789328
    R29_24  BAL4_24  0.786943366955
    R29_24  BAL6_24  0.568935182536
    R29_24  BAL8_24  0.421864268719
    R29_24  BAL10_24  0.695229090127
    R29_24  BAL14_24  0.807728535378
    R29_24  BAL19_24  0.315119469271
    R29_24  BAL20_24  0.677403588009
    R29_24  BAL21_24  0.56951105017
    R29_24  BAL26_24  0.394040536504
    R29_24  BAL27_24  0.161400580357
    R29_24  BAL29_24  0.623485744235
    R29_24  CAP24  1
    R29_25  COST  14.9996072906
    R29_25  BAL0_25  0.475635562188
    R29_25  BAL1_25  0.726426903906
    R29_25  BAL3_25  0.718921789328
    R29_25  BAL4_25  0.786943366955
    R29_25  BAL6_25  0.568935182536
    R29_25  BAL8_25  0.421864268719
    R29_25  BAL10_25  0.695229090127
    R29_25  BAL14_25  0.807728535378
    R29_25  BAL19_25  0.315119469271
    R29_25  BAL20_25  0.677403588009
    R29_25  BAL21_25  0.56951105017
    R29_25  BAL26_25  0.394040536504
    R29_25  BAL27_25  0.161400580357
    R29_25  BAL29_25  0.623485744235
    R29_25  CAP25  1
    R29_26  COST  14.9996072906
    R29_26  BAL0_26  0.475635562188
    R29_26  BAL1_26  0.726426903906
    R29_26  BAL3_26  0.718921789328
    R29_26  BAL4_26  0.786943366955
    R29_26  BAL6_26  0.568935182536
    R29_26  BAL8_26  0.421864268719
    R29_26  BAL10_26  0.695229090127
    R29_26  BAL14_26  0.807728535378
    R29_26  BAL19_26  0.315119469271
    R29_26  BAL20_26  0.677403588009
    R29_26  BAL21_26  0.56951105017
    R29_26  BAL26_26  0.394040536504
    R29_26  BAL27_26  0.161400580357
    R29_26  BAL29_26  0.623485744235
    R29_26  CAP26  1
    R29_27  COST  14.9996072906
    R29_27  BAL0_27  0.475635562188
    R29_27  BAL1_27  0.726426903906
    R29_27  BAL3_27  0.718921789328
    R29_27  BAL4_27  0.786943366955
    R29_27  BAL6_27  0.568935182536
    R29_27  BAL8_27  0.421864268719
    R29_27  BAL10_27  0.695229090127
    R29_27  BAL14_27  0.807728535378
    R29_27  BAL19_27  0.315119469271
    R29_27  BAL20_27  0.677403588009
    R29_27  BAL21_27  0.56951105017
    R29_27  BAL26_27  0.394040536504
    R29_27  BAL27_27  0.161400580357
    R29_27  BAL29_27  0.623485744235
    R29_27  CAP27  1
    R29_28  COST  14.9996072906
    R29_28  BAL0_28  0.475635562188
    R29_28  BAL1_28  0.726426903906
    R29_28  BAL3_28  0.718921789328
    R29_28  BAL4_28  0.786943366955
    R29_28  BAL6_28  0.568935182536
    R29_28  BAL8_28  0.421864268719
    R29_28  BAL10_28  0.695229090127
    R29_28  BAL14_28  0.807728535378
    R29_28  BAL19_28  0.315119469271
    R29_28  BAL20_28  0.677403588009
    R29_28  BAL21_28  0.56951105017
    R29_28  BAL26_28  0.394040536504
    R29_28  BAL27_28  0.161400580357
    R29_28  BAL29_28  0.623485744235
    R29_28  CAP28  1
    R29_29  COST  14.9996072906
    R29_29  BAL0_29  0.475635562188
    R29_29  BAL1_29  0.726426903906
    R29_29  BAL3_29  0.718921789328
    R29_29  BAL4_29  0.786943366955
    R29_29  BAL6_29  0.568935182536
    R29_29  BAL8_29  0.421864268719
    R29_29  BAL10_29  0.695229090127
    R29_29  BAL14_29  0.807728535378
    R29_29  BAL19_29  0.315119469271
    R29_29  BAL20_29  0.677403588009
    R29_29  BAL21_29  0.56951105017
    R29_29  BAL26_29  0.394040536504
    R29_29  BAL27_29  0.161400580357
    R29_29  BAL29_29  0.623485744235
    R29_29  CAP29  1
    R29_30  COST  14.9996072906
    R29_30  BAL0_30  0.475635562188
    R29_30  BAL1_30  0.726426903906
    R29_30  BAL3_30  0.718921789328
    R29_30  BAL4_30  0.786943366955
    R29_30  BAL6_30  0.568935182536
    R29_30  BAL8_30  0.421864268719
    R29_30  BAL10_30  0.695229090127
    R29_30  BAL14_30  0.807728535378
    R29_30  BAL19_30  0.315119469271
    R29_30  BAL20_30  0.677403588009
    R29_30  BAL21_30  0.56951105017
    R29_30  BAL26_30  0.394040536504
    R29_30  BAL27_30  0.161400580357
    R29_30  BAL29_30  0.623485744235
    R29_30  CAP30  1
    R29_31  COST  14.9996072906
    R29_31  BAL0_31  0.475635562188
    R29_31  BAL1_31  0.726426903906
    R29_31  BAL3_31  0.718921789328
    R29_31  BAL4_31  0.786943366955
    R29_31  BAL6_31  0.568935182536
    R29_31  BAL8_31  0.421864268719
    R29_31  BAL10_31  0.695229090127
    R29_31  BAL14_31  0.807728535378
    R29_31  BAL19_31  0.315119469271
    R29_31  BAL20_31  0.677403588009
    R29_31  BAL21_31  0.56951105017
    R29_31  BAL26_31  0.394040536504
    R29_31  BAL27_31  0.161400580357
    R29_31  BAL29_31  0.623485744235
    R29_31  CAP31  1
    R29_32  COST  14.9996072906
    R29_32  BAL0_32  0.475635562188
    R29_32  BAL1_32  0.726426903906
    R29_32  BAL3_32  0.718921789328
    R29_32  BAL4_32  0.786943366955
    R29_32  BAL6_32  0.568935182536
    R29_32  BAL8_32  0.421864268719
    R29_32  BAL10_32  0.695229090127
    R29_32  BAL14_32  0.807728535378
    R29_32  BAL19_32  0.315119469271
    R29_32  BAL20_32  0.677403588009
    R29_32  BAL21_32  0.56951105017
    R29_32  BAL26_32  0.394040536504
    R29_32  BAL27_32  0.161400580357
    R29_32  BAL29_32  0.623485744235
    R29_32  CAP32  1
    R29_33  COST  14.9996072906
    R29_33  BAL0_33  0.475635562188
    R29_33  BAL1_33  0.726426903906
    R29_33  BAL3_33  0.718921789328
    R29_33  BAL4_33  0.786943366955
    R29_33  BAL6_33  0.568935182536
    R29_33  BAL8_33  0.421864268719
    R29_33  BAL10_33  0.695229090127
    R29_33  BAL14_33  0.807728535378
    R29_33  BAL19_33  0.315119469271
    R29_33  BAL20_33  0.677403588009
    R29_33  BAL21_33  0.56951105017
    R29_33  BAL26_33  0.394040536504
    R29_33  BAL27_33  0.161400580357
    R29_33  BAL29_33  0.623485744235
    R29_33  CAP33  1
    R29_34  COST  14.9996072906
    R29_34  BAL0_34  0.475635562188
    R29_34  BAL1_34  0.726426903906
    R29_34  BAL3_34  0.718921789328
    R29_34  BAL4_34  0.786943366955
    R29_34  BAL6_34  0.568935182536
    R29_34  BAL8_34  0.421864268719
    R29_34  BAL10_34  0.695229090127
    R29_34  BAL14_34  0.807728535378
    R29_34  BAL19_34  0.315119469271
    R29_34  BAL20_34  0.677403588009
    R29_34  BAL21_34  0.56951105017
    R29_34  BAL26_34  0.394040536504
    R29_34  BAL27_34  0.161400580357
    R29_34  BAL29_34  0.623485744235
    R29_34  CAP34  1
    R29_35  COST  14.9996072906
    R29_35  BAL0_35  0.475635562188
    R29_35  BAL1_35  0.726426903906
    R29_35  BAL3_35  0.718921789328
    R29_35  BAL4_35  0.786943366955
    R29_35  BAL6_35  0.568935182536
    R29_35  BAL8_35  0.421864268719
    R29_35  BAL10_35  0.695229090127
    R29_35  BAL14_35  0.807728535378
    R29_35  BAL19_35  0.315119469271
    R29_35  BAL20_35  0.677403588009
    R29_35  BAL21_35  0.56951105017
    R29_35  BAL26_35  0.394040536504
    R29_35  BAL27_35  0.161400580357
    R29_35  BAL29_35  0.623485744235
    R29_35  CAP35  1
    R30_0  COST  7.43221947879
    R30_0  BAL1_0  0.440375884022
    R30_0  BAL2_0  0.773656199471
    R30_0  BAL6_0  0.658659819182
    R30_0  BAL9_0  0.479285785011
    R30_0  BAL19_0  0.915738818033
    R30_0  BAL21_0  0.705823499002
    R30_0  BAL27_0  0.390146755529
    R30_0  BAL28_0  0.77104966264
    R30_0  BAL29_0  0.522501451417
    R30_0  CAP0  1
    R30_1  COST  7.43221947879
    R30_1  BAL1_1  0.440375884022
    R30_1  BAL2_1  0.773656199471
    R30_1  BAL6_1  0.658659819182
    R30_1  BAL9_1  0.479285785011
    R30_1  BAL19_1  0.915738818033
    R30_1  BAL21_1  0.705823499002
    R30_1  BAL27_1  0.390146755529
    R30_1  BAL28_1  0.77104966264
    R30_1  BAL29_1  0.522501451417
    R30_1  CAP1  1
    R30_2  COST  7.43221947879
    R30_2  BAL1_2  0.440375884022
    R30_2  BAL2_2  0.773656199471
    R30_2  BAL6_2  0.658659819182
    R30_2  BAL9_2  0.479285785011
    R30_2  BAL19_2  0.915738818033
    R30_2  BAL21_2  0.705823499002
    R30_2  BAL27_2  0.390146755529
    R30_2  BAL28_2  0.77104966264
    R30_2  BAL29_2  0.522501451417
    R30_2  CAP2  1
    R30_3  COST  7.43221947879
    R30_3  BAL1_3  0.440375884022
    R30_3  BAL2_3  0.773656199471
    R30_3  BAL6_3  0.658659819182
    R30_3  BAL9_3  0.479285785011
    R30_3  BAL19_3  0.915738818033
    R30_3  BAL21_3  0.705823499002
    R30_3  BAL27_3  0.390146755529
    R30_3  BAL28_3  0.77104966264
    R30_3  BAL29_3  0.522501451417
    R30_3  CAP3  1
    R30_4  COST  7.43221947879
    R30_4  BAL1_4  0.440375884022
    R30_4  BAL2_4  0.773656199471
    R30_4  BAL6_4  0.658659819182
    R30_4  BAL9_4  0.479285785011
    R30_4  BAL19_4  0.915738818033
    R30_4  BAL21_4  0.705823499002
    R30_4  BAL27_4  0.390146755529
    R30_4  BAL28_4  0.77104966264
    R30_4  BAL29_4  0.522501451417
    R30_4  CAP4  1
    R30_5  COST  7.43221947879
    R30_5  BAL1_5  0.440375884022
    R30_5  BAL2_5  0.773656199471
    R30_5  BAL6_5  0.658659819182
    R30_5  BAL9_5  0.479285785011
    R30_5  BAL19_5  0.915738818033
    R30_5  BAL21_5  0.705823499002
    R30_5  BAL27_5  0.390146755529
    R30_5  BAL28_5  0.77104966264
    R30_5  BAL29_5  0.522501451417
    R30_5  CAP5  1
    R30_6  COST  7.43221947879
    R30_6  BAL1_6  0.440375884022
    R30_6  BAL2_6  0.773656199471
    R30_6  BAL6_6  0.658659819182
    R30_6  BAL9_6  0.479285785011
    R30_6  BAL19_6  0.915738818033
    R30_6  BAL21_6  0.705823499002
    R30_6  BAL27_6  0.390146755529
    R30_6  BAL28_6  0.77104966264
    R30_6  BAL29_6  0.522501451417
    R30_6  CAP6  1
    R30_7  COST  7.43221947879
    R30_7  BAL1_7  0.440375884022
    R30_7  BAL2_7  0.773656199471
    R30_7  BAL6_7  0.658659819182
    R30_7  BAL9_7  0.479285785011
    R30_7  BAL19_7  0.915738818033
    R30_7  BAL21_7  0.705823499002
    R30_7  BAL27_7  0.390146755529
    R30_7  BAL28_7  0.77104966264
    R30_7  BAL29_7  0.522501451417
    R30_7  CAP7  1
    R30_8  COST  7.43221947879
    R30_8  BAL1_8  0.440375884022
    R30_8  BAL2_8  0.773656199471
    R30_8  BAL6_8  0.658659819182
    R30_8  BAL9_8  0.479285785011
    R30_8  BAL19_8  0.915738818033
    R30_8  BAL21_8  0.705823499002
    R30_8  BAL27_8  0.390146755529
    R30_8  BAL28_8  0.77104966264
    R30_8  BAL29_8  0.522501451417
    R30_8  CAP8  1
    R30_9  COST  7.43221947879
    R30_9  BAL1_9  0.440375884022
    R30_9  BAL2_9  0.773656199471
    R30_9  BAL6_9  0.658659819182
    R30_9  BAL9_9  0.479285785011
    R30_9  BAL19_9  0.915738818033
    R30_9  BAL21_9  0.705823499002
    R30_9  BAL27_9  0.390146755529
    R30_9  BAL28_9  0.77104966264
    R30_9  BAL29_9  0.522501451417
    R30_9  CAP9  1
    R30_10  COST  7.43221947879
    R30_10  BAL1_10  0.440375884022
    R30_10  BAL2_10  0.773656199471
    R30_10  BAL6_10  0.658659819182
    R30_10  BAL9_10  0.479285785011
    R30_10  BAL19_10  0.915738818033
    R30_10  BAL21_10  0.705823499002
    R30_10  BAL27_10  0.390146755529
    R30_10  BAL28_10  0.77104966264
    R30_10  BAL29_10  0.522501451417
    R30_10  CAP10  1
    R30_11  COST  7.43221947879
    R30_11  BAL1_11  0.440375884022
    R30_11  BAL2_11  0.773656199471
    R30_11  BAL6_11  0.658659819182
    R30_11  BAL9_11  0.479285785011
    R30_11  BAL19_11  0.915738818033
    R30_11  BAL21_11  0.705823499002
    R30_11  BAL27_11  0.390146755529
    R30_11  BAL28_11  0.77104966264
    R30_11  BAL29_11  0.522501451417
    R30_11  CAP11  1
    R30_12  COST  7.43221947879
    R30_12  BAL1_12  0.440375884022
    R30_12  BAL2_12  0.773656199471
    R30_12  BAL6_12  0.658659819182
    R30_12  BAL9_12  0.479285785011
    R30_12  BAL19_12  0.915738818033
    R30_12  BAL21_12  0.705823499002
    R30_12  BAL27_12  0.390146755529
    R30_12  BAL28_12  0.77104966264
    R30_12  BAL29_12  0.522501451417
    R30_12  CAP12  1
    R30_13  COST  7.43221947879
    R30_13  BAL1_13  0.440375884022
    R30_13  BAL2_13  0.773656199471
    R30_13  BAL6_13  0.658659819182
    R30_13  BAL9_13  0.479285785011
    R30_13  BAL19_13  0.915738818033
    R30_13  BAL21_13  0.705823499002
    R30_13  BAL27_13  0.390146755529
    R30_13  BAL28_13  0.77104966264
    R30_13  BAL29_13  0.522501451417
    R30_13  CAP13  1
    R30_14  COST  7.43221947879
    R30_14  BAL1_14  0.440375884022
    R30_14  BAL2_14  0.773656199471
    R30_14  BAL6_14  0.658659819182
    R30_14  BAL9_14  0.479285785011
    R30_14  BAL19_14  0.915738818033
    R30_14  BAL21_14  0.705823499002
    R30_14  BAL27_14  0.390146755529
    R30_14  BAL28_14  0.77104966264
    R30_14  BAL29_14  0.522501451417
    R30_14  CAP14  1
    R30_15  COST  7.43221947879
    R30_15  BAL1_15  0.440375884022
    R30_15  BAL2_15  0.773656199471
    R30_15  BAL6_15  0.658659819182
    R30_15  BAL9_15  0.479285785011
    R30_15  BAL19_15  0.915738818033
    R30_15  BAL21_15  0.705823499002
    R30_15  BAL27_15  0.390146755529
    R30_15  BAL28_15  0.77104966264
    R30_15  BAL29_15  0.522501451417
    R30_15  CAP15  1
    R30_16  COST  7.43221947879
    R30_16  BAL1_16  0.440375884022
    R30_16  BAL2_16  0.773656199471
    R30_16  BAL6_16  0.658659819182
    R30_16  BAL9_16  0.479285785011
    R30_16  BAL19_16  0.915738818033
    R30_16  BAL21_16  0.705823499002
    R30_16  BAL27_16  0.390146755529
    R30_16  BAL28_16  0.77104966264
    R30_16  BAL29_16  0.522501451417
    R30_16  CAP16  1
    R30_17  COST  7.43221947879
    R30_17  BAL1_17  0.440375884022
    R30_17  BAL2_17  0.773656199471
    R30_17  BAL6_17  0.658659819182
    R30_17  BAL9_17  0.479285785011
    R30_17  BAL19_17  0.915738818033
    R30_17  BAL21_17  0.705823499002
    R30_17  BAL27_17  0.390146755529
    R30_17  BAL28_17  0.77104966264
    R30_17  BAL29_17  0.522501451417
    R30_17  CAP17  1
    R30_18  COST  7.43221947879
    R30_18  BAL1_18  0.440375884022
    R30_18  BAL2_18  0.773656199471
    R30_18  BAL6_18  0.658659819182
    R30_18  BAL9_18  0.479285785011
    R30_18  BAL19_18  0.915738818033
    R30_18  BAL21_18  0.705823499002
    R30_18  BAL27_18  0.390146755529
    R30_18  BAL28_18  0.77104966264
    R30_18  BAL29_18  0.522501451417
    R30_18  CAP18  1
    R30_19  COST  7.43221947879
    R30_19  BAL1_19  0.440375884022
    R30_19  BAL2_19  0.773656199471
    R30_19  BAL6_19  0.658659819182
    R30_19  BAL9_19  0.479285785011
    R30_19  BAL19_19  0.915738818033
    R30_19  BAL21_19  0.705823499002
    R30_19  BAL27_19  0.390146755529
    R30_19  BAL28_19  0.77104966264
    R30_19  BAL29_19  0.522501451417
    R30_19  CAP19  1
    R30_20  COST  7.43221947879
    R30_20  BAL1_20  0.440375884022
    R30_20  BAL2_20  0.773656199471
    R30_20  BAL6_20  0.658659819182
    R30_20  BAL9_20  0.479285785011
    R30_20  BAL19_20  0.915738818033
    R30_20  BAL21_20  0.705823499002
    R30_20  BAL27_20  0.390146755529
    R30_20  BAL28_20  0.77104966264
    R30_20  BAL29_20  0.522501451417
    R30_20  CAP20  1
    R30_21  COST  7.43221947879
    R30_21  BAL1_21  0.440375884022
    R30_21  BAL2_21  0.773656199471
    R30_21  BAL6_21  0.658659819182
    R30_21  BAL9_21  0.479285785011
    R30_21  BAL19_21  0.915738818033
    R30_21  BAL21_21  0.705823499002
    R30_21  BAL27_21  0.390146755529
    R30_21  BAL28_21  0.77104966264
    R30_21  BAL29_21  0.522501451417
    R30_21  CAP21  1
    R30_22  COST  7.43221947879
    R30_22  BAL1_22  0.440375884022
    R30_22  BAL2_22  0.773656199471
    R30_22  BAL6_22  0.658659819182
    R30_22  BAL9_22  0.479285785011
    R30_22  BAL19_22  0.915738818033
    R30_22  BAL21_22  0.705823499002
    R30_22  BAL27_22  0.390146755529
    R30_22  BAL28_22  0.77104966264
    R30_22  BAL29_22  0.522501451417
    R30_22  CAP22  1
    R30_23  COST  7.43221947879
    R30_23  BAL1_23  0.440375884022
    R30_23  BAL2_23  0.773656199471
    R30_23  BAL6_23  0.658659819182
    R30_23  BAL9_23  0.479285785011
    R30_23  BAL19_23  0.915738818033
    R30_23  BAL21_23  0.705823499002
    R30_23  BAL27_23  0.390146755529
    R30_23  BAL28_23  0.77104966264
    R30_23  BAL29_23  0.522501451417
    R30_23  CAP23  1
    R30_24  COST  7.43221947879
    R30_24  BAL1_24  0.440375884022
    R30_24  BAL2_24  0.773656199471
    R30_24  BAL6_24  0.658659819182
    R30_24  BAL9_24  0.479285785011
    R30_24  BAL19_24  0.915738818033
    R30_24  BAL21_24  0.705823499002
    R30_24  BAL27_24  0.390146755529
    R30_24  BAL28_24  0.77104966264
    R30_24  BAL29_24  0.522501451417
    R30_24  CAP24  1
    R30_25  COST  7.43221947879
    R30_25  BAL1_25  0.440375884022
    R30_25  BAL2_25  0.773656199471
    R30_25  BAL6_25  0.658659819182
    R30_25  BAL9_25  0.479285785011
    R30_25  BAL19_25  0.915738818033
    R30_25  BAL21_25  0.705823499002
    R30_25  BAL27_25  0.390146755529
    R30_25  BAL28_25  0.77104966264
    R30_25  BAL29_25  0.522501451417
    R30_25  CAP25  1
    R30_26  COST  7.43221947879
    R30_26  BAL1_26  0.440375884022
    R30_26  BAL2_26  0.773656199471
    R30_26  BAL6_26  0.658659819182
    R30_26  BAL9_26  0.479285785011
    R30_26  BAL19_26  0.915738818033
    R30_26  BAL21_26  0.705823499002
    R30_26  BAL27_26  0.390146755529
    R30_26  BAL28_26  0.77104966264
    R30_26  BAL29_26  0.522501451417
    R30_26  CAP26  1
    R30_27  COST  7.43221947879
    R30_27  BAL1_27  0.440375884022
    R30_27  BAL2_27  0.773656199471
    R30_27  BAL6_27  0.658659819182
    R30_27  BAL9_27  0.479285785011
    R30_27  BAL19_27  0.915738818033
    R30_27  BAL21_27  0.705823499002
    R30_27  BAL27_27  0.390146755529
    R30_27  BAL28_27  0.77104966264
    R30_27  BAL29_27  0.522501451417
    R30_27  CAP27  1
    R30_28  COST  7.43221947879
    R30_28  BAL1_28  0.440375884022
    R30_28  BAL2_28  0.773656199471
    R30_28  BAL6_28  0.658659819182
    R30_28  BAL9_28  0.479285785011
    R30_28  BAL19_28  0.915738818033
    R30_28  BAL21_28  0.705823499002
    R30_28  BAL27_28  0.390146755529
    R30_28  BAL28_28  0.77104966264
    R30_28  BAL29_28  0.522501451417
    R30_28  CAP28  1
    R30_29  COST  7.43221947879
    R30_29  BAL1_29  0.440375884022
    R30_29  BAL2_29  0.773656199471
    R30_29  BAL6_29  0.658659819182
    R30_29  BAL9_29  0.479285785011
    R30_29  BAL19_29  0.915738818033
    R30_29  BAL21_29  0.705823499002
    R30_29  BAL27_29  0.390146755529
    R30_29  BAL28_29  0.77104966264
    R30_29  BAL29_29  0.522501451417
    R30_29  CAP29  1
    R30_30  COST  7.43221947879
    R30_30  BAL1_30  0.440375884022
    R30_30  BAL2_30  0.773656199471
    R30_30  BAL6_30  0.658659819182
    R30_30  BAL9_30  0.479285785011
    R30_30  BAL19_30  0.915738818033
    R30_30  BAL21_30  0.705823499002
    R30_30  BAL27_30  0.390146755529
    R30_30  BAL28_30  0.77104966264
    R30_30  BAL29_30  0.522501451417
    R30_30  CAP30  1
    R30_31  COST  7.43221947879
    R30_31  BAL1_31  0.440375884022
    R30_31  BAL2_31  0.773656199471
    R30_31  BAL6_31  0.658659819182
    R30_31  BAL9_31  0.479285785011
    R30_31  BAL19_31  0.915738818033
    R30_31  BAL21_31  0.705823499002
    R30_31  BAL27_31  0.390146755529
    R30_31  BAL28_31  0.77104966264
    R30_31  BAL29_31  0.522501451417
    R30_31  CAP31  1
    R30_32  COST  7.43221947879
    R30_32  BAL1_32  0.440375884022
    R30_32  BAL2_32  0.773656199471
    R30_32  BAL6_32  0.658659819182
    R30_32  BAL9_32  0.479285785011
    R30_32  BAL19_32  0.915738818033
    R30_32  BAL21_32  0.705823499002
    R30_32  BAL27_32  0.390146755529
    R30_32  BAL28_32  0.77104966264
    R30_32  BAL29_32  0.522501451417
    R30_32  CAP32  1
    R30_33  COST  7.43221947879
    R30_33  BAL1_33  0.440375884022
    R30_33  BAL2_33  0.773656199471
    R30_33  BAL6_33  0.658659819182
    R30_33  BAL9_33  0.479285785011
    R30_33  BAL19_33  0.915738818033
    R30_33  BAL21_33  0.705823499002
    R30_33  BAL27_33  0.390146755529
    R30_33  BAL28_33  0.77104966264
    R30_33  BAL29_33  0.522501451417
    R30_33  CAP33  1
    R30_34  COST  7.43221947879
    R30_34  BAL1_34  0.440375884022
    R30_34  BAL2_34  0.773656199471
    R30_34  BAL6_34  0.658659819182
    R30_34  BAL9_34  0.479285785011
    R30_34  BAL19_34  0.915738818033
    R30_34  BAL21_34  0.705823499002
    R30_34  BAL27_34  0.390146755529
    R30_34  BAL28_34  0.77104966264
    R30_34  BAL29_34  0.522501451417
    R30_34  CAP34  1
    R30_35  COST  7.43221947879
    R30_35  BAL1_35  0.440375884022
    R30_35  BAL2_35  0.773656199471
    R30_35  BAL6_35  0.658659819182
    R30_35  BAL9_35  0.479285785011
    R30_35  BAL19_35  0.915738818033
    R30_35  BAL21_35  0.705823499002
    R30_35  BAL27_35  0.390146755529
    R30_35  BAL28_35  0.77104966264
    R30_35  BAL29_35  0.522501451417
    R30_35  CAP35  1
    R31_0  COST  8.57450422745
    R31_0  BAL2_0  0.671544540769
    R31_0  BAL4_0  0.564326089783
    R31_0  BAL6_0  0.734374328146
    R31_0  BAL7_0  0.775802924378
    R31_0  BAL14_0  0.869378418831
    R31_0  BAL15_0  0.807793445679
    R31_0  BAL21_0  0.36907761839
    R31_0  BAL23_0  0.470481201184
    R31_0  BAL27_0  0.704848886392
    R31_0  CAP0  1
    R31_1  COST  8.57450422745
    R31_1  BAL2_1  0.671544540769
    R31_1  BAL4_1  0.564326089783
    R31_1  BAL6_1  0.734374328146
    R31_1  BAL7_1  0.775802924378
    R31_1  BAL14_1  0.869378418831
    R31_1  BAL15_1  0.807793445679
    R31_1  BAL21_1  0.36907761839
    R31_1  BAL23_1  0.470481201184
    R31_1  BAL27_1  0.704848886392
    R31_1  CAP1  1
    R31_2  COST  8.57450422745
    R31_2  BAL2_2  0.671544540769
    R31_2  BAL4_2  0.564326089783
    R31_2  BAL6_2  0.734374328146
    R31_2  BAL7_2  0.775802924378
    R31_2  BAL14_2  0.869378418831
    R31_2  BAL15_2  0.807793445679
    R31_2  BAL21_2  0.36907761839
    R31_2  BAL23_2  0.470481201184
    R31_2  BAL27_2  0.704848886392
    R31_2  CAP2  1
    R31_3  COST  8.57450422745
    R31_3  BAL2_3  0.671544540769
    R31_3  BAL4_3  0.564326089783
    R31_3  BAL6_3  0.734374328146
    R31_3  BAL7_3  0.775802924378
    R31_3  BAL14_3  0.869378418831
    R31_3  BAL15_3  0.807793445679
    R31_3  BAL21_3  0.36907761839
    R31_3  BAL23_3  0.470481201184
    R31_3  BAL27_3  0.704848886392
    R31_3  CAP3  1
    R31_4  COST  8.57450422745
    R31_4  BAL2_4  0.671544540769
    R31_4  BAL4_4  0.564326089783
    R31_4  BAL6_4  0.734374328146
    R31_4  BAL7_4  0.775802924378
    R31_4  BAL14_4  0.869378418831
    R31_4  BAL15_4  0.807793445679
    R31_4  BAL21_4  0.36907761839
    R31_4  BAL23_4  0.470481201184
    R31_4  BAL27_4  0.704848886392
    R31_4  CAP4  1
    R31_5  COST  8.57450422745
    R31_5  BAL2_5  0.671544540769
    R31_5  BAL4_5  0.564326089783
    R31_5  BAL6_5  0.734374328146
    R31_5  BAL7_5  0.775802924378
    R31_5  BAL14_5  0.869378418831
    R31_5  BAL15_5  0.807793445679
    R31_5  BAL21_5  0.36907761839
    R31_5  BAL23_5  0.470481201184
    R31_5  BAL27_5  0.704848886392
    R31_5  CAP5  1
    R31_6  COST  8.57450422745
    R31_6  BAL2_6  0.671544540769
    R31_6  BAL4_6  0.564326089783
    R31_6  BAL6_6  0.734374328146
    R31_6  BAL7_6  0.775802924378
    R31_6  BAL14_6  0.869378418831
    R31_6  BAL15_6  0.807793445679
    R31_6  BAL21_6  0.36907761839
    R31_6  BAL23_6  0.470481201184
    R31_6  BAL27_6  0.704848886392
    R31_6  CAP6  1
    R31_7  COST  8.57450422745
    R31_7  BAL2_7  0.671544540769
    R31_7  BAL4_7  0.564326089783
    R31_7  BAL6_7  0.734374328146
    R31_7  BAL7_7  0.775802924378
    R31_7  BAL14_7  0.869378418831
    R31_7  BAL15_7  0.807793445679
    R31_7  BAL21_7  0.36907761839
    R31_7  BAL23_7  0.470481201184
    R31_7  BAL27_7  0.704848886392
    R31_7  CAP7  1
    R31_8  COST  8.57450422745
    R31_8  BAL2_8  0.671544540769
    R31_8  BAL4_8  0.564326089783
    R31_8  BAL6_8  0.734374328146
    R31_8  BAL7_8  0.775802924378
    R31_8  BAL14_8  0.869378418831
    R31_8  BAL15_8  0.807793445679
    R31_8  BAL21_8  0.36907761839
    R31_8  BAL23_8  0.470481201184
    R31_8  BAL27_8  0.704848886392
    R31_8  CAP8  1
    R31_9  COST  8.57450422745
    R31_9  BAL2_9  0.671544540769
    R31_9  BAL4_9  0.564326089783
    R31_9  BAL6_9  0.734374328146
    R31_9  BAL7_9  0.775802924378
    R31_9  BAL14_9  0.869378418831
    R31_9  BAL15_9  0.807793445679
    R31_9  BAL21_9  0.36907761839
    R31_9  BAL23_9  0.470481201184
    R31_9  BAL27_9  0.704848886392
    R31_9  CAP9  1
    R31_10  COST  8.57450422745
    R31_10  BAL2_10  0.671544540769
    R31_10  BAL4_10  0.564326089783
    R31_10  BAL6_10  0.734374328146
    R31_10  BAL7_10  0.775802924378
    R31_10  BAL14_10  0.869378418831
    R31_10  BAL15_10  0.807793445679
    R31_10  BAL21_10  0.36907761839
    R31_10  BAL23_10  0.470481201184
    R31_10  BAL27_10  0.704848886392
    R31_10  CAP10  1
    R31_11  COST  8.57450422745
    R31_11  BAL2_11  0.671544540769
    R31_11  BAL4_11  0.564326089783
    R31_11  BAL6_11  0.734374328146
    R31_11  BAL7_11  0.775802924378
    R31_11  BAL14_11  0.869378418831
    R31_11  BAL15_11  0.807793445679
    R31_11  BAL21_11  0.36907761839
    R31_11  BAL23_11  0.470481201184
    R31_11  BAL27_11  0.704848886392
    R31_11  CAP11  1
    R31_12  COST  8.57450422745
    R31_12  BAL2_12  0.671544540769
    R31_12  BAL4_12  0.564326089783
    R31_12  BAL6_12  0.734374328146
    R31_12  BAL7_12  0.775802924378
    R31_12  BAL14_12  0.869378418831
    R31_12  BAL15_12  0.807793445679
    R31_12  BAL21_12  0.36907761839
    R31_12  BAL23_12  0.470481201184
    R31_12  BAL27_12  0.704848886392
    R31_12  CAP12  1
    R31_13  COST  8.57450422745
    R31_13  BAL2_13  0.671544540769
    R31_13  BAL4_13  0.564326089783
    R31_13  BAL6_13  0.734374328146
    R31_13  BAL7_13  0.775802924378
    R31_13  BAL14_13  0.869378418831
    R31_13  BAL15_13  0.807793445679
    R31_13  BAL21_13  0.36907761839
    R31_13  BAL23_13  0.470481201184
    R31_13  BAL27_13  0.704848886392
    R31_13  CAP13  1
    R31_14  COST  8.57450422745
    R31_14  BAL2_14  0.671544540769
    R31_14  BAL4_14  0.564326089783
    R31_14  BAL6_14  0.734374328146
    R31_14  BAL7_14  0.775802924378
    R31_14  BAL14_14  0.869378418831
    R31_14  BAL15_14  0.807793445679
    R31_14  BAL21_14  0.36907761839
    R31_14  BAL23_14  0.470481201184
    R31_14  BAL27_14  0.704848886392
    R31_14  CAP14  1
    R31_15  COST  8.57450422745
    R31_15  BAL2_15  0.671544540769
    R31_15  BAL4_15  0.564326089783
    R31_15  BAL6_15  0.734374328146
    R31_15  BAL7_15  0.775802924378
    R31_15  BAL14_15  0.869378418831
    R31_15  BAL15_15  0.807793445679
    R31_15  BAL21_15  0.36907761839
    R31_15  BAL23_15  0.470481201184
    R31_15  BAL27_15  0.704848886392
    R31_15  CAP15  1
    R31_16  COST  8.57450422745
    R31_16  BAL2_16  0.671544540769
    R31_16  BAL4_16  0.564326089783
    R31_16  BAL6_16  0.734374328146
    R31_16  BAL7_16  0.775802924378
    R31_16  BAL14_16  0.869378418831
    R31_16  BAL15_16  0.807793445679
    R31_16  BAL21_16  0.36907761839
    R31_16  BAL23_16  0.470481201184
    R31_16  BAL27_16  0.704848886392
    R31_16  CAP16  1
    R31_17  COST  8.57450422745
    R31_17  BAL2_17  0.671544540769
    R31_17  BAL4_17  0.564326089783
    R31_17  BAL6_17  0.734374328146
    R31_17  BAL7_17  0.775802924378
    R31_17  BAL14_17  0.869378418831
    R31_17  BAL15_17  0.807793445679
    R31_17  BAL21_17  0.36907761839
    R31_17  BAL23_17  0.470481201184
    R31_17  BAL27_17  0.704848886392
    R31_17  CAP17  1
    R31_18  COST  8.57450422745
    R31_18  BAL2_18  0.671544540769
    R31_18  BAL4_18  0.564326089783
    R31_18  BAL6_18  0.734374328146
    R31_18  BAL7_18  0.775802924378
    R31_18  BAL14_18  0.869378418831
    R31_18  BAL15_18  0.807793445679
    R31_18  BAL21_18  0.36907761839
    R31_18  BAL23_18  0.470481201184
    R31_18  BAL27_18  0.704848886392
    R31_18  CAP18  1
    R31_19  COST  8.57450422745
    R31_19  BAL2_19  0.671544540769
    R31_19  BAL4_19  0.564326089783
    R31_19  BAL6_19  0.734374328146
    R31_19  BAL7_19  0.775802924378
    R31_19  BAL14_19  0.869378418831
    R31_19  BAL15_19  0.807793445679
    R31_19  BAL21_19  0.36907761839
    R31_19  BAL23_19  0.470481201184
    R31_19  BAL27_19  0.704848886392
    R31_19  CAP19  1
    R31_20  COST  8.57450422745
    R31_20  BAL2_20  0.671544540769
    R31_20  BAL4_20  0.564326089783
    R31_20  BAL6_20  0.734374328146
    R31_20  BAL7_20  0.775802924378
    R31_20  BAL14_20  0.869378418831
    R31_20  BAL15_20  0.807793445679
    R31_20  BAL21_20  0.36907761839
    R31_20  BAL23_20  0.470481201184
    R31_20  BAL27_20  0.704848886392
    R31_20  CAP20  1
    R31_21  COST  8.57450422745
    R31_21  BAL2_21  0.671544540769
    R31_21  BAL4_21  0.564326089783
    R31_21  BAL6_21  0.734374328146
    R31_21  BAL7_21  0.775802924378
    R31_21  BAL14_21  0.869378418831
    R31_21  BAL15_21  0.807793445679
    R31_21  BAL21_21  0.36907761839
    R31_21  BAL23_21  0.470481201184
    R31_21  BAL27_21  0.704848886392
    R31_21  CAP21  1
    R31_22  COST  8.57450422745
    R31_22  BAL2_22  0.671544540769
    R31_22  BAL4_22  0.564326089783
    R31_22  BAL6_22  0.734374328146
    R31_22  BAL7_22  0.775802924378
    R31_22  BAL14_22  0.869378418831
    R31_22  BAL15_22  0.807793445679
    R31_22  BAL21_22  0.36907761839
    R31_22  BAL23_22  0.470481201184
    R31_22  BAL27_22  0.704848886392
    R31_22  CAP22  1
    R31_23  COST  8.57450422745
    R31_23  BAL2_23  0.671544540769
    R31_23  BAL4_23  0.564326089783
    R31_23  BAL6_23  0.734374328146
    R31_23  BAL7_23  0.775802924378
    R31_23  BAL14_23  0.869378418831
    R31_23  BAL15_23  0.807793445679
    R31_23  BAL21_23  0.36907761839
    R31_23  BAL23_23  0.470481201184
    R31_23  BAL27_23  0.704848886392
    R31_23  CAP23  1
    R31_24  COST  8.57450422745
    R31_24  BAL2_24  0.671544540769
    R31_24  BAL4_24  0.564326089783
    R31_24  BAL6_24  0.734374328146
    R31_24  BAL7_24  0.775802924378
    R31_24  BAL14_24  0.869378418831
    R31_24  BAL15_24  0.807793445679
    R31_24  BAL21_24  0.36907761839
    R31_24  BAL23_24  0.470481201184
    R31_24  BAL27_24  0.704848886392
    R31_24  CAP24  1
    R31_25  COST  8.57450422745
    R31_25  BAL2_25  0.671544540769
    R31_25  BAL4_25  0.564326089783
    R31_25  BAL6_25  0.734374328146
    R31_25  BAL7_25  0.775802924378
    R31_25  BAL14_25  0.869378418831
    R31_25  BAL15_25  0.807793445679
    R31_25  BAL21_25  0.36907761839
    R31_25  BAL23_25  0.470481201184
    R31_25  BAL27_25  0.704848886392
    R31_25  CAP25  1
    R31_26  COST  8.57450422745
    R31_26  BAL2_26  0.671544540769
    R31_26  BAL4_26  0.564326089783
    R31_26  BAL6_26  0.734374328146
    R31_26  BAL7_26  0.775802924378
    R31_26  BAL14_26  0.869378418831
    R31_26  BAL15_26  0.807793445679
    R31_26  BAL21_26  0.36907761839
    R31_26  BAL23_26  0.470481201184
    R31_26  BAL27_26  0.704848886392
    R31_26  CAP26  1
    R31_27  COST  8.57450422745
    R31_27  BAL2_27  0.671544540769
    R31_27  BAL4_27  0.564326089783
    R31_27  BAL6_27  0.734374328146
    R31_27  BAL7_27  0.775802924378
    R31_27  BAL14_27  0.869378418831
    R31_27  BAL15_27  0.807793445679
    R31_27  BAL21_27  0.36907761839
    R31_27  BAL23_27  0.470481201184
    R31_27  BAL27_27  0.704848886392
    R31_27  CAP27  1
    R31_28  COST  8.57450422745
    R31_28  BAL2_28  0.671544540769
    R31_28  BAL4_28  0.564326089783
    R31_28  BAL6_28  0.734374328146
    R31_28  BAL7_28  0.775802924378
    R31_28  BAL14_28  0.869378418831
    R31_28  BAL15_28  0.807793445679
    R31_28  BAL21_28  0.36907761839
    R31_28  BAL23_28  0.470481201184
    R31_28  BAL27_28  0.704848886392
    R31_28  CAP28  1
    R31_29  COST  8.57450422745
    R31_29  BAL2_29  0.671544540769
    R31_29  BAL4_29  0.564326089783
    R31_29  BAL6_29  0.734374328146
    R31_29  BAL7_29  0.775802924378
    R31_29  BAL14_29  0.869378418831
    R31_29  BAL15_29  0.807793445679
    R31_29  BAL21_29  0.36907761839
    R31_29  BAL23_29  0.470481201184
    R31_29  BAL27_29  0.704848886392
    R31_29  CAP29  1
    R31_30  COST  8.57450422745
    R31_30  BAL2_30  0.671544540769
    R31_30  BAL4_30  0.564326089783
    R31_30  BAL6_30  0.734374328146
    R31_30  BAL7_30  0.775802924378
    R31_30  BAL14_30  0.869378418831
    R31_30  BAL15_30  0.807793445679
    R31_30  BAL21_30  0.36907761839
    R31_30  BAL23_30  0.470481201184
    R31_30  BAL27_30  0.704848886392
    R31_30  CAP30  1
    R31_31  COST  8.57450422745
    R31_31  BAL2_31  0.671544540769
    R31_31  BAL4_31  0.564326089783
    R31_31  BAL6_31  0.734374328146
    R31_31  BAL7_31  0.775802924378
    R31_31  BAL14_31  0.869378418831
    R31_31  BAL15_31  0.807793445679
    R31_31  BAL21_31  0.36907761839
    R31_31  BAL23_31  0.470481201184
    R31_31  BAL27_31  0.704848886392
    R31_31  CAP31  1
    R31_32  COST  8.57450422745
    R31_32  BAL2_32  0.671544540769
    R31_32  BAL4_32  0.564326089783
    R31_32  BAL6_32  0.734374328146
    R31_32  BAL7_32  0.775802924378
    R31_32  BAL14_32  0.869378418831
    R31_32  BAL15_32  0.807793445679
    R31_32  BAL21_32  0.36907761839
    R31_32  BAL23_32  0.470481201184
    R31_32  BAL27_32  0.704848886392
    R31_32  CAP32  1
    R31_33  COST  8.57450422745
    R31_33  BAL2_33  0.671544540769
    R31_33  BAL4_33  0.564326089783
    R31_33  BAL6_33  0.734374328146
    R31_33  BAL7_33  0.775802924378
    R31_33  BAL14_33  0.869378418831
    R31_33  BAL15_33  0.807793445679
    R31_33  BAL21_33  0.36907761839
    R31_33  BAL23_33  0.470481201184
    R31_33  BAL27_33  0.704848886392
    R31_33  CAP33  1
    R31_34  COST  8.57450422745
    R31_34  BAL2_34  0.671544540769
    R31_34  BAL4_34  0.564326089783
    R31_34  BAL6_34  0.734374328146
    R31_34  BAL7_34  0.775802924378
    R31_34  BAL14_34  0.869378418831
    R31_34  BAL15_34  0.807793445679
    R31_34  BAL21_34  0.36907761839
    R31_34  BAL23_34  0.470481201184
    R31_34  BAL27_34  0.704848886392
    R31_34  CAP34  1
    R31_35  COST  8.57450422745
    R31_35  BAL2_35  0.671544540769
    R31_35  BAL4_35  0.564326089783
    R31_35  BAL6_35  0.734374328146
    R31_35  BAL7_35  0.775802924378
    R31_35  BAL14_35  0.869378418831
    R31_35  BAL15_35  0.807793445679
    R31_35  BAL21_35  0.36907761839
    R31_35  BAL23_35  0.470481201184
    R31_35  BAL27_35  0.704848886392
    R31_35  CAP35  1
    R32_0  COST  11.2740129551
    R32_0  BAL2_0  0.841185156015
    R32_0  BAL4_0  0.699961416054
    R32_0  BAL7_0  0.624816437616
    R32_0  BAL8_0  0.912185926247
    R32_0  BAL13_0  0.927227245034
    R32_0  BAL16_0  0.941562961577
    R32_0  BAL17_0  0.420704462472
    R32_0  BAL18_0  0.249355356298
    R32_0  BAL20_0  0.870635757965
    R32_0  BAL22_0  0.305362349489
    R32_0  BAL23_0  0.612490000361
    R32_0  BAL27_0  0.267633185382
    R32_0  BAL28_0  0.406468646586
    R32_0  CAP0  1
    R32_1  COST  11.2740129551
    R32_1  BAL2_1  0.841185156015
    R32_1  BAL4_1  0.699961416054
    R32_1  BAL7_1  0.624816437616
    R32_1  BAL8_1  0.912185926247
    R32_1  BAL13_1  0.927227245034
    R32_1  BAL16_1  0.941562961577
    R32_1  BAL17_1  0.420704462472
    R32_1  BAL18_1  0.249355356298
    R32_1  BAL20_1  0.870635757965
    R32_1  BAL22_1  0.305362349489
    R32_1  BAL23_1  0.612490000361
    R32_1  BAL27_1  0.267633185382
    R32_1  BAL28_1  0.406468646586
    R32_1  CAP1  1
    R32_2  COST  11.2740129551
    R32_2  BAL2_2  0.841185156015
    R32_2  BAL4_2  0.699961416054
    R32_2  BAL7_2  0.624816437616
    R32_2  BAL8_2  0.912185926247
    R32_2  BAL13_2  0.927227245034
    R32_2  BAL16_2  0.941562961577
    R32_2  BAL17_2  0.420704462472
    R32_2  BAL18_2  0.249355356298
    R32_2  BAL20_2  0.870635757965
    R32_2  BAL22_2  0.305362349489
    R32_2  BAL23_2  0.612490000361
    R32_2  BAL27_2  0.267633185382
    R32_2  BAL28_2  0.406468646586
    R32_2  CAP2  1
    R32_3  COST  11.2740129551
    R32_3  BAL2_3  0.841185156015
    R32_3  BAL4_3  0.699961416054
    R32_3  BAL7_3  0.624816437616
    R32_3  BAL8_3  0.912185926247
    R32_3  BAL13_3  0.927227245034
    R32_3  BAL16_3  0.941562961577
    R32_3  BAL17_3  0.420704462472
    R32_3  BAL18_3  0.249355356298
    R32_3  BAL20_3  0.870635757965
    R32_3  BAL22_3  0.305362349489
    R32_3  BAL23_3  0.612490000361
    R32_3  BAL27_3  0.267633185382
    R32_3  BAL28_3  0.406468646586
    R32_3  CAP3  1
    R32_4  COST  11.2740129551
    R32_4  BAL2_4  0.841185156015
    R32_4  BAL4_4  0.699961416054
    R32_4  BAL7_4  0.624816437616
    R32_4  BAL8_4  0.912185926247
    R32_4  BAL13_4  0.927227245034
    R32_4  BAL16_4  0.941562961577
    R32_4  BAL17_4  0.420704462472
    R32_4  BAL18_4  0.249355356298
    R32_4  BAL20_4  0.870635757965
    R32_4  BAL22_4  0.305362349489
    R32_4  BAL23_4  0.612490000361
    R32_4  BAL27_4  0.267633185382
    R32_4  BAL28_4  0.406468646586
    R32_4  CAP4  1
    R32_5  COST  11.2740129551
    R32_5  BAL2_5  0.841185156015
    R32_5  BAL4_5  0.699961416054
    R32_5  BAL7_5  0.624816437616
    R32_5  BAL8_5  0.912185926247
    R32_5  BAL13_5  0.927227245034
    R32_5  BAL16_5  0.941562961577
    R32_5  BAL17_5  0.420704462472
    R32_5  BAL18_5  0.249355356298
    R32_5  BAL20_5  0.870635757965
    R32_5  BAL22_5  0.305362349489
    R32_5  BAL23_5  0.612490000361
    R32_5  BAL27_5  0.267633185382
    R32_5  BAL28_5  0.406468646586
    R32_5  CAP5  1
    R32_6  COST  11.2740129551
    R32_6  BAL2_6  0.841185156015
    R32_6  BAL4_6  0.699961416054
    R32_6  BAL7_6  0.624816437616
    R32_6  BAL8_6  0.912185926247
    R32_6  BAL13_6  0.927227245034
    R32_6  BAL16_6  0.941562961577
    R32_6  BAL17_6  0.420704462472
    R32_6  BAL18_6  0.249355356298
    R32_6  BAL20_6  0.870635757965
    R32_6  BAL22_6  0.305362349489
    R32_6  BAL23_6  0.612490000361
    R32_6  BAL27_6  0.267633185382
    R32_6  BAL28_6  0.406468646586
    R32_6  CAP6  1
    R32_7  COST  11.2740129551
    R32_7  BAL2_7  0.841185156015
    R32_7  BAL4_7  0.699961416054
    R32_7  BAL7_7  0.624816437616
    R32_7  BAL8_7  0.912185926247
    R32_7  BAL13_7  0.927227245034
    R32_7  BAL16_7  0.941562961577
    R32_7  BAL17_7  0.420704462472
    R32_7  BAL18_7  0.249355356298
    R32_7  BAL20_7  0.870635757965
    R32_7  BAL22_7  0.305362349489
    R32_7  BAL23_7  0.612490000361
    R32_7  BAL27_7  0.267633185382
    R32_7  BAL28_7  0.406468646586
    R32_7  CAP7  1
    R32_8  COST  11.2740129551
    R32_8  BAL2_8  0.841185156015
    R32_8  BAL4_8  0.699961416054
    R32_8  BAL7_8  0.624816437616
    R32_8  BAL8_8  0.912185926247
    R32_8  BAL13_8  0.927227245034
    R32_8  BAL16_8  0.941562961577
    R32_8  BAL17_8  0.420704462472
    R32_8  BAL18_8  0.249355356298
    R32_8  BAL20_8  0.870635757965
    R32_8  BAL22_8  0.305362349489
    R32_8  BAL23_8  0.612490000361
    R32_8  BAL27_8  0.267633185382
    R32_8  BAL28_8  0.406468646586
    R32_8  CAP8  1
    R32_9  COST  11.2740129551
    R32_9  BAL2_9  0.841185156015
    R32_9  BAL4_9  0.699961416054
    R32_9  BAL7_9  0.624816437616
    R32_9  BAL8_9  0.912185926247
    R32_9  BAL13_9  0.927227245034
    R32_9  BAL16_9  0.941562961577
    R32_9  BAL17_9  0.420704462472
    R32_9  BAL18_9  0.249355356298
    R32_9  BAL20_9  0.870635757965
    R32_9  BAL22_9  0.305362349489
    R32_9  BAL23_9  0.612490000361
    R32_9  BAL27_9  0.267633185382
    R32_9  BAL28_9  0.406468646586
    R32_9  CAP9  1
    R32_10  COST  11.2740129551
    R32_10  BAL2_10  0.841185156015
    R32_10  BAL4_10  0.699961416054
    R32_10  BAL7_10  0.624816437616
    R32_10  BAL8_10  0.912185926247
    R32_10  BAL13_10  0.927227245034
    R32_10  BAL16_10  0.941562961577
    R32_10  BAL17_10  0.420704462472
    R32_10  BAL18_10  0.249355356298
    R32_10  BAL20_10  0.870635757965
    R32_10  BAL22_10  0.305362349489
    R32_10  BAL23_10  0.612490000361
    R32_10  BAL27_10  0.267633185382
    R32_10  BAL28_10  0.406468646586
    R32_10  CAP10  1
    R32_11  COST  11.2740129551
    R32_11  BAL2_11  0.841185156015
    R32_11  BAL4_11  0.699961416054
    R32_11  BAL7_11  0.624816437616
    R32_11  BAL8_11  0.912185926247
    R32_11  BAL13_11  0.927227245034
    R32_11  BAL16_11  0.941562961577
    R32_11  BAL17_11  0.420704462472
    R32_11  BAL18_11  0.249355356298
    R32_11  BAL20_11  0.870635757965
    R32_11  BAL22_11  0.305362349489
    R32_11  BAL23_11  0.612490000361
    R32_11  BAL27_11  0.267633185382
    R32_11  BAL28_11  0.406468646586
    R32_11  CAP11  1
    R32_12  COST  11.2740129551
    R32_12  BAL2_12  0.841185156015
    R32_12  BAL4_12  0.699961416054
    R32_12  BAL7_12  0.624816437616
    R32_12  BAL8_12  0.912185926247
    R32_12  BAL13_12  0.927227245034
    R32_12  BAL16_12  0.941562961577
    R32_12  BAL17_12  0.420704462472
    R32_12  BAL18_12  0.249355356298
    R32_12  BAL20_12  0.870635757965
    R32_12  BAL22_12  0.305362349489
    R32_12  BAL23_12  0.612490000361
    R32_12  BAL27_12  0.267633185382
    R32_12  BAL28_12  0.406468646586
    R32_12  CAP12  1
    R32_13  COST  11.2740129551
    R32_13  BAL2_13  0.841185156015
    R32_13  BAL4_13  0.699961416054
    R32_13  BAL7_13  0.624816437616
    R32_13  BAL8_13  0.912185926247
    R32_13  BAL13_13  0.927227245034
    R32_13  BAL16_13  0.941562961577
    R32_13  BAL17_13  0.420704462472
    R32_13  BAL18_13  0.249355356298
    R32_13  BAL20_13  0.870635757965
    R32_13  BAL22_13  0.305362349489
    R32_13  BAL23_13  0.612490000361
    R32_13  BAL27_13  0.267633185382
    R32_13  BAL28_13  0.406468646586
    R32_13  CAP13  1
    R32_14  COST  11.2740129551
    R32_14  BAL2_14  0.841185156015
    R32_14  BAL4_14  0.699961416054
    R32_14  BAL7_14  0.624816437616
    R32_14  BAL8_14  0.912185926247
    R32_14  BAL13_14  0.927227245034
    R32_14  BAL16_14  0.941562961577
    R32_14  BAL17_14  0.420704462472
    R32_14  BAL18_14  0.249355356298
    R32_14  BAL20_14  0.870635757965
    R32_14  BAL22_14  0.305362349489
    R32_14  BAL23_14  0.612490000361
    R32_14  BAL27_14  0.267633185382
    R32_14  BAL28_14  0.406468646586
    R32_14  CAP14  1
    R32_15  COST  11.2740129551
    R32_15  BAL2_15  0.841185156015
    R32_15  BAL4_15  0.699961416054
    R32_15  BAL7_15  0.624816437616
    R32_15  BAL8_15  0.912185926247
    R32_15  BAL13_15  0.927227245034
    R32_15  BAL16_15  0.941562961577
    R32_15  BAL17_15  0.420704462472
    R32_15  BAL18_15  0.249355356298
    R32_15  BAL20_15  0.870635757965
    R32_15  BAL22_15  0.305362349489
    R32_15  BAL23_15  0.612490000361
    R32_15  BAL27_15  0.267633185382
    R32_15  BAL28_15  0.406468646586
    R32_15  CAP15  1
    R32_16  COST  11.2740129551
    R32_16  BAL2_16  0.841185156015
    R32_16  BAL4_16  0.699961416054
    R32_16  BAL7_16  0.624816437616
    R32_16  BAL8_16  0.912185926247
    R32_16  BAL13_16  0.927227245034
    R32_16  BAL16_16  0.941562961577
    R32_16  BAL17_16  0.420704462472
    R32_16  BAL18_16  0.249355356298
    R32_16  BAL20_16  0.870635757965
    R32_16  BAL22_16  0.305362349489
    R32_16  BAL23_16  0.612490000361
    R32_16  BAL27_16  0.267633185382
    R32_16  BAL28_16  0.406468646586
    R32_16  CAP16  1
    R32_17  COST  11.2740129551
    R32_17  BAL2_17  0.841185156015
    R32_17  BAL4_17  0.699961416054
    R32_17  BAL7_17  0.624816437616
    R32_17  BAL8_17  0.912185926247
    R32_17  BAL13_17  0.927227245034
    R32_17  BAL16_17  0.941562961577
    R32_17  BAL17_17  0.420704462472
    R32_17  BAL18_17  0.249355356298
    R32_17  BAL20_17  0.870635757965
    R32_17  BAL22_17  0.305362349489
    R32_17  BAL23_17  0.612490000361
    R32_17  BAL27_17  0.267633185382
    R32_17  BAL28_17  0.406468646586
    R32_17  CAP17  1
    R32_18  COST  11.2740129551
    R32_18  BAL2_18  0.841185156015
    R32_18  BAL4_18  0.699961416054
    R32_18  BAL7_18  0.624816437616
    R32_18  BAL8_18  0.912185926247
    R32_18  BAL13_18  0.927227245034
    R32_18  BAL16_18  0.941562961577
    R32_18  BAL17_18  0.420704462472
    R32_18  BAL18_18  0.249355356298
    R32_18  BAL20_18  0.870635757965
    R32_18  BAL22_18  0.305362349489
    R32_18  BAL23_18  0.612490000361
    R32_18  BAL27_18  0.267633185382
    R32_18  BAL28_18  0.406468646586
    R32_18  CAP18  1
    R32_19  COST  11.2740129551
    R32_19  BAL2_19  0.841185156015
    R32_19  BAL4_19  0.699961416054
    R32_19  BAL7_19  0.624816437616
    R32_19  BAL8_19  0.912185926247
    R32_19  BAL13_19  0.927227245034
    R32_19  BAL16_19  0.941562961577
    R32_19  BAL17_19  0.420704462472
    R32_19  BAL18_19  0.249355356298
    R32_19  BAL20_19  0.870635757965
    R32_19  BAL22_19  0.305362349489
    R32_19  BAL23_19  0.612490000361
    R32_19  BAL27_19  0.267633185382
    R32_19  BAL28_19  0.406468646586
    R32_19  CAP19  1
    R32_20  COST  11.2740129551
    R32_20  BAL2_20  0.841185156015
    R32_20  BAL4_20  0.699961416054
    R32_20  BAL7_20  0.624816437616
    R32_20  BAL8_20  0.912185926247
    R32_20  BAL13_20  0.927227245034
    R32_20  BAL16_20  0.941562961577
    R32_20  BAL17_20  0.420704462472
    R32_20  BAL18_20  0.249355356298
    R32_20  BAL20_20  0.870635757965
    R32_20  BAL22_20  0.305362349489
    R32_20  BAL23_20  0.612490000361
    R32_20  BAL27_20  0.267633185382
    R32_20  BAL28_20  0.406468646586
    R32_20  CAP20  1
    R32_21  COST  11.2740129551
    R32_21  BAL2_21  0.841185156015
    R32_21  BAL4_21  0.699961416054
    R32_21  BAL7_21  0.624816437616
    R32_21  BAL8_21  0.912185926247
    R32_21  BAL13_21  0.927227245034
    R32_21  BAL16_21  0.941562961577
    R32_21  BAL17_21  0.420704462472
    R32_21  BAL18_21  0.249355356298
    R32_21  BAL20_21  0.870635757965
    R32_21  BAL22_21  0.305362349489
    R32_21  BAL23_21  0.612490000361
    R32_21  BAL27_21  0.267633185382
    R32_21  BAL28_21  0.406468646586
    R32_21  CAP21  1
    R32_22  COST  11.2740129551
    R32_22  BAL2_22  0.841185156015
    R32_22  BAL4_22  0.699961416054
    R32_22  BAL7_22  0.624816437616
    R32_22  BAL8_22  0.912185926247
    R32_22  BAL13_22  0.927227245034
    R32_22  BAL16_22  0.941562961577
    R32_22  BAL17_22  0.420704462472
    R32_22  BAL18_22  0.249355356298
    R32_22  BAL20_22  0.870635757965
    R32_22  BAL22_22  0.305362349489
    R32_22  BAL23_22  0.612490000361
    R32_22  BAL27_22  0.267633185382
    R32_22  BAL28_22  0.406468646586
    R32_22  CAP22  1
    R32_23  COST  11.2740129551
    R32_23  BAL2_23  0.841185156015
    R32_23  BAL4_23  0.699961416054
    R32_23  BAL7_23  0.624816437616
    R32_23  BAL8_23  0.912185926247
    R32_23  BAL13_23  0.927227245034
    R32_23  BAL16_23  0.941562961577
    R32_23  BAL17_23  0.420704462472
    R32_23  BAL18_23  0.249355356298
    R32_23  BAL20_23  0.870635757965
    R32_23  BAL22_23  0.305362349489
    R32_23  BAL23_23  0.612490000361
    R32_23  BAL27_23  0.267633185382
    R32_23  BAL28_23  0.406468646586
    R32_23  CAP23  1
    R32_24  COST  11.2740129551
    R32_24  BAL2_24  0.841185156015
    R32_24  BAL4_24  0.699961416054
    R32_24  BAL7_24  0.624816437616
    R32_24  BAL8_24  0.912185926247
    R32_24  BAL13_24  0.927227245034
    R32_24  BAL16_24  0.941562961577
    R32_24  BAL17_24  0.420704462472
    R32_24  BAL18_24  0.249355356298
    R32_24  BAL20_24  0.870635757965
    R32_24  BAL22_24  0.305362349489
    R32_24  BAL23_24  0.612490000361
    R32_24  BAL27_24  0.267633185382
    R32_24  BAL28_24  0.406468646586
    R32_24  CAP24  1
    R32_25  COST  11.2740129551
    R32_25  BAL2_25  0.841185156015
    R32_25  BAL4_25  0.699961416054
    R32_25  BAL7_25  0.624816437616
    R32_25  BAL8_25  0.912185926247
    R32_25  BAL13_25  0.927227245034
    R32_25  BAL16_25  0.941562961577
    R32_25  BAL17_25  0.420704462472
    R32_25  BAL18_25  0.249355356298
    R32_25  BAL20_25  0.870635757965
    R32_25  BAL22_25  0.305362349489
    R32_25  BAL23_25  0.612490000361
    R32_25  BAL27_25  0.267633185382
    R32_25  BAL28_25  0.406468646586
    R32_25  CAP25  1
    R32_26  COST  11.2740129551
    R32_26  BAL2_26  0.841185156015
    R32_26  BAL4_26  0.699961416054
    R32_26  BAL7_26  0.624816437616
    R32_26  BAL8_26  0.912185926247
    R32_26  BAL13_26  0.927227245034
    R32_26  BAL16_26  0.941562961577
    R32_26  BAL17_26  0.420704462472
    R32_26  BAL18_26  0.249355356298
    R32_26  BAL20_26  0.870635757965
    R32_26  BAL22_26  0.305362349489
    R32_26  BAL23_26  0.612490000361
    R32_26  BAL27_26  0.267633185382
    R32_26  BAL28_26  0.406468646586
    R32_26  CAP26  1
    R32_27  COST  11.2740129551
    R32_27  BAL2_27  0.841185156015
    R32_27  BAL4_27  0.699961416054
    R32_27  BAL7_27  0.624816437616
    R32_27  BAL8_27  0.912185926247
    R32_27  BAL13_27  0.927227245034
    R32_27  BAL16_27  0.941562961577
    R32_27  BAL17_27  0.420704462472
    R32_27  BAL18_27  0.249355356298
    R32_27  BAL20_27  0.870635757965
    R32_27  BAL22_27  0.305362349489
    R32_27  BAL23_27  0.612490000361
    R32_27  BAL27_27  0.267633185382
    R32_27  BAL28_27  0.406468646586
    R32_27  CAP27  1
    R32_28  COST  11.2740129551
    R32_28  BAL2_28  0.841185156015
    R32_28  BAL4_28  0.699961416054
    R32_28  BAL7_28  0.624816437616
    R32_28  BAL8_28  0.912185926247
    R32_28  BAL13_28  0.927227245034
    R32_28  BAL16_28  0.941562961577
    R32_28  BAL17_28  0.420704462472
    R32_28  BAL18_28  0.249355356298
    R32_28  BAL20_28  0.870635757965
    R32_28  BAL22_28  0.305362349489
    R32_28  BAL23_28  0.612490000361
    R32_28  BAL27_28  0.267633185382
    R32_28  BAL28_28  0.406468646586
    R32_28  CAP28  1
    R32_29  COST  11.2740129551
    R32_29  BAL2_29  0.841185156015
    R32_29  BAL4_29  0.699961416054
    R32_29  BAL7_29  0.624816437616
    R32_29  BAL8_29  0.912185926247
    R32_29  BAL13_29  0.927227245034
    R32_29  BAL16_29  0.941562961577
    R32_29  BAL17_29  0.420704462472
    R32_29  BAL18_29  0.249355356298
    R32_29  BAL20_29  0.870635757965
    R32_29  BAL22_29  0.305362349489
    R32_29  BAL23_29  0.612490000361
    R32_29  BAL27_29  0.267633185382
    R32_29  BAL28_29  0.406468646586
    R32_29  CAP29  1
    R32_30  COST  11.2740129551
    R32_30  BAL2_30  0.841185156015
    R32_30  BAL4_30  0.699961416054
    R32_30  BAL7_30  0.624816437616
    R32_30  BAL8_30  0.912185926247
    R32_30  BAL13_30  0.927227245034
    R32_30  BAL16_30  0.941562961577
    R32_30  BAL17_30  0.420704462472
    R32_30  BAL18_30  0.249355356298
    R32_30  BAL20_30  0.870635757965
    R32_30  BAL22_30  0.305362349489
    R32_30  BAL23_30  0.612490000361
    R32_30  BAL27_30  0.267633185382
    R32_30  BAL28_30  0.406468646586
    R32_30  CAP30  1
    R32_31  COST  11.2740129551
    R32_31  BAL2_31  0.841185156015
    R32_31  BAL4_31  0.699961416054
    R32_31  BAL7_31  0.624816437616
    R32_31  BAL8_31  0.912185926247
    R32_31  BAL13_31  0.927227245034
    R32_31  BAL16_31  0.941562961577
    R32_31  BAL17_31  0.420704462472
    R32_31  BAL18_31  0.249355356298
    R32_31  BAL20_31  0.870635757965
    R32_31  BAL22_31  0.305362349489
    R32_31  BAL23_31  0.612490000361
    R32_31  BAL27_31  0.267633185382
    R32_31  BAL28_31  0.406468646586
    R32_31  CAP31  1
    R32_32  COST  11.2740129551
    R32_32  BAL2_32  0.841185156015
    R32_32  BAL4_32  0.699961416054
    R32_32  BAL7_32  0.624816437616
    R32_32  BAL8_32  0.912185926247
    R32_32  BAL13_32  0.927227245034
    R32_32  BAL16_32  0.941562961577
    R32_32  BAL17_32  0.420704462472
    R32_32  BAL18_32  0.249355356298
    R32_32  BAL20_32  0.870635757965
    R32_32  BAL22_32  0.305362349489
    R32_32  BAL23_32  0.612490000361
    R32_32  BAL27_32  0.267633185382
    R32_32  BAL28_32  0.406468646586
    R32_32  CAP32  1
    R32_33  COST  11.2740129551
    R32_33  BAL2_33  0.841185156015
    R32_33  BAL4_33  0.699961416054
    R32_33  BAL7_33  0.624816437616
    R32_33  BAL8_33  0.912185926247
    R32_33  BAL13_33  0.927227245034
    R32_33  BAL16_33  0.941562961577
    R32_33  BAL17_33  0.420704462472
    R32_33  BAL18_33  0.249355356298
    R32_33  BAL20_33  0.870635757965
    R32_33  BAL22_33  0.305362349489
    R32_33  BAL23_33  0.612490000361
    R32_33  BAL27_33  0.267633185382
    R32_33  BAL28_33  0.406468646586
    R32_33  CAP33  1
    R32_34  COST  11.2740129551
    R32_34  BAL2_34  0.841185156015
    R32_34  BAL4_34  0.699961416054
    R32_34  BAL7_34  0.624816437616
    R32_34  BAL8_34  0.912185926247
    R32_34  BAL13_34  0.927227245034
    R32_34  BAL16_34  0.941562961577
    R32_34  BAL17_34  0.420704462472
    R32_34  BAL18_34  0.249355356298
    R32_34  BAL20_34  0.870635757965
    R32_34  BAL22_34  0.305362349489
    R32_34  BAL23_34  0.612490000361
    R32_34  BAL27_34  0.267633185382
    R32_34  BAL28_34  0.406468646586
    R32_34  CAP34  1
    R32_35  COST  11.2740129551
    R32_35  BAL2_35  0.841185156015
    R32_35  BAL4_35  0.699961416054
    R32_35  BAL7_35  0.624816437616
    R32_35  BAL8_35  0.912185926247
    R32_35  BAL13_35  0.927227245034
    R32_35  BAL16_35  0.941562961577
    R32_35  BAL17_35  0.420704462472
    R32_35  BAL18_35  0.249355356298
    R32_35  BAL20_35  0.870635757965
    R32_35  BAL22_35  0.305362349489
    R32_35  BAL23_35  0.612490000361
    R32_35  BAL27_35  0.267633185382
    R32_35  BAL28_35  0.406468646586
    R32_35  CAP35  1
    R33_0  COST  19.431346433
    R33_0  BAL0_0  0.240487301595
    R33_0  BAL1_0  0.745611814053
    R33_0  BAL2_0  0.379197291877
    R33_0  BAL3_0  0.460817603943
    R33_0  BAL4_0  0.183188005288
    R33_0  BAL7_0  0.617702425517
    R33_0  BAL9_0  0.269226292902
    R33_0  BAL14_0  0.92250340743
    R33_0  BAL15_0  0.640265158597
    R33_0  BAL17_0  0.74571172332
    R33_0  BAL19_0  0.633628235946
    R33_0  BAL23_0  0.225077007678
    R33_0  BAL26_0  0.831790986711
    R33_0  CAP0  1
    R33_1  COST  19.431346433
    R33_1  BAL0_1  0.240487301595
    R33_1  BAL1_1  0.745611814053
    R33_1  BAL2_1  0.379197291877
    R33_1  BAL3_1  0.460817603943
    R33_1  BAL4_1  0.183188005288
    R33_1  BAL7_1  0.617702425517
    R33_1  BAL9_1  0.269226292902
    R33_1  BAL14_1  0.92250340743
    R33_1  BAL15_1  0.640265158597
    R33_1  BAL17_1  0.74571172332
    R33_1  BAL19_1  0.633628235946
    R33_1  BAL23_1  0.225077007678
    R33_1  BAL26_1  0.831790986711
    R33_1  CAP1  1
    R33_2  COST  19.431346433
    R33_2  BAL0_2  0.240487301595
    R33_2  BAL1_2  0.745611814053
    R33_2  BAL2_2  0.379197291877
    R33_2  BAL3_2  0.460817603943
    R33_2  BAL4_2  0.183188005288
    R33_2  BAL7_2  0.617702425517
    R33_2  BAL9_2  0.269226292902
    R33_2  BAL14_2  0.92250340743
    R33_2  BAL15_2  0.640265158597
    R33_2  BAL17_2  0.74571172332
    R33_2  BAL19_2  0.633628235946
    R33_2  BAL23_2  0.225077007678
    R33_2  BAL26_2  0.831790986711
    R33_2  CAP2  1
    R33_3  COST  19.431346433
    R33_3  BAL0_3  0.240487301595
    R33_3  BAL1_3  0.745611814053
    R33_3  BAL2_3  0.379197291877
    R33_3  BAL3_3  0.460817603943
    R33_3  BAL4_3  0.183188005288
    R33_3  BAL7_3  0.617702425517
    R33_3  BAL9_3  0.269226292902
    R33_3  BAL14_3  0.92250340743
    R33_3  BAL15_3  0.640265158597
    R33_3  BAL17_3  0.74571172332
    R33_3  BAL19_3  0.633628235946
    R33_3  BAL23_3  0.225077007678
    R33_3  BAL26_3  0.831790986711
    R33_3  CAP3  1
    R33_4  COST  19.431346433
    R33_4  BAL0_4  0.240487301595
    R33_4  BAL1_4  0.745611814053
    R33_4  BAL2_4  0.379197291877
    R33_4  BAL3_4  0.460817603943
    R33_4  BAL4_4  0.183188005288
    R33_4  BAL7_4  0.617702425517
    R33_4  BAL9_4  0.269226292902
    R33_4  BAL14_4  0.92250340743
    R33_4  BAL15_4  0.640265158597
    R33_4  BAL17_4  0.74571172332
    R33_4  BAL19_4  0.633628235946
    R33_4  BAL23_4  0.225077007678
    R33_4  BAL26_4  0.831790986711
    R33_4  CAP4  1
    R33_5  COST  19.431346433
    R33_5  BAL0_5  0.240487301595
    R33_5  BAL1_5  0.745611814053
    R33_5  BAL2_5  0.379197291877
    R33_5  BAL3_5  0.460817603943
    R33_5  BAL4_5  0.183188005288
    R33_5  BAL7_5  0.617702425517
    R33_5  BAL9_5  0.269226292902
    R33_5  BAL14_5  0.92250340743
    R33_5  BAL15_5  0.640265158597
    R33_5  BAL17_5  0.74571172332
    R33_5  BAL19_5  0.633628235946
    R33_5  BAL23_5  0.225077007678
    R33_5  BAL26_5  0.831790986711
    R33_5  CAP5  1
    R33_6  COST  19.431346433
    R33_6  BAL0_6  0.240487301595
    R33_6  BAL1_6  0.745611814053
    R33_6  BAL2_6  0.379197291877
    R33_6  BAL3_6  0.460817603943
    R33_6  BAL4_6  0.183188005288
    R33_6  BAL7_6  0.617702425517
    R33_6  BAL9_6  0.269226292902
    R33_6  BAL14_6  0.92250340743
    R33_6  BAL15_6  0.640265158597
    R33_6  BAL17_6  0.74571172332
    R33_6  BAL19_6  0.633628235946
    R33_6  BAL23_6  0.225077007678
    R33_6  BAL26_6  0.831790986711
    R33_6  CAP6  1
    R33_7  COST  19.431346433
    R33_7  BAL0_7  0.240487301595
    R33_7  BAL1_7  0.745611814053
    R33_7  BAL2_7  0.379197291877
    R33_7  BAL3_7  0.460817603943
    R33_7  BAL4_7  0.183188005288
    R33_7  BAL7_7  0.617702425517
    R33_7  BAL9_7  0.269226292902
    R33_7  BAL14_7  0.92250340743
    R33_7  BAL15_7  0.640265158597
    R33_7  BAL17_7  0.74571172332
    R33_7  BAL19_7  0.633628235946
    R33_7  BAL23_7  0.225077007678
    R33_7  BAL26_7  0.831790986711
    R33_7  CAP7  1
    R33_8  COST  19.431346433
    R33_8  BAL0_8  0.240487301595
    R33_8  BAL1_8  0.745611814053
    R33_8  BAL2_8  0.379197291877
    R33_8  BAL3_8  0.460817603943
    R33_8  BAL4_8  0.183188005288
    R33_8  BAL7_8  0.617702425517
    R33_8  BAL9_8  0.269226292902
    R33_8  BAL14_8  0.92250340743
    R33_8  BAL15_8  0.640265158597
    R33_8  BAL17_8  0.74571172332
    R33_8  BAL19_8  0.633628235946
    R33_8  BAL23_8  0.225077007678
    R33_8  BAL26_8  0.831790986711
    R33_8  CAP8  1
    R33_9  COST  19.431346433
    R33_9  BAL0_9  0.240487301595
    R33_9  BAL1_9  0.745611814053
    R33_9  BAL2_9  0.379197291877
    R33_9  BAL3_9  0.460817603943
    R33_9  BAL4_9  0.183188005288
    R33_9  BAL7_9  0.617702425517
    R33_9  BAL9_9  0.269226292902
    R33_9  BAL14_9  0.92250340743
    R33_9  BAL15_9  0.640265158597
    R33_9  BAL17_9  0.74571172332
    R33_9  BAL19_9  0.633628235946
    R33_9  BAL23_9  0.225077007678
    R33_9  BAL26_9  0.831790986711
    R33_9  CAP9  1
    R33_10  COST  19.431346433
    R33_10  BAL0_10  0.240487301595
    R33_10  BAL1_10  0.745611814053
    R33_10  BAL2_10  0.379197291877
    R33_10  BAL3_10  0.460817603943
    R33_10  BAL4_10  0.183188005288
    R33_10  BAL7_10  0.617702425517
    R33_10  BAL9_10  0.269226292902
    R33_10  BAL14_10  0.92250340743
    R33_10  BAL15_10  0.640265158597
    R33_10  BAL17_10  0.74571172332
    R33_10  BAL19_10  0.633628235946
    R33_10  BAL23_10  0.225077007678
    R33_10  BAL26_10  0.831790986711
    R33_10  CAP10  1
    R33_11  COST  19.431346433
    R33_11  BAL0_11  0.240487301595
    R33_11  BAL1_11  0.745611814053
    R33_11  BAL2_11  0.379197291877
    R33_11  BAL3_11  0.460817603943
    R33_11  BAL4_11  0.183188005288
    R33_11  BAL7_11  0.617702425517
    R33_11  BAL9_11  0.269226292902
    R33_11  BAL14_11  0.92250340743
    R33_11  BAL15_11  0.640265158597
    R33_11  BAL17_11  0.74571172332
    R33_11  BAL19_11  0.633628235946
    R33_11  BAL23_11  0.225077007678
    R33_11  BAL26_11  0.831790986711
    R33_11  CAP11  1
    R33_12  COST  19.431346433
    R33_12  BAL0_12  0.240487301595
    R33_12  BAL1_12  0.745611814053
    R33_12  BAL2_12  0.379197291877
    R33_12  BAL3_12  0.460817603943
    R33_12  BAL4_12  0.183188005288
    R33_12  BAL7_12  0.617702425517
    R33_12  BAL9_12  0.269226292902
    R33_12  BAL14_12  0.92250340743
    R33_12  BAL15_12  0.640265158597
    R33_12  BAL17_12  0.74571172332
    R33_12  BAL19_12  0.633628235946
    R33_12  BAL23_12  0.225077007678
    R33_12  BAL26_12  0.831790986711
    R33_12  CAP12  1
    R33_13  COST  19.431346433
    R33_13  BAL0_13  0.240487301595
    R33_13  BAL1_13  0.745611814053
    R33_13  BAL2_13  0.379197291877
    R33_13  BAL3_13  0.460817603943
    R33_13  BAL4_13  0.183188005288
    R33_13  BAL7_13  0.617702425517
    R33_13  BAL9_13  0.269226292902
    R33_13  BAL14_13  0.92250340743
    R33_13  BAL15_13  0.640265158597
    R33_13  BAL17_13  0.74571172332
    R33_13  BAL19_13  0.633628235946
    R33_13  BAL23_13  0.225077007678
    R33_13  BAL26_13  0.831790986711
    R33_13  CAP13  1
    R33_14  COST  19.431346433
    R33_14  BAL0_14  0.240487301595
    R33_14  BAL1_14  0.745611814053
    R33_14  BAL2_14  0.379197291877
    R33_14  BAL3_14  0.460817603943
    R33_14  BAL4_14  0.183188005288
    R33_14  BAL7_14  0.617702425517
    R33_14  BAL9_14  0.269226292902
    R33_14  BAL14_14  0.92250340743
    R33_14  BAL15_14  0.640265158597
    R33_14  BAL17_14  0.74571172332
    R33_14  BAL19_14  0.633628235946
    R33_14  BAL23_14  0.225077007678
    R33_14  BAL26_14  0.831790986711
    R33_14  CAP14  1
    R33_15  COST  19.431346433
    R33_15  BAL0_15  0.240487301595
    R33_15  BAL1_15  0.745611814053
    R33_15  BAL2_15  0.379197291877
    R33_15  BAL3_15  0.460817603943
    R33_15  BAL4_15  0.183188005288
    R33_15  BAL7_15  0.617702425517
    R33_15  BAL9_15  0.269226292902
    R33_15  BAL14_15  0.92250340743
    R33_15  BAL15_15  0.640265158597
    R33_15  BAL17_15  0.74571172332
    R33_15  BAL19_15  0.633628235946
    R33_15  BAL23_15  0.225077007678
    R33_15  BAL26_15  0.831790986711
    R33_15  CAP15  1
    R33_16  COST  19.431346433
    R33_16  BAL0_16  0.240487301595
    R33_16  BAL1_16  0.745611814053
    R33_16  BAL2_16  0.379197291877
    R33_16  BAL3_16  0.460817603943
    R33_16  BAL4_16  0.183188005288
    R33_16  BAL7_16  0.617702425517
    R33_16  BAL9_16  0.269226292902
    R33_16  BAL14_16  0.92250340743
    R33_16  BAL15_16  0.640265158597
    R33_16  BAL17_16  0.74571172332
    R33_16  BAL19_16  0.633628235946
    R33_16  BAL23_16  0.225077007678
    R33_16  BAL26_16  0.831790986711
    R33_16  CAP16  1
    R33_17  COST  19.431346433
    R33_17  BAL0_17  0.240487301595
    R33_17  BAL1_17  0.745611814053
    R33_17  BAL2_17  0.379197291877
    R33_17  BAL3_17  0.460817603943
    R33_17  BAL4_17  0.183188005288
    R33_17  BAL7_17  0.617702425517
    R33_17  BAL9_17  0.269226292902
    R33_17  BAL14_17  0.92250340743
    R33_17  BAL15_17  0.640265158597
    R33_17  BAL17_17  0.74571172332
    R33_17  BAL19_17  0.633628235946
    R33_17  BAL23_17  0.225077007678
    R33_17  BAL26_17  0.831790986711
    R33_17  CAP17  1
    R33_18  COST  19.431346433
    R33_18  BAL0_18  0.240487301595
    R33_18  BAL1_18  0.745611814053
    R33_18  BAL2_18  0.379197291877
    R33_18  BAL3_18  0.460817603943
    R33_18  BAL4_18  0.183188005288
    R33_18  BAL7_18  0.617702425517
    R33_18  BAL9_18  0.269226292902
    R33_18  BAL14_18  0.92250340743
    R33_18  BAL15_18  0.640265158597
    R33_18  BAL17_18  0.74571172332
    R33_18  BAL19_18  0.633628235946
    R33_18  BAL23_18  0.225077007678
    R33_18  BAL26_18  0.831790986711
    R33_18  CAP18  1
    R33_19  COST  19.431346433
    R33_19  BAL0_19  0.240487301595
    R33_19  BAL1_19  0.745611814053
    R33_19  BAL2_19  0.379197291877
    R33_19  BAL3_19  0.460817603943
    R33_19  BAL4_19  0.183188005288
    R33_19  BAL7_19  0.617702425517
    R33_19  BAL9_19  0.269226292902
    R33_19  BAL14_19  0.92250340743
    R33_19  BAL15_19  0.640265158597
    R33_19  BAL17_19  0.74571172332
    R33_19  BAL19_19  0.633628235946
    R33_19  BAL23_19  0.225077007678
    R33_19  BAL26_19  0.831790986711
    R33_19  CAP19  1
    R33_20  COST  19.431346433
    R33_20  BAL0_20  0.240487301595
    R33_20  BAL1_20  0.745611814053
    R33_20  BAL2_20  0.379197291877
    R33_20  BAL3_20  0.460817603943
    R33_20  BAL4_20  0.183188005288
    R33_20  BAL7_20  0.617702425517
    R33_20  BAL9_20  0.269226292902
    R33_20  BAL14_20  0.92250340743
    R33_20  BAL15_20  0.640265158597
    R33_20  BAL17_20  0.74571172332
    R33_20  BAL19_20  0.633628235946
    R33_20  BAL23_20  0.225077007678
    R33_20  BAL26_20  0.831790986711
    R33_20  CAP20  1
    R33_21  COST  19.431346433
    R33_21  BAL0_21  0.240487301595
    R33_21  BAL1_21  0.745611814053
    R33_21  BAL2_21  0.379197291877
    R33_21  BAL3_21  0.460817603943
    R33_21  BAL4_21  0.183188005288
    R33_21  BAL7_21  0.617702425517
    R33_21  BAL9_21  0.269226292902
    R33_21  BAL14_21  0.92250340743
    R33_21  BAL15_21  0.640265158597
    R33_21  BAL17_21  0.74571172332
    R33_21  BAL19_21  0.633628235946
    R33_21  BAL23_21  0.225077007678
    R33_21  BAL26_21  0.831790986711
    R33_21  CAP21  1
    R33_22  COST  19.431346433
    R33_22  BAL0_22  0.240487301595
    R33_22  BAL1_22  0.745611814053
    R33_22  BAL2_22  0.379197291877
    R33_22  BAL3_22  0.460817603943
    R33_22  BAL4_22  0.183188005288
    R33_22  BAL7_22  0.617702425517
    R33_22  BAL9_22  0.269226292902
    R33_22  BAL14_22  0.92250340743
    R33_22  BAL15_22  0.640265158597
    R33_22  BAL17_22  0.74571172332
    R33_22  BAL19_22  0.633628235946
    R33_22  BAL23_22  0.225077007678
    R33_22  BAL26_22  0.831790986711
    R33_22  CAP22  1
    R33_23  COST  19.431346433
    R33_23  BAL0_23  0.240487301595
    R33_23  BAL1_23  0.745611814053
    R33_23  BAL2_23  0.379197291877
    R33_23  BAL3_23  0.460817603943
    R33_23  BAL4_23  0.183188005288
    R33_23  BAL7_23  0.617702425517
    R33_23  BAL9_23  0.269226292902
    R33_23  BAL14_23  0.92250340743
    R33_23  BAL15_23  0.640265158597
    R33_23  BAL17_23  0.74571172332
    R33_23  BAL19_23  0.633628235946
    R33_23  BAL23_23  0.225077007678
    R33_23  BAL26_23  0.831790986711
    R33_23  CAP23  1
    R33_24  COST  19.431346433
    R33_24  BAL0_24  0.240487301595
    R33_24  BAL1_24  0.745611814053
    R33_24  BAL2_24  0.379197291877
    R33_24  BAL3_24  0.460817603943
    R33_24  BAL4_24  0.183188005288
    R33_24  BAL7_24  0.617702425517
    R33_24  BAL9_24  0.269226292902
    R33_24  BAL14_24  0.92250340743
    R33_24  BAL15_24  0.640265158597
    R33_24  BAL17_24  0.74571172332
    R33_24  BAL19_24  0.633628235946
    R33_24  BAL23_24  0.225077007678
    R33_24  BAL26_24  0.831790986711
    R33_24  CAP24  1
    R33_25  COST  19.431346433
    R33_25  BAL0_25  0.240487301595
    R33_25  BAL1_25  0.745611814053
    R33_25  BAL2_25  0.379197291877
    R33_25  BAL3_25  0.460817603943
    R33_25  BAL4_25  0.183188005288
    R33_25  BAL7_25  0.617702425517
    R33_25  BAL9_25  0.269226292902
    R33_25  BAL14_25  0.92250340743
    R33_25  BAL15_25  0.640265158597
    R33_25  BAL17_25  0.74571172332
    R33_25  BAL19_25  0.633628235946
    R33_25  BAL23_25  0.225077007678
    R33_25  BAL26_25  0.831790986711
    R33_25  CAP25  1
    R33_26  COST  19.431346433
    R33_26  BAL0_26  0.240487301595
    R33_26  BAL1_26  0.745611814053
    R33_26  BAL2_26  0.379197291877
    R33_26  BAL3_26  0.460817603943
    R33_26  BAL4_26  0.183188005288
    R33_26  BAL7_26  0.617702425517
    R33_26  BAL9_26  0.269226292902
    R33_26  BAL14_26  0.92250340743
    R33_26  BAL15_26  0.640265158597
    R33_26  BAL17_26  0.74571172332
    R33_26  BAL19_26  0.633628235946
    R33_26  BAL23_26  0.225077007678
    R33_26  BAL26_26  0.831790986711
    R33_26  CAP26  1
    R33_27  COST  19.431346433
    R33_27  BAL0_27  0.240487301595
    R33_27  BAL1_27  0.745611814053
    R33_27  BAL2_27  0.379197291877
    R33_27  BAL3_27  0.460817603943
    R33_27  BAL4_27  0.183188005288
    R33_27  BAL7_27  0.617702425517
    R33_27  BAL9_27  0.269226292902
    R33_27  BAL14_27  0.92250340743
    R33_27  BAL15_27  0.640265158597
    R33_27  BAL17_27  0.74571172332
    R33_27  BAL19_27  0.633628235946
    R33_27  BAL23_27  0.225077007678
    R33_27  BAL26_27  0.831790986711
    R33_27  CAP27  1
    R33_28  COST  19.431346433
    R33_28  BAL0_28  0.240487301595
    R33_28  BAL1_28  0.745611814053
    R33_28  BAL2_28  0.379197291877
    R33_28  BAL3_28  0.460817603943
    R33_28  BAL4_28  0.183188005288
    R33_28  BAL7_28  0.617702425517
    R33_28  BAL9_28  0.269226292902
    R33_28  BAL14_28  0.92250340743
    R33_28  BAL15_28  0.640265158597
    R33_28  BAL17_28  0.74571172332
    R33_28  BAL19_28  0.633628235946
    R33_28  BAL23_28  0.225077007678
    R33_28  BAL26_28  0.831790986711
    R33_28  CAP28  1
    R33_29  COST  19.431346433
    R33_29  BAL0_29  0.240487301595
    R33_29  BAL1_29  0.745611814053
    R33_29  BAL2_29  0.379197291877
    R33_29  BAL3_29  0.460817603943
    R33_29  BAL4_29  0.183188005288
    R33_29  BAL7_29  0.617702425517
    R33_29  BAL9_29  0.269226292902
    R33_29  BAL14_29  0.92250340743
    R33_29  BAL15_29  0.640265158597
    R33_29  BAL17_29  0.74571172332
    R33_29  BAL19_29  0.633628235946
    R33_29  BAL23_29  0.225077007678
    R33_29  BAL26_29  0.831790986711
    R33_29  CAP29  1
    R33_30  COST  19.431346433
    R33_30  BAL0_30  0.240487301595
    R33_30  BAL1_30  0.745611814053
    R33_30  BAL2_30  0.379197291877
    R33_30  BAL3_30  0.460817603943
    R33_30  BAL4_30  0.183188005288
    R33_30  BAL7_30  0.617702425517
    R33_30  BAL9_30  0.269226292902
    R33_30  BAL14_30  0.92250340743
    R33_30  BAL15_30  0.640265158597
    R33_30  BAL17_30  0.74571172332
    R33_30  BAL19_30  0.633628235946
    R33_30  BAL23_30  0.225077007678
    R33_30  BAL26_30  0.831790986711
    R33_30  CAP30  1
    R33_31  COST  19.431346433
    R33_31  BAL0_31  0.240487301595
    R33_31  BAL1_31  0.745611814053
    R33_31  BAL2_31  0.379197291877
    R33_31  BAL3_31  0.460817603943
    R33_31  BAL4_31  0.183188005288
    R33_31  BAL7_31  0.617702425517
    R33_31  BAL9_31  0.269226292902
    R33_31  BAL14_31  0.92250340743
    R33_31  BAL15_31  0.640265158597
    R33_31  BAL17_31  0.74571172332
    R33_31  BAL19_31  0.633628235946
    R33_31  BAL23_31  0.225077007678
    R33_31  BAL26_31  0.831790986711
    R33_31  CAP31  1
    R33_32  COST  19.431346433
    R33_32  BAL0_32  0.240487301595
    R33_32  BAL1_32  0.745611814053
    R33_32  BAL2_32  0.379197291877
    R33_32  BAL3_32  0.460817603943
    R33_32  BAL4_32  0.183188005288
    R33_32  BAL7_32  0.617702425517
    R33_32  BAL9_32  0.269226292902
    R33_32  BAL14_32  0.92250340743
    R33_32  BAL15_32  0.640265158597
    R33_32  BAL17_32  0.74571172332
    R33_32  BAL19_32  0.633628235946
    R33_32  BAL23_32  0.225077007678
    R33_32  BAL26_32  0.831790986711
    R33_32  CAP32  1
    R33_33  COST  19.431346433
    R33_33  BAL0_33  0.240487301595
    R33_33  BAL1_33  0.745611814053
    R33_33  BAL2_33  0.379197291877
    R33_33  BAL3_33  0.460817603943
    R33_33  BAL4_33  0.183188005288
    R33_33  BAL7_33  0.617702425517
    R33_33  BAL9_33  0.269226292902
    R33_33  BAL14_33  0.92250340743
    R33_33  BAL15_33  0.640265158597
    R33_33  BAL17_33  0.74571172332
    R33_33  BAL19_33  0.633628235946
    R33_33  BAL23_33  0.225077007678
    R33_33  BAL26_33  0.831790986711
    R33_33  CAP33  1
    R33_34  COST  19.431346433
    R33_34  BAL0_34  0.240487301595
    R33_34  BAL1_34  0.745611814053
    R33_34  BAL2_34  0.379197291877
    R33_34  BAL3_34  0.460817603943
    R33_34  BAL4_34  0.183188005288
    R33_34  BAL7_34  0.617702425517
    R33_34  BAL9_34  0.269226292902
    R33_34  BAL14_34  0.92250340743
    R33_34  BAL15_34  0.640265158597
    R33_34  BAL17_34  0.74571172332
    R33_34  BAL19_34  0.633628235946
    R33_34  BAL23_34  0.225077007678
    R33_34  BAL26_34  0.831790986711
    R33_34  CAP34  1
    R33_35  COST  19.431346433
    R33_35  BAL0_35  0.240487301595
    R33_35  BAL1_35  0.745611814053
    R33_35  BAL2_35  0.379197291877
    R33_35  BAL3_35  0.460817603943
    R33_35  BAL4_35  0.183188005288
    R33_35  BAL7_35  0.617702425517
    R33_35  BAL9_35  0.269226292902
    R33_35  BAL14_35  0.92250340743
    R33_35  BAL15_35  0.640265158597
    R33_35  BAL17_35  0.74571172332
    R33_35  BAL19_35  0.633628235946
    R33_35  BAL23_35  0.225077007678
    R33_35  BAL26_35  0.831790986711
    R33_35  CAP35  1
    R34_0  COST  6.61417278963
    R34_0  BAL0_0  0.81619723573
    R34_0  BAL1_0  0.493609415159
    R34_0  BAL4_0  0.182521527961
    R34_0  BAL7_0  0.810396217087
    R34_0  BAL8_0  0.877669922915
    R34_0  BAL9_0  0.473510283178
    R34_0  BAL10_0  0.463881245585
    R34_0  BAL12_0  0.413146376735
    R34_0  BAL15_0  0.770835519157
    R34_0  BAL17_0  0.175065693158
    R34_0  BAL18_0  0.647390344014
    R34_0  BAL19_0  0.243550753554
    R34_0  BAL27_0  0.313580152582
    R34_0  CAP0  1
    R34_1  COST  6.61417278963
    R34_1  BAL0_1  0.81619723573
    R34_1  BAL1_1  0.493609415159
    R34_1  BAL4_1  0.182521527961
    R34_1  BAL7_1  0.810396217087
    R34_1  BAL8_1  0.877669922915
    R34_1  BAL9_1  0.473510283178
    R34_1  BAL10_1  0.463881245585
    R34_1  BAL12_1  0.413146376735
    R34_1  BAL15_1  0.770835519157
    R34_1  BAL17_1  0.175065693158
    R34_1  BAL18_1  0.647390344014
    R34_1  BAL19_1  0.243550753554
    R34_1  BAL27_1  0.313580152582
    R34_1  CAP1  1
    R34_2  COST  6.61417278963
    R34_2  BAL0_2  0.81619723573
    R34_2  BAL1_2  0.493609415159
    R34_2  BAL4_2  0.182521527961
    R34_2  BAL7_2  0.810396217087
    R34_2  BAL8_2  0.877669922915
    R34_2  BAL9_2  0.473510283178
    R34_2  BAL10_2  0.463881245585
    R34_2  BAL12_2  0.413146376735
    R34_2  BAL15_2  0.770835519157
    R34_2  BAL17_2  0.175065693158
    R34_2  BAL18_2  0.647390344014
    R34_2  BAL19_2  0.243550753554
    R34_2  BAL27_2  0.313580152582
    R34_2  CAP2  1
    R34_3  COST  6.61417278963
    R34_3  BAL0_3  0.81619723573
    R34_3  BAL1_3  0.493609415159
    R34_3  BAL4_3  0.182521527961
    R34_3  BAL7_3  0.810396217087
    R34_3  BAL8_3  0.877669922915
    R34_3  BAL9_3  0.473510283178
    R34_3  BAL10_3  0.463881245585
    R34_3  BAL12_3  0.413146376735
    R34_3  BAL15_3  0.770835519157
    R34_3  BAL17_3  0.175065693158
    R34_3  BAL18_3  0.647390344014
    R34_3  BAL19_3  0.243550753554
    R34_3  BAL27_3  0.313580152582
    R34_3  CAP3  1
    R34_4  COST  6.61417278963
    R34_4  BAL0_4  0.81619723573
    R34_4  BAL1_4  0.493609415159
    R34_4  BAL4_4  0.182521527961
    R34_4  BAL7_4  0.810396217087
    R34_4  BAL8_4  0.877669922915
    R34_4  BAL9_4  0.473510283178
    R34_4  BAL10_4  0.463881245585
    R34_4  BAL12_4  0.413146376735
    R34_4  BAL15_4  0.770835519157
    R34_4  BAL17_4  0.175065693158
    R34_4  BAL18_4  0.647390344014
    R34_4  BAL19_4  0.243550753554
    R34_4  BAL27_4  0.313580152582
    R34_4  CAP4  1
    R34_5  COST  6.61417278963
    R34_5  BAL0_5  0.81619723573
    R34_5  BAL1_5  0.493609415159
    R34_5  BAL4_5  0.182521527961
    R34_5  BAL7_5  0.810396217087
    R34_5  BAL8_5  0.877669922915
    R34_5  BAL9_5  0.473510283178
    R34_5  BAL10_5  0.463881245585
    R34_5  BAL12_5  0.413146376735
    R34_5  BAL15_5  0.770835519157
    R34_5  BAL17_5  0.175065693158
    R34_5  BAL18_5  0.647390344014
    R34_5  BAL19_5  0.243550753554
    R34_5  BAL27_5  0.313580152582
    R34_5  CAP5  1
    R34_6  COST  6.61417278963
    R34_6  BAL0_6  0.81619723573
    R34_6  BAL1_6  0.493609415159
    R34_6  BAL4_6  0.182521527961
    R34_6  BAL7_6  0.810396217087
    R34_6  BAL8_6  0.877669922915
    R34_6  BAL9_6  0.473510283178
    R34_6  BAL10_6  0.463881245585
    R34_6  BAL12_6  0.413146376735
    R34_6  BAL15_6  0.770835519157
    R34_6  BAL17_6  0.175065693158
    R34_6  BAL18_6  0.647390344014
    R34_6  BAL19_6  0.243550753554
    R34_6  BAL27_6  0.313580152582
    R34_6  CAP6  1
    R34_7  COST  6.61417278963
    R34_7  BAL0_7  0.81619723573
    R34_7  BAL1_7  0.493609415159
    R34_7  BAL4_7  0.182521527961
    R34_7  BAL7_7  0.810396217087
    R34_7  BAL8_7  0.877669922915
    R34_7  BAL9_7  0.473510283178
    R34_7  BAL10_7  0.463881245585
    R34_7  BAL12_7  0.413146376735
    R34_7  BAL15_7  0.770835519157
    R34_7  BAL17_7  0.175065693158
    R34_7  BAL18_7  0.647390344014
    R34_7  BAL19_7  0.243550753554
    R34_7  BAL27_7  0.313580152582
    R34_7  CAP7  1
    R34_8  COST  6.61417278963
    R34_8  BAL0_8  0.81619723573
    R34_8  BAL1_8  0.493609415159
    R34_8  BAL4_8  0.182521527961
    R34_8  BAL7_8  0.810396217087
    R34_8  BAL8_8  0.877669922915
    R34_8  BAL9_8  0.473510283178
    R34_8  BAL10_8  0.463881245585
    R34_8  BAL12_8  0.413146376735
    R34_8  BAL15_8  0.770835519157
    R34_8  BAL17_8  0.175065693158
    R34_8  BAL18_8  0.647390344014
    R34_8  BAL19_8  0.243550753554
    R34_8  BAL27_8  0.313580152582
    R34_8  CAP8  1
    R34_9  COST  6.61417278963
    R34_9  BAL0_9  0.81619723573
    R34_9  BAL1_9  0.493609415159
    R34_9  BAL4_9  0.182521527961
    R34_9  BAL7_9  0.810396217087
    R34_9  BAL8_9  0.877669922915
    R34_9  BAL9_9  0.473510283178
    R34_9  BAL10_9  0.463881245585
    R34_9  BAL12_9  0.413146376735
    R34_9  BAL15_9  0.770835519157
    R34_9  BAL17_9  0.175065693158
    R34_9  BAL18_9  0.647390344014
    R34_9  BAL19_9  0.243550753554
    R34_9  BAL27_9  0.313580152582
    R34_9  CAP9  1
    R34_10  COST  6.61417278963
    R34_10  BAL0_10  0.81619723573
    R34_10  BAL1_10  0.493609415159
    R34_10  BAL4_10  0.182521527961
    R34_10  BAL7_10  0.810396217087
    R34_10  BAL8_10  0.877669922915
    R34_10  BAL9_10  0.473510283178
    R34_10  BAL10_10  0.463881245585
    R34_10  BAL12_10  0.413146376735
    R34_10  BAL15_10  0.770835519157
    R34_10  BAL17_10  0.175065693158
    R34_10  BAL18_10  0.647390344014
    R34_10  BAL19_10  0.243550753554
    R34_10  BAL27_10  0.313580152582
    R34_10  CAP10  1
    R34_11  COST  6.61417278963
    R34_11  BAL0_11  0.81619723573
    R34_11  BAL1_11  0.493609415159
    R34_11  BAL4_11  0.182521527961
    R34_11  BAL7_11  0.810396217087
    R34_11  BAL8_11  0.877669922915
    R34_11  BAL9_11  0.473510283178
    R34_11  BAL10_11  0.463881245585
    R34_11  BAL12_11  0.413146376735
    R34_11  BAL15_11  0.770835519157
    R34_11  BAL17_11  0.175065693158
    R34_11  BAL18_11  0.647390344014
    R34_11  BAL19_11  0.243550753554
    R34_11  BAL27_11  0.313580152582
    R34_11  CAP11  1
    R34_12  COST  6.61417278963
    R34_12  BAL0_12  0.81619723573
    R34_12  BAL1_12  0.493609415159
    R34_12  BAL4_12  0.182521527961
    R34_12  BAL7_12  0.810396217087
    R34_12  BAL8_12  0.877669922915
    R34_12  BAL9_12  0.473510283178
    R34_12  BAL10_12  0.463881245585
    R34_12  BAL12_12  0.413146376735
    R34_12  BAL15_12  0.770835519157
    R34_12  BAL17_12  0.175065693158
    R34_12  BAL18_12  0.647390344014
    R34_12  BAL19_12  0.243550753554
    R34_12  BAL27_12  0.313580152582
    R34_12  CAP12  1
    R34_13  COST  6.61417278963
    R34_13  BAL0_13  0.81619723573
    R34_13  BAL1_13  0.493609415159
    R34_13  BAL4_13  0.182521527961
    R34_13  BAL7_13  0.810396217087
    R34_13  BAL8_13  0.877669922915
    R34_13  BAL9_13  0.473510283178
    R34_13  BAL10_13  0.463881245585
    R34_13  BAL12_13  0.413146376735
    R34_13  BAL15_13  0.770835519157
    R34_13  BAL17_13  0.175065693158
    R34_13  BAL18_13  0.647390344014
    R34_13  BAL19_13  0.243550753554
    R34_13  BAL27_13  0.313580152582
    R34_13  CAP13  1
    R34_14  COST  6.61417278963
    R34_14  BAL0_14  0.81619723573
    R34_14  BAL1_14  0.493609415159
    R34_14  BAL4_14  0.182521527961
    R34_14  BAL7_14  0.810396217087
    R34_14  BAL8_14  0.877669922915
    R34_14  BAL9_14  0.473510283178
    R34_14  BAL10_14  0.463881245585
    R34_14  BAL12_14  0.413146376735
    R34_14  BAL15_14  0.770835519157
    R34_14  BAL17_14  0.175065693158
    R34_14  BAL18_14  0.647390344014
    R34_14  BAL19_14  0.243550753554
    R34_14  BAL27_14  0.313580152582
    R34_14  CAP14  1
    R34_15  COST  6.61417278963
    R34_15  BAL0_15  0.81619723573
    R34_15  BAL1_15  0.493609415159
    R34_15  BAL4_15  0.182521527961
    R34_15  BAL7_15  0.810396217087
    R34_15  BAL8_15  0.877669922915
    R34_15  BAL9_15  0.473510283178
    R34_15  BAL10_15  0.463881245585
    R34_15  BAL12_15  0.413146376735
    R34_15  BAL15_15  0.770835519157
    R34_15  BAL17_15  0.175065693158
    R34_15  BAL18_15  0.647390344014
    R34_15  BAL19_15  0.243550753554
    R34_15  BAL27_15  0.313580152582
    R34_15  CAP15  1
    R34_16  COST  6.61417278963
    R34_16  BAL0_16  0.81619723573
    R34_16  BAL1_16  0.493609415159
    R34_16  BAL4_16  0.182521527961
    R34_16  BAL7_16  0.810396217087
    R34_16  BAL8_16  0.877669922915
    R34_16  BAL9_16  0.473510283178
    R34_16  BAL10_16  0.463881245585
    R34_16  BAL12_16  0.413146376735
    R34_16  BAL15_16  0.770835519157
    R34_16  BAL17_16  0.175065693158
    R34_16  BAL18_16  0.647390344014
    R34_16  BAL19_16  0.243550753554
    R34_16  BAL27_16  0.313580152582
    R34_16  CAP16  1
    R34_17  COST  6.61417278963
    R34_17  BAL0_17  0.81619723573
    R34_17  BAL1_17  0.493609415159
    R34_17  BAL4_17  0.182521527961
    R34_17  BAL7_17  0.810396217087
    R34_17  BAL8_17  0.877669922915
    R34_17  BAL9_17  0.473510283178
    R34_17  BAL10_17  0.463881245585
    R34_17  BAL12_17  0.413146376735
    R34_17  BAL15_17  0.770835519157
    R34_17  BAL17_17  0.175065693158
    R34_17  BAL18_17  0.647390344014
    R34_17  BAL19_17  0.243550753554
    R34_17  BAL27_17  0.313580152582
    R34_17  CAP17  1
    R34_18  COST  6.61417278963
    R34_18  BAL0_18  0.81619723573
    R34_18  BAL1_18  0.493609415159
    R34_18  BAL4_18  0.182521527961
    R34_18  BAL7_18  0.810396217087
    R34_18  BAL8_18  0.877669922915
    R34_18  BAL9_18  0.473510283178
    R34_18  BAL10_18  0.463881245585
    R34_18  BAL12_18  0.413146376735
    R34_18  BAL15_18  0.770835519157
    R34_18  BAL17_18  0.175065693158
    R34_18  BAL18_18  0.647390344014
    R34_18  BAL19_18  0.243550753554
    R34_18  BAL27_18  0.313580152582
    R34_18  CAP18  1
    R34_19  COST  6.61417278963
    R34_19  BAL0_19  0.81619723573
    R34_19  BAL1_19  0.493609415159
    R34_19  BAL4_19  0.182521527961
    R34_19  BAL7_19  0.810396217087
    R34_19  BAL8_19  0.877669922915
    R34_19  BAL9_19  0.473510283178
    R34_19  BAL10_19  0.463881245585
    R34_19  BAL12_19  0.413146376735
    R34_19  BAL15_19  0.770835519157
    R34_19  BAL17_19  0.175065693158
    R34_19  BAL18_19  0.647390344014
    R34_19  BAL19_19  0.243550753554
    R34_19  BAL27_19  0.313580152582
    R34_19  CAP19  1
    R34_20  COST  6.61417278963
    R34_20  BAL0_20  0.81619723573
    R34_20  BAL1_20  0.493609415159
    R34_20  BAL4_20  0.182521527961
    R34_20  BAL7_20  0.810396217087
    R34_20  BAL8_20  0.877669922915
    R34_20  BAL9_20  0.473510283178
    R34_20  BAL10_20  0.463881245585
    R34_20  BAL12_20  0.413146376735
    R34_20  BAL15_20  0.770835519157
    R34_20  BAL17_20  0.175065693158
    R34_20  BAL18_20  0.647390344014
    R34_20  BAL19_20  0.243550753554
    R34_20  BAL27_20  0.313580152582
    R34_20  CAP20  1
    R34_21  COST  6.61417278963
    R34_21  BAL0_21  0.81619723573
    R34_21  BAL1_21  0.493609415159
    R34_21  BAL4_21  0.182521527961
    R34_21  BAL7_21  0.810396217087
    R34_21  BAL8_21  0.877669922915
    R34_21  BAL9_21  0.473510283178
    R34_21  BAL10_21  0.463881245585
    R34_21  BAL12_21  0.413146376735
    R34_21  BAL15_21  0.770835519157
    R34_21  BAL17_21  0.175065693158
    R34_21  BAL18_21  0.647390344014
    R34_21  BAL19_21  0.243550753554
    R34_21  BAL27_21  0.313580152582
    R34_21  CAP21  1
    R34_22  COST  6.61417278963
    R34_22  BAL0_22  0.81619723573
    R34_22  BAL1_22  0.493609415159
    R34_22  BAL4_22  0.182521527961
    R34_22  BAL7_22  0.810396217087
    R34_22  BAL8_22  0.877669922915
    R34_22  BAL9_22  0.473510283178
    R34_22  BAL10_22  0.463881245585
    R34_22  BAL12_22  0.413146376735
    R34_22  BAL15_22  0.770835519157
    R34_22  BAL17_22  0.175065693158
    R34_22  BAL18_22  0.647390344014
    R34_22  BAL19_22  0.243550753554
    R34_22  BAL27_22  0.313580152582
    R34_22  CAP22  1
    R34_23  COST  6.61417278963
    R34_23  BAL0_23  0.81619723573
    R34_23  BAL1_23  0.493609415159
    R34_23  BAL4_23  0.182521527961
    R34_23  BAL7_23  0.810396217087
    R34_23  BAL8_23  0.877669922915
    R34_23  BAL9_23  0.473510283178
    R34_23  BAL10_23  0.463881245585
    R34_23  BAL12_23  0.413146376735
    R34_23  BAL15_23  0.770835519157
    R34_23  BAL17_23  0.175065693158
    R34_23  BAL18_23  0.647390344014
    R34_23  BAL19_23  0.243550753554
    R34_23  BAL27_23  0.313580152582
    R34_23  CAP23  1
    R34_24  COST  6.61417278963
    R34_24  BAL0_24  0.81619723573
    R34_24  BAL1_24  0.493609415159
    R34_24  BAL4_24  0.182521527961
    R34_24  BAL7_24  0.810396217087
    R34_24  BAL8_24  0.877669922915
    R34_24  BAL9_24  0.473510283178
    R34_24  BAL10_24  0.463881245585
    R34_24  BAL12_24  0.413146376735
    R34_24  BAL15_24  0.770835519157
    R34_24  BAL17_24  0.175065693158
    R34_24  BAL18_24  0.647390344014
    R34_24  BAL19_24  0.243550753554
    R34_24  BAL27_24  0.313580152582
    R34_24  CAP24  1
    R34_25  COST  6.61417278963
    R34_25  BAL0_25  0.81619723573
    R34_25  BAL1_25  0.493609415159
    R34_25  BAL4_25  0.182521527961
    R34_25  BAL7_25  0.810396217087
    R34_25  BAL8_25  0.877669922915
    R34_25  BAL9_25  0.473510283178
    R34_25  BAL10_25  0.463881245585
    R34_25  BAL12_25  0.413146376735
    R34_25  BAL15_25  0.770835519157
    R34_25  BAL17_25  0.175065693158
    R34_25  BAL18_25  0.647390344014
    R34_25  BAL19_25  0.243550753554
    R34_25  BAL27_25  0.313580152582
    R34_25  CAP25  1
    R34_26  COST  6.61417278963
    R34_26  BAL0_26  0.81619723573
    R34_26  BAL1_26  0.493609415159
    R34_26  BAL4_26  0.182521527961
    R34_26  BAL7_26  0.810396217087
    R34_26  BAL8_26  0.877669922915
    R34_26  BAL9_26  0.473510283178
    R34_26  BAL10_26  0.463881245585
    R34_26  BAL12_26  0.413146376735
    R34_26  BAL15_26  0.770835519157
    R34_26  BAL17_26  0.175065693158
    R34_26  BAL18_26  0.647390344014
    R34_26  BAL19_26  0.243550753554
    R34_26  BAL27_26  0.313580152582
    R34_26  CAP26  1
    R34_27  COST  6.61417278963
    R34_27  BAL0_27  0.81619723573
    R34_27  BAL1_27  0.493609415159
    R34_27  BAL4_27  0.182521527961
    R34_27  BAL7_27  0.810396217087
    R34_27  BAL8_27  0.877669922915
    R34_27  BAL9_27  0.473510283178
    R34_27  BAL10_27  0.463881245585
    R34_27  BAL12_27  0.413146376735
    R34_27  BAL15_27  0.770835519157
    R34_27  BAL17_27  0.175065693158
    R34_27  BAL18_27  0.647390344014
    R34_27  BAL19_27  0.243550753554
    R34_27  BAL27_27  0.313580152582
    R34_27  CAP27  1
    R34_28  COST  6.61417278963
    R34_28  BAL0_28  0.81619723573
    R34_28  BAL1_28  0.493609415159
    R34_28  BAL4_28  0.182521527961
    R34_28  BAL7_28  0.810396217087
    R34_28  BAL8_28  0.877669922915
    R34_28  BAL9_28  0.473510283178
    R34_28  BAL10_28  0.463881245585
    R34_28  BAL12_28  0.413146376735
    R34_28  BAL15_28  0.770835519157
    R34_28  BAL17_28  0.175065693158
    R34_28  BAL18_28  0.647390344014
    R34_28  BAL19_28  0.243550753554
    R34_28  BAL27_28  0.313580152582
    R34_28  CAP28  1
    R34_29  COST  6.61417278963
    R34_29  BAL0_29  0.81619723573
    R34_29  BAL1_29  0.493609415159
    R34_29  BAL4_29  0.182521527961
    R34_29  BAL7_29  0.810396217087
    R34_29  BAL8_29  0.877669922915
    R34_29  BAL9_29  0.473510283178
    R34_29  BAL10_29  0.463881245585
    R34_29  BAL12_29  0.413146376735
    R34_29  BAL15_29  0.770835519157
    R34_29  BAL17_29  0.175065693158
    R34_29  BAL18_29  0.647390344014
    R34_29  BAL19_29  0.243550753554
    R34_29  BAL27_29  0.313580152582
    R34_29  CAP29  1
    R34_30  COST  6.61417278963
    R34_30  BAL0_30  0.81619723573
    R34_30  BAL1_30  0.493609415159
    R34_30  BAL4_30  0.182521527961
    R34_30  BAL7_30  0.810396217087
    R34_30  BAL8_30  0.877669922915
    R34_30  BAL9_30  0.473510283178
    R34_30  BAL10_30  0.463881245585
    R34_30  BAL12_30  0.413146376735
    R34_30  BAL15_30  0.770835519157
    R34_30  BAL17_30  0.175065693158
    R34_30  BAL18_30  0.647390344014
    R34_30  BAL19_30  0.243550753554
    R34_30  BAL27_30  0.313580152582
    R34_30  CAP30  1
    R34_31  COST  6.61417278963
    R34_31  BAL0_31  0.81619723573
    R34_31  BAL1_31  0.493609415159
    R34_31  BAL4_31  0.182521527961
    R34_31  BAL7_31  0.810396217087
    R34_31  BAL8_31  0.877669922915
    R34_31  BAL9_31  0.473510283178
    R34_31  BAL10_31  0.463881245585
    R34_31  BAL12_31  0.413146376735
    R34_31  BAL15_31  0.770835519157
    R34_31  BAL17_31  0.175065693158
    R34_31  BAL18_31  0.647390344014
    R34_31  BAL19_31  0.243550753554
    R34_31  BAL27_31  0.313580152582
    R34_31  CAP31  1
    R34_32  COST  6.61417278963
    R34_32  BAL0_32  0.81619723573
    R34_32  BAL1_32  0.493609415159
    R34_32  BAL4_32  0.182521527961
    R34_32  BAL7_32  0.810396217087
    R34_32  BAL8_32  0.877669922915
    R34_32  BAL9_32  0.473510283178
    R34_32  BAL10_32  0.463881245585
    R34_32  BAL12_32  0.413146376735
    R34_32  BAL15_32  0.770835519157
    R34_32  BAL17_32  0.175065693158
    R34_32  BAL18_32  0.647390344014
    R34_32  BAL19_32  0.243550753554
    R34_32  BAL27_32  0.313580152582
    R34_32  CAP32  1
    R34_33  COST  6.61417278963
    R34_33  BAL0_33  0.81619723573
    R34_33  BAL1_33  0.493609415159
    R34_33  BAL4_33  0.182521527961
    R34_33  BAL7_33  0.810396217087
    R34_33  BAL8_33  0.877669922915
    R34_33  BAL9_33  0.473510283178
    R34_33  BAL10_33  0.463881245585
    R34_33  BAL12_33  0.413146376735
    R34_33  BAL15_33  0.770835519157
    R34_33  BAL17_33  0.175065693158
    R34_33  BAL18_33  0.647390344014
    R34_33  BAL19_33  0.243550753554
    R34_33  BAL27_33  0.313580152582
    R34_33  CAP33  1
    R34_34  COST  6.61417278963
    R34_34  BAL0_34  0.81619723573
    R34_34  BAL1_34  0.493609415159
    R34_34  BAL4_34  0.182521527961
    R34_34  BAL7_34  0.810396217087
    R34_34  BAL8_34  0.877669922915
    R34_34  BAL9_34  0.473510283178
    R34_34  BAL10_34  0.463881245585
    R34_34  BAL12_34  0.413146376735
    R34_34  BAL15_34  0.770835519157
    R34_34  BAL17_34  0.175065693158
    R34_34  BAL18_34  0.647390344014
    R34_34  BAL19_34  0.243550753554
    R34_34  BAL27_34  0.313580152582
    R34_34  CAP34  1
    R34_35  COST  6.61417278963
    R34_35  BAL0_35  0.81619723573
    R34_35  BAL1_35  0.493609415159
    R34_35  BAL4_35  0.182521527961
    R34_35  BAL7_35  0.810396217087
    R34_35  BAL8_35  0.877669922915
    R34_35  BAL9_35  0.473510283178
    R34_35  BAL10_35  0.463881245585
    R34_35  BAL12_35  0.413146376735
    R34_35  BAL15_35  0.770835519157
    R34_35  BAL17_35  0.175065693158
    R34_35  BAL18_35  0.647390344014
    R34_35  BAL19_35  0.243550753554
    R34_35  BAL27_35  0.313580152582
    R34_35  CAP35  1
    R35_0  COST  10.5322050657
    R35_0  BAL1_0  0.609807535651
    R35_0  BAL2_0  0.302049844021
    R35_0  BAL4_0  0.633632910592
    R35_0  BAL5_0  0.331203753052
    R35_0  BAL8_0  0.294934401724
    R35_0  BAL9_0  0.309415555293
    R35_0  BAL10_0  0.302429145584
    R35_0  BAL20_0  0.455823534544
    R35_0  BAL23_0  0.666491632987
    R35_0  BAL24_0  0.462892470992
    R35_0  BAL25_0  0.496846243417
    R35_0  BAL26_0  0.926709771298
    R35_0  BAL28_0  0.154445613837
    R35_0  BAL29_0  0.839245684789
    R35_0  CAP0  1
    R35_1  COST  10.5322050657
    R35_1  BAL1_1  0.609807535651
    R35_1  BAL2_1  0.302049844021
    R35_1  BAL4_1  0.633632910592
    R35_1  BAL5_1  0.331203753052
    R35_1  BAL8_1  0.294934401724
    R35_1  BAL9_1  0.309415555293
    R35_1  BAL10_1  0.302429145584
    R35_1  BAL20_1  0.455823534544
    R35_1  BAL23_1  0.666491632987
    R35_1  BAL24_1  0.462892470992
    R35_1  BAL25_1  0.496846243417
    R35_1  BAL26_1  0.926709771298
    R35_1  BAL28_1  0.154445613837
    R35_1  BAL29_1  0.839245684789
    R35_1  CAP1  1
    R35_2  COST  10.5322050657
    R35_2  BAL1_2  0.609807535651
    R35_2  BAL2_2  0.302049844021
    R35_2  BAL4_2  0.633632910592
    R35_2  BAL5_2  0.331203753052
    R35_2  BAL8_2  0.294934401724
    R35_2  BAL9_2  0.309415555293
    R35_2  BAL10_2  0.302429145584
    R35_2  BAL20_2  0.455823534544
    R35_2  BAL23_2  0.666491632987
    R35_2  BAL24_2  0.462892470992
    R35_2  BAL25_2  0.496846243417
    R35_2  BAL26_2  0.926709771298
    R35_2  BAL28_2  0.154445613837
    R35_2  BAL29_2  0.839245684789
    R35_2  CAP2  1
    R35_3  COST  10.5322050657
    R35_3  BAL1_3  0.609807535651
    R35_3  BAL2_3  0.302049844021
    R35_3  BAL4_3  0.633632910592
    R35_3  BAL5_3  0.331203753052
    R35_3  BAL8_3  0.294934401724
    R35_3  BAL9_3  0.309415555293
    R35_3  BAL10_3  0.302429145584
    R35_3  BAL20_3  0.455823534544
    R35_3  BAL23_3  0.666491632987
    R35_3  BAL24_3  0.462892470992
    R35_3  BAL25_3  0.496846243417
    R35_3  BAL26_3  0.926709771298
    R35_3  BAL28_3  0.154445613837
    R35_3  BAL29_3  0.839245684789
    R35_3  CAP3  1
    R35_4  COST  10.5322050657
    R35_4  BAL1_4  0.609807535651
    R35_4  BAL2_4  0.302049844021
    R35_4  BAL4_4  0.633632910592
    R35_4  BAL5_4  0.331203753052
    R35_4  BAL8_4  0.294934401724
    R35_4  BAL9_4  0.309415555293
    R35_4  BAL10_4  0.302429145584
    R35_4  BAL20_4  0.455823534544
    R35_4  BAL23_4  0.666491632987
    R35_4  BAL24_4  0.462892470992
    R35_4  BAL25_4  0.496846243417
    R35_4  BAL26_4  0.926709771298
    R35_4  BAL28_4  0.154445613837
    R35_4  BAL29_4  0.839245684789
    R35_4  CAP4  1
    R35_5  COST  10.5322050657
    R35_5  BAL1_5  0.609807535651
    R35_5  BAL2_5  0.302049844021
    R35_5  BAL4_5  0.633632910592
    R35_5  BAL5_5  0.331203753052
    R35_5  BAL8_5  0.294934401724
    R35_5  BAL9_5  0.309415555293
    R35_5  BAL10_5  0.302429145584
    R35_5  BAL20_5  0.455823534544
    R35_5  BAL23_5  0.666491632987
    R35_5  BAL24_5  0.462892470992
    R35_5  BAL25_5  0.496846243417
    R35_5  BAL26_5  0.926709771298
    R35_5  BAL28_5  0.154445613837
    R35_5  BAL29_5  0.839245684789
    R35_5  CAP5  1
    R35_6  COST  10.5322050657
    R35_6  BAL1_6  0.609807535651
    R35_6  BAL2_6  0.302049844021
    R35_6  BAL4_6  0.633632910592
    R35_6  BAL5_6  0.331203753052
    R35_6  BAL8_6  0.294934401724
    R35_6  BAL9_6  0.309415555293
    R35_6  BAL10_6  0.302429145584
    R35_6  BAL20_6  0.455823534544
    R35_6  BAL23_6  0.666491632987
    R35_6  BAL24_6  0.462892470992
    R35_6  BAL25_6  0.496846243417
    R35_6  BAL26_6  0.926709771298
    R35_6  BAL28_6  0.154445613837
    R35_6  BAL29_6  0.839245684789
    R35_6  CAP6  1
    R35_7  COST  10.5322050657
    R35_7  BAL1_7  0.609807535651
    R35_7  BAL2_7  0.302049844021
    R35_7  BAL4_7  0.633632910592
    R35_7  BAL5_7  0.331203753052
    R35_7  BAL8_7  0.294934401724
    R35_7  BAL9_7  0.309415555293
    R35_7  BAL10_7  0.302429145584
    R35_7  BAL20_7  0.455823534544
    R35_7  BAL23_7  0.666491632987
    R35_7  BAL24_7  0.462892470992
    R35_7  BAL25_7  0.496846243417
    R35_7  BAL26_7  0.926709771298
    R35_7  BAL28_7  0.154445613837
    R35_7  BAL29_7  0.839245684789
    R35_7  CAP7  1
    R35_8  COST  10.5322050657
    R35_8  BAL1_8  0.609807535651
    R35_8  BAL2_8  0.302049844021
    R35_8  BAL4_8  0.633632910592
    R35_8  BAL5_8  0.331203753052
    R35_8  BAL8_8  0.294934401724
    R35_8  BAL9_8  0.309415555293
    R35_8  BAL10_8  0.302429145584
    R35_8  BAL20_8  0.455823534544
    R35_8  BAL23_8  0.666491632987
    R35_8  BAL24_8  0.462892470992
    R35_8  BAL25_8  0.496846243417
    R35_8  BAL26_8  0.926709771298
    R35_8  BAL28_8  0.154445613837
    R35_8  BAL29_8  0.839245684789
    R35_8  CAP8  1
    R35_9  COST  10.5322050657
    R35_9  BAL1_9  0.609807535651
    R35_9  BAL2_9  0.302049844021
    R35_9  BAL4_9  0.633632910592
    R35_9  BAL5_9  0.331203753052
    R35_9  BAL8_9  0.294934401724
    R35_9  BAL9_9  0.309415555293
    R35_9  BAL10_9  0.302429145584
    R35_9  BAL20_9  0.455823534544
    R35_9  BAL23_9  0.666491632987
    R35_9  BAL24_9  0.462892470992
    R35_9  BAL25_9  0.496846243417
    R35_9  BAL26_9  0.926709771298
    R35_9  BAL28_9  0.154445613837
    R35_9  BAL29_9  0.839245684789
    R35_9  CAP9  1
    R35_10  COST  10.5322050657
    R35_10  BAL1_10  0.609807535651
    R35_10  BAL2_10  0.302049844021
    R35_10  BAL4_10  0.633632910592
    R35_10  BAL5_10  0.331203753052
    R35_10  BAL8_10  0.294934401724
    R35_10  BAL9_10  0.309415555293
    R35_10  BAL10_10  0.302429145584
    R35_10  BAL20_10  0.455823534544
    R35_10  BAL23_10  0.666491632987
    R35_10  BAL24_10  0.462892470992
    R35_10  BAL25_10  0.496846243417
    R35_10  BAL26_10  0.926709771298
    R35_10  BAL28_10  0.154445613837
    R35_10  BAL29_10  0.839245684789
    R35_10  CAP10  1
    R35_11  COST  10.5322050657
    R35_11  BAL1_11  0.609807535651
    R35_11  BAL2_11  0.302049844021
    R35_11  BAL4_11  0.633632910592
    R35_11  BAL5_11  0.331203753052
    R35_11  BAL8_11  0.294934401724
    R35_11  BAL9_11  0.309415555293
    R35_11  BAL10_11  0.302429145584
    R35_11  BAL20_11  0.455823534544
    R35_11  BAL23_11  0.666491632987
    R35_11  BAL24_11  0.462892470992
    R35_11  BAL25_11  0.496846243417
    R35_11  BAL26_11  0.926709771298
    R35_11  BAL28_11  0.154445613837
    R35_11  BAL29_11  0.839245684789
    R35_11  CAP11  1
    R35_12  COST  10.5322050657
    R35_12  BAL1_12  0.609807535651
    R35_12  BAL2_12  0.302049844021
    R35_12  BAL4_12  0.633632910592
    R35_12  BAL5_12  0.331203753052
    R35_12  BAL8_12  0.294934401724
    R35_12  BAL9_12  0.309415555293
    R35_12  BAL10_12  0.302429145584
    R35_12  BAL20_12  0.455823534544
    R35_12  BAL23_12  0.666491632987
    R35_12  BAL24_12  0.462892470992
    R35_12  BAL25_12  0.496846243417
    R35_12  BAL26_12  0.926709771298
    R35_12  BAL28_12  0.154445613837
    R35_12  BAL29_12  0.839245684789
    R35_12  CAP12  1
    R35_13  COST  10.5322050657
    R35_13  BAL1_13  0.609807535651
    R35_13  BAL2_13  0.302049844021
    R35_13  BAL4_13  0.633632910592
    R35_13  BAL5_13  0.331203753052
    R35_13  BAL8_13  0.294934401724
    R35_13  BAL9_13  0.309415555293
    R35_13  BAL10_13  0.302429145584
    R35_13  BAL20_13  0.455823534544
    R35_13  BAL23_13  0.666491632987
    R35_13  BAL24_13  0.462892470992
    R35_13  BAL25_13  0.496846243417
    R35_13  BAL26_13  0.926709771298
    R35_13  BAL28_13  0.154445613837
    R35_13  BAL29_13  0.839245684789
    R35_13  CAP13  1
    R35_14  COST  10.5322050657
    R35_14  BAL1_14  0.609807535651
    R35_14  BAL2_14  0.302049844021
    R35_14  BAL4_14  0.633632910592
    R35_14  BAL5_14  0.331203753052
    R35_14  BAL8_14  0.294934401724
    R35_14  BAL9_14  0.309415555293
    R35_14  BAL10_14  0.302429145584
    R35_14  BAL20_14  0.455823534544
    R35_14  BAL23_14  0.666491632987
    R35_14  BAL24_14  0.462892470992
    R35_14  BAL25_14  0.496846243417
    R35_14  BAL26_14  0.926709771298
    R35_14  BAL28_14  0.154445613837
    R35_14  BAL29_14  0.839245684789
    R35_14  CAP14  1
    R35_15  COST  10.5322050657
    R35_15  BAL1_15  0.609807535651
    R35_15  BAL2_15  0.302049844021
    R35_15  BAL4_15  0.633632910592
    R35_15  BAL5_15  0.331203753052
    R35_15  BAL8_15  0.294934401724
    R35_15  BAL9_15  0.309415555293
    R35_15  BAL10_15  0.302429145584
    R35_15  BAL20_15  0.455823534544
    R35_15  BAL23_15  0.666491632987
    R35_15  BAL24_15  0.462892470992
    R35_15  BAL25_15  0.496846243417
    R35_15  BAL26_15  0.926709771298
    R35_15  BAL28_15  0.154445613837
    R35_15  BAL29_15  0.839245684789
    R35_15  CAP15  1
    R35_16  COST  10.5322050657
    R35_16  BAL1_16  0.609807535651
    R35_16  BAL2_16  0.302049844021
    R35_16  BAL4_16  0.633632910592
    R35_16  BAL5_16  0.331203753052
    R35_16  BAL8_16  0.294934401724
    R35_16  BAL9_16  0.309415555293
    R35_16  BAL10_16  0.302429145584
    R35_16  BAL20_16  0.455823534544
    R35_16  BAL23_16  0.666491632987
    R35_16  BAL24_16  0.462892470992
    R35_16  BAL25_16  0.496846243417
    R35_16  BAL26_16  0.926709771298
    R35_16  BAL28_16  0.154445613837
    R35_16  BAL29_16  0.839245684789
    R35_16  CAP16  1
    R35_17  COST  10.5322050657
    R35_17  BAL1_17  0.609807535651
    R35_17  BAL2_17  0.302049844021
    R35_17  BAL4_17  0.633632910592
    R35_17  BAL5_17  0.331203753052
    R35_17  BAL8_17  0.294934401724
    R35_17  BAL9_17  0.309415555293
    R35_17  BAL10_17  0.302429145584
    R35_17  BAL20_17  0.455823534544
    R35_17  BAL23_17  0.666491632987
    R35_17  BAL24_17  0.462892470992
    R35_17  BAL25_17  0.496846243417
    R35_17  BAL26_17  0.926709771298
    R35_17  BAL28_17  0.154445613837
    R35_17  BAL29_17  0.839245684789
    R35_17  CAP17  1
    R35_18  COST  10.5322050657
    R35_18  BAL1_18  0.609807535651
    R35_18  BAL2_18  0.302049844021
    R35_18  BAL4_18  0.633632910592
    R35_18  BAL5_18  0.331203753052
    R35_18  BAL8_18  0.294934401724
    R35_18  BAL9_18  0.309415555293
    R35_18  BAL10_18  0.302429145584
    R35_18  BAL20_18  0.455823534544
    R35_18  BAL23_18  0.666491632987
    R35_18  BAL24_18  0.462892470992
    R35_18  BAL25_18  0.496846243417
    R35_18  BAL26_18  0.926709771298
    R35_18  BAL28_18  0.154445613837
    R35_18  BAL29_18  0.839245684789
    R35_18  CAP18  1
    R35_19  COST  10.5322050657
    R35_19  BAL1_19  0.609807535651
    R35_19  BAL2_19  0.302049844021
    R35_19  BAL4_19  0.633632910592
    R35_19  BAL5_19  0.331203753052
    R35_19  BAL8_19  0.294934401724
    R35_19  BAL9_19  0.309415555293
    R35_19  BAL10_19  0.302429145584
    R35_19  BAL20_19  0.455823534544
    R35_19  BAL23_19  0.666491632987
    R35_19  BAL24_19  0.462892470992
    R35_19  BAL25_19  0.496846243417
    R35_19  BAL26_19  0.926709771298
    R35_19  BAL28_19  0.154445613837
    R35_19  BAL29_19  0.839245684789
    R35_19  CAP19  1
    R35_20  COST  10.5322050657
    R35_20  BAL1_20  0.609807535651
    R35_20  BAL2_20  0.302049844021
    R35_20  BAL4_20  0.633632910592
    R35_20  BAL5_20  0.331203753052
    R35_20  BAL8_20  0.294934401724
    R35_20  BAL9_20  0.309415555293
    R35_20  BAL10_20  0.302429145584
    R35_20  BAL20_20  0.455823534544
    R35_20  BAL23_20  0.666491632987
    R35_20  BAL24_20  0.462892470992
    R35_20  BAL25_20  0.496846243417
    R35_20  BAL26_20  0.926709771298
    R35_20  BAL28_20  0.154445613837
    R35_20  BAL29_20  0.839245684789
    R35_20  CAP20  1
    R35_21  COST  10.5322050657
    R35_21  BAL1_21  0.609807535651
    R35_21  BAL2_21  0.302049844021
    R35_21  BAL4_21  0.633632910592
    R35_21  BAL5_21  0.331203753052
    R35_21  BAL8_21  0.294934401724
    R35_21  BAL9_21  0.309415555293
    R35_21  BAL10_21  0.302429145584
    R35_21  BAL20_21  0.455823534544
    R35_21  BAL23_21  0.666491632987
    R35_21  BAL24_21  0.462892470992
    R35_21  BAL25_21  0.496846243417
    R35_21  BAL26_21  0.926709771298
    R35_21  BAL28_21  0.154445613837
    R35_21  BAL29_21  0.839245684789
    R35_21  CAP21  1
    R35_22  COST  10.5322050657
    R35_22  BAL1_22  0.609807535651
    R35_22  BAL2_22  0.302049844021
    R35_22  BAL4_22  0.633632910592
    R35_22  BAL5_22  0.331203753052
    R35_22  BAL8_22  0.294934401724
    R35_22  BAL9_22  0.309415555293
    R35_22  BAL10_22  0.302429145584
    R35_22  BAL20_22  0.455823534544
    R35_22  BAL23_22  0.666491632987
    R35_22  BAL24_22  0.462892470992
    R35_22  BAL25_22  0.496846243417
    R35_22  BAL26_22  0.926709771298
    R35_22  BAL28_22  0.154445613837
    R35_22  BAL29_22  0.839245684789
    R35_22  CAP22  1
    R35_23  COST  10.5322050657
    R35_23  BAL1_23  0.609807535651
    R35_23  BAL2_23  0.302049844021
    R35_23  BAL4_23  0.633632910592
    R35_23  BAL5_23  0.331203753052
    R35_23  BAL8_23  0.294934401724
    R35_23  BAL9_23  0.309415555293
    R35_23  BAL10_23  0.302429145584
    R35_23  BAL20_23  0.455823534544
    R35_23  BAL23_23  0.666491632987
    R35_23  BAL24_23  0.462892470992
    R35_23  BAL25_23  0.496846243417
    R35_23  BAL26_23  0.926709771298
    R35_23  BAL28_23  0.154445613837
    R35_23  BAL29_23  0.839245684789
    R35_23  CAP23  1
    R35_24  COST  10.5322050657
    R35_24  BAL1_24  0.609807535651
    R35_24  BAL2_24  0.302049844021
    R35_24  BAL4_24  0.633632910592
    R35_24  BAL5_24  0.331203753052
    R35_24  BAL8_24  0.294934401724
    R35_24  BAL9_24  0.309415555293
    R35_24  BAL10_24  0.302429145584
    R35_24  BAL20_24  0.455823534544
    R35_24  BAL23_24  0.666491632987
    R35_24  BAL24_24  0.462892470992
    R35_24  BAL25_24  0.496846243417
    R35_24  BAL26_24  0.926709771298
    R35_24  BAL28_24  0.154445613837
    R35_24  BAL29_24  0.839245684789
    R35_24  CAP24  1
    R35_25  COST  10.5322050657
    R35_25  BAL1_25  0.609807535651
    R35_25  BAL2_25  0.302049844021
    R35_25  BAL4_25  0.633632910592
    R35_25  BAL5_25  0.331203753052
    R35_25  BAL8_25  0.294934401724
    R35_25  BAL9_25  0.309415555293
    R35_25  BAL10_25  0.302429145584
    R35_25  BAL20_25  0.455823534544
    R35_25  BAL23_25  0.666491632987
    R35_25  BAL24_25  0.462892470992
    R35_25  BAL25_25  0.496846243417
    R35_25  BAL26_25  0.926709771298
    R35_25  BAL28_25  0.154445613837
    R35_25  BAL29_25  0.839245684789
    R35_25  CAP25  1
    R35_26  COST  10.5322050657
    R35_26  BAL1_26  0.609807535651
    R35_26  BAL2_26  0.302049844021
    R35_26  BAL4_26  0.633632910592
    R35_26  BAL5_26  0.331203753052
    R35_26  BAL8_26  0.294934401724
    R35_26  BAL9_26  0.309415555293
    R35_26  BAL10_26  0.302429145584
    R35_26  BAL20_26  0.455823534544
    R35_26  BAL23_26  0.666491632987
    R35_26  BAL24_26  0.462892470992
    R35_26  BAL25_26  0.496846243417
    R35_26  BAL26_26  0.926709771298
    R35_26  BAL28_26  0.154445613837
    R35_26  BAL29_26  0.839245684789
    R35_26  CAP26  1
    R35_27  COST  10.5322050657
    R35_27  BAL1_27  0.609807535651
    R35_27  BAL2_27  0.302049844021
    R35_27  BAL4_27  0.633632910592
    R35_27  BAL5_27  0.331203753052
    R35_27  BAL8_27  0.294934401724
    R35_27  BAL9_27  0.309415555293
    R35_27  BAL10_27  0.302429145584
    R35_27  BAL20_27  0.455823534544
    R35_27  BAL23_27  0.666491632987
    R35_27  BAL24_27  0.462892470992
    R35_27  BAL25_27  0.496846243417
    R35_27  BAL26_27  0.926709771298
    R35_27  BAL28_27  0.154445613837
    R35_27  BAL29_27  0.839245684789
    R35_27  CAP27  1
    R35_28  COST  10.5322050657
    R35_28  BAL1_28  0.609807535651
    R35_28  BAL2_28  0.302049844021
    R35_28  BAL4_28  0.633632910592
    R35_28  BAL5_28  0.331203753052
    R35_28  BAL8_28  0.294934401724
    R35_28  BAL9_28  0.309415555293
    R35_28  BAL10_28  0.302429145584
    R35_28  BAL20_28  0.455823534544
    R35_28  BAL23_28  0.666491632987
    R35_28  BAL24_28  0.462892470992
    R35_28  BAL25_28  0.496846243417
    R35_28  BAL26_28  0.926709771298
    R35_28  BAL28_28  0.154445613837
    R35_28  BAL29_28  0.839245684789
    R35_28  CAP28  1
    R35_29  COST  10.5322050657
    R35_29  BAL1_29  0.609807535651
    R35_29  BAL2_29  0.302049844021
    R35_29  BAL4_29  0.633632910592
    R35_29  BAL5_29  0.331203753052
    R35_29  BAL8_29  0.294934401724
    R35_29  BAL9_29  0.309415555293
    R35_29  BAL10_29  0.302429145584
    R35_29  BAL20_29  0.455823534544
    R35_29  BAL23_29  0.666491632987
    R35_29  BAL24_29  0.462892470992
    R35_29  BAL25_29  0.496846243417
    R35_29  BAL26_29  0.926709771298
    R35_29  BAL28_29  0.154445613837
    R35_29  BAL29_29  0.839245684789
    R35_29  CAP29  1
    R35_30  COST  10.5322050657
    R35_30  BAL1_30  0.609807535651
    R35_30  BAL2_30  0.302049844021
    R35_30  BAL4_30  0.633632910592
    R35_30  BAL5_30  0.331203753052
    R35_30  BAL8_30  0.294934401724
    R35_30  BAL9_30  0.309415555293
    R35_30  BAL10_30  0.302429145584
    R35_30  BAL20_30  0.455823534544
    R35_30  BAL23_30  0.666491632987
    R35_30  BAL24_30  0.462892470992
    R35_30  BAL25_30  0.496846243417
    R35_30  BAL26_30  0.926709771298
    R35_30  BAL28_30  0.154445613837
    R35_30  BAL29_30  0.839245684789
    R35_30  CAP30  1
    R35_31  COST  10.5322050657
    R35_31  BAL1_31  0.609807535651
    R35_31  BAL2_31  0.302049844021
    R35_31  BAL4_31  0.633632910592
    R35_31  BAL5_31  0.331203753052
    R35_31  BAL8_31  0.294934401724
    R35_31  BAL9_31  0.309415555293
    R35_31  BAL10_31  0.302429145584
    R35_31  BAL20_31  0.455823534544
    R35_31  BAL23_31  0.666491632987
    R35_31  BAL24_31  0.462892470992
    R35_31  BAL25_31  0.496846243417
    R35_31  BAL26_31  0.926709771298
    R35_31  BAL28_31  0.154445613837
    R35_31  BAL29_31  0.839245684789
    R35_31  CAP31  1
    R35_32  COST  10.5322050657
    R35_32  BAL1_32  0.609807535651
    R35_32  BAL2_32  0.302049844021
    R35_32  BAL4_32  0.633632910592
    R35_32  BAL5_32  0.331203753052
    R35_32  BAL8_32  0.294934401724
    R35_32  BAL9_32  0.309415555293
    R35_32  BAL10_32  0.302429145584
    R35_32  BAL20_32  0.455823534544
    R35_32  BAL23_32  0.666491632987
    R35_32  BAL24_32  0.462892470992
    R35_32  BAL25_32  0.496846243417
    R35_32  BAL26_32  0.926709771298
    R35_32  BAL28_32  0.154445613837
    R35_32  BAL29_32  0.839245684789
    R35_32  CAP32  1
    R35_33  COST  10.5322050657
    R35_33  BAL1_33  0.609807535651
    R35_33  BAL2_33  0.302049844021
    R35_33  BAL4_33  0.633632910592
    R35_33  BAL5_33  0.331203753052
    R35_33  BAL8_33  0.294934401724
    R35_33  BAL9_33  0.309415555293
    R35_33  BAL10_33  0.302429145584
    R35_33  BAL20_33  0.455823534544
    R35_33  BAL23_33  0.666491632987
    R35_33  BAL24_33  0.462892470992
    R35_33  BAL25_33  0.496846243417
    R35_33  BAL26_33  0.926709771298
    R35_33  BAL28_33  0.154445613837
    R35_33  BAL29_33  0.839245684789
    R35_33  CAP33  1
    R35_34  COST  10.5322050657
    R35_34  BAL1_34  0.609807535651
    R35_34  BAL2_34  0.302049844021
    R35_34  BAL4_34  0.633632910592
    R35_34  BAL5_34  0.331203753052
    R35_34  BAL8_34  0.294934401724
    R35_34  BAL9_34  0.309415555293
    R35_34  BAL10_34  0.302429145584
    R35_34  BAL20_34  0.455823534544
    R35_34  BAL23_34  0.666491632987
    R35_34  BAL24_34  0.462892470992
    R35_34  BAL25_34  0.496846243417
    R35_34  BAL26_34  0.926709771298
    R35_34  BAL28_34  0.154445613837
    R35_34  BAL29_34  0.839245684789
    R35_34  CAP34  1
    R35_35  COST  10.5322050657
    R35_35  BAL1_35  0.609807535651
    R35_35  BAL2_35  0.302049844021
    R35_35  BAL4_35  0.633632910592
    R35_35  BAL5_35  0.331203753052
    R35_35  BAL8_35  0.294934401724
    R35_35  BAL9_35  0.309415555293
    R35_35  BAL10_35  0.302429145584
    R35_35  BAL20_35  0.455823534544
    R35_35  BAL23_35  0.666491632987
    R35_35  BAL24_35  0.462892470992
    R35_35  BAL25_35  0.496846243417
    R35_35  BAL26_35  0.926709771298
    R35_35  BAL28_35  0.154445613837
    R35_35  BAL29_35  0.839245684789
    R35_35  CAP35  1
    R36_0  COST  8.83998230181
    R36_0  BAL4_0  0.944428120951
    R36_0  BAL11_0  0.894471543874
    R36_0  BAL18_0  0.54957227716
    R36_0  BAL21_0  0.549408682655
    R36_0  BAL22_0  0.730546780218
    R36_0  BAL23_0  0.391377183922
    R36_0  BAL26_0  0.890036102295
    R36_0  CAP0  1
    R36_1  COST  8.83998230181
    R36_1  BAL4_1  0.944428120951
    R36_1  BAL11_1  0.894471543874
    R36_1  BAL18_1  0.54957227716
    R36_1  BAL21_1  0.549408682655
    R36_1  BAL22_1  0.730546780218
    R36_1  BAL23_1  0.391377183922
    R36_1  BAL26_1  0.890036102295
    R36_1  CAP1  1
    R36_2  COST  8.83998230181
    R36_2  BAL4_2  0.944428120951
    R36_2  BAL11_2  0.894471543874
    R36_2  BAL18_2  0.54957227716
    R36_2  BAL21_2  0.549408682655
    R36_2  BAL22_2  0.730546780218
    R36_2  BAL23_2  0.391377183922
    R36_2  BAL26_2  0.890036102295
    R36_2  CAP2  1
    R36_3  COST  8.83998230181
    R36_3  BAL4_3  0.944428120951
    R36_3  BAL11_3  0.894471543874
    R36_3  BAL18_3  0.54957227716
    R36_3  BAL21_3  0.549408682655
    R36_3  BAL22_3  0.730546780218
    R36_3  BAL23_3  0.391377183922
    R36_3  BAL26_3  0.890036102295
    R36_3  CAP3  1
    R36_4  COST  8.83998230181
    R36_4  BAL4_4  0.944428120951
    R36_4  BAL11_4  0.894471543874
    R36_4  BAL18_4  0.54957227716
    R36_4  BAL21_4  0.549408682655
    R36_4  BAL22_4  0.730546780218
    R36_4  BAL23_4  0.391377183922
    R36_4  BAL26_4  0.890036102295
    R36_4  CAP4  1
    R36_5  COST  8.83998230181
    R36_5  BAL4_5  0.944428120951
    R36_5  BAL11_5  0.894471543874
    R36_5  BAL18_5  0.54957227716
    R36_5  BAL21_5  0.549408682655
    R36_5  BAL22_5  0.730546780218
    R36_5  BAL23_5  0.391377183922
    R36_5  BAL26_5  0.890036102295
    R36_5  CAP5  1
    R36_6  COST  8.83998230181
    R36_6  BAL4_6  0.944428120951
    R36_6  BAL11_6  0.894471543874
    R36_6  BAL18_6  0.54957227716
    R36_6  BAL21_6  0.549408682655
    R36_6  BAL22_6  0.730546780218
    R36_6  BAL23_6  0.391377183922
    R36_6  BAL26_6  0.890036102295
    R36_6  CAP6  1
    R36_7  COST  8.83998230181
    R36_7  BAL4_7  0.944428120951
    R36_7  BAL11_7  0.894471543874
    R36_7  BAL18_7  0.54957227716
    R36_7  BAL21_7  0.549408682655
    R36_7  BAL22_7  0.730546780218
    R36_7  BAL23_7  0.391377183922
    R36_7  BAL26_7  0.890036102295
    R36_7  CAP7  1
    R36_8  COST  8.83998230181
    R36_8  BAL4_8  0.944428120951
    R36_8  BAL11_8  0.894471543874
    R36_8  BAL18_8  0.54957227716
    R36_8  BAL21_8  0.549408682655
    R36_8  BAL22_8  0.730546780218
    R36_8  BAL23_8  0.391377183922
    R36_8  BAL26_8  0.890036102295
    R36_8  CAP8  1
    R36_9  COST  8.83998230181
    R36_9  BAL4_9  0.944428120951
    R36_9  BAL11_9  0.894471543874
    R36_9  BAL18_9  0.54957227716
    R36_9  BAL21_9  0.549408682655
    R36_9  BAL22_9  0.730546780218
    R36_9  BAL23_9  0.391377183922
    R36_9  BAL26_9  0.890036102295
    R36_9  CAP9  1
    R36_10  COST  8.83998230181
    R36_10  BAL4_10  0.944428120951
    R36_10  BAL11_10  0.894471543874
    R36_10  BAL18_10  0.54957227716
    R36_10  BAL21_10  0.549408682655
    R36_10  BAL22_10  0.730546780218
    R36_10  BAL23_10  0.391377183922
    R36_10  BAL26_10  0.890036102295
    R36_10  CAP10  1
    R36_11  COST  8.83998230181
    R36_11  BAL4_11  0.944428120951
    R36_11  BAL11_11  0.894471543874
    R36_11  BAL18_11  0.54957227716
    R36_11  BAL21_11  0.549408682655
    R36_11  BAL22_11  0.730546780218
    R36_11  BAL23_11  0.391377183922
    R36_11  BAL26_11  0.890036102295
    R36_11  CAP11  1
    R36_12  COST  8.83998230181
    R36_12  BAL4_12  0.944428120951
    R36_12  BAL11_12  0.894471543874
    R36_12  BAL18_12  0.54957227716
    R36_12  BAL21_12  0.549408682655
    R36_12  BAL22_12  0.730546780218
    R36_12  BAL23_12  0.391377183922
    R36_12  BAL26_12  0.890036102295
    R36_12  CAP12  1
    R36_13  COST  8.83998230181
    R36_13  BAL4_13  0.944428120951
    R36_13  BAL11_13  0.894471543874
    R36_13  BAL18_13  0.54957227716
    R36_13  BAL21_13  0.549408682655
    R36_13  BAL22_13  0.730546780218
    R36_13  BAL23_13  0.391377183922
    R36_13  BAL26_13  0.890036102295
    R36_13  CAP13  1
    R36_14  COST  8.83998230181
    R36_14  BAL4_14  0.944428120951
    R36_14  BAL11_14  0.894471543874
    R36_14  BAL18_14  0.54957227716
    R36_14  BAL21_14  0.549408682655
    R36_14  BAL22_14  0.730546780218
    R36_14  BAL23_14  0.391377183922
    R36_14  BAL26_14  0.890036102295
    R36_14  CAP14  1
    R36_15  COST  8.83998230181
    R36_15  BAL4_15  0.944428120951
    R36_15  BAL11_15  0.894471543874
    R36_15  BAL18_15  0.54957227716
    R36_15  BAL21_15  0.549408682655
    R36_15  BAL22_15  0.730546780218
    R36_15  BAL23_15  0.391377183922
    R36_15  BAL26_15  0.890036102295
    R36_15  CAP15  1
    R36_16  COST  8.83998230181
    R36_16  BAL4_16  0.944428120951
    R36_16  BAL11_16  0.894471543874
    R36_16  BAL18_16  0.54957227716
    R36_16  BAL21_16  0.549408682655
    R36_16  BAL22_16  0.730546780218
    R36_16  BAL23_16  0.391377183922
    R36_16  BAL26_16  0.890036102295
    R36_16  CAP16  1
    R36_17  COST  8.83998230181
    R36_17  BAL4_17  0.944428120951
    R36_17  BAL11_17  0.894471543874
    R36_17  BAL18_17  0.54957227716
    R36_17  BAL21_17  0.549408682655
    R36_17  BAL22_17  0.730546780218
    R36_17  BAL23_17  0.391377183922
    R36_17  BAL26_17  0.890036102295
    R36_17  CAP17  1
    R36_18  COST  8.83998230181
    R36_18  BAL4_18  0.944428120951
    R36_18  BAL11_18  0.894471543874
    R36_18  BAL18_18  0.54957227716
    R36_18  BAL21_18  0.549408682655
    R36_18  BAL22_18  0.730546780218
    R36_18  BAL23_18  0.391377183922
    R36_18  BAL26_18  0.890036102295
    R36_18  CAP18  1
    R36_19  COST  8.83998230181
    R36_19  BAL4_19  0.944428120951
    R36_19  BAL11_19  0.894471543874
    R36_19  BAL18_19  0.54957227716
    R36_19  BAL21_19  0.549408682655
    R36_19  BAL22_19  0.730546780218
    R36_19  BAL23_19  0.391377183922
    R36_19  BAL26_19  0.890036102295
    R36_19  CAP19  1
    R36_20  COST  8.83998230181
    R36_20  BAL4_20  0.944428120951
    R36_20  BAL11_20  0.894471543874
    R36_20  BAL18_20  0.54957227716
    R36_20  BAL21_20  0.549408682655
    R36_20  BAL22_20  0.730546780218
    R36_20  BAL23_20  0.391377183922
    R36_20  BAL26_20  0.890036102295
    R36_20  CAP20  1
    R36_21  COST  8.83998230181
    R36_21  BAL4_21  0.944428120951
    R36_21  BAL11_21  0.894471543874
    R36_21  BAL18_21  0.54957227716
    R36_21  BAL21_21  0.549408682655
    R36_21  BAL22_21  0.730546780218
    R36_21  BAL23_21  0.391377183922
    R36_21  BAL26_21  0.890036102295
    R36_21  CAP21  1
    R36_22  COST  8.83998230181
    R36_22  BAL4_22  0.944428120951
    R36_22  BAL11_22  0.894471543874
    R36_22  BAL18_22  0.54957227716
    R36_22  BAL21_22  0.549408682655
    R36_22  BAL22_22  0.730546780218
    R36_22  BAL23_22  0.391377183922
    R36_22  BAL26_22  0.890036102295
    R36_22  CAP22  1
    R36_23  COST  8.83998230181
    R36_23  BAL4_23  0.944428120951
    R36_23  BAL11_23  0.894471543874
    R36_23  BAL18_23  0.54957227716
    R36_23  BAL21_23  0.549408682655
    R36_23  BAL22_23  0.730546780218
    R36_23  BAL23_23  0.391377183922
    R36_23  BAL26_23  0.890036102295
    R36_23  CAP23  1
    R36_24  COST  8.83998230181
    R36_24  BAL4_24  0.944428120951
    R36_24  BAL11_24  0.894471543874
    R36_24  BAL18_24  0.54957227716
    R36_24  BAL21_24  0.549408682655
    R36_24  BAL22_24  0.730546780218
    R36_24  BAL23_24  0.391377183922
    R36_24  BAL26_24  0.890036102295
    R36_24  CAP24  1
    R36_25  COST  8.83998230181
    R36_25  BAL4_25  0.944428120951
    R36_25  BAL11_25  0.894471543874
    R36_25  BAL18_25  0.54957227716
    R36_25  BAL21_25  0.549408682655
    R36_25  BAL22_25  0.730546780218
    R36_25  BAL23_25  0.391377183922
    R36_25  BAL26_25  0.890036102295
    R36_25  CAP25  1
    R36_26  COST  8.83998230181
    R36_26  BAL4_26  0.944428120951
    R36_26  BAL11_26  0.894471543874
    R36_26  BAL18_26  0.54957227716
    R36_26  BAL21_26  0.549408682655
    R36_26  BAL22_26  0.730546780218
    R36_26  BAL23_26  0.391377183922
    R36_26  BAL26_26  0.890036102295
    R36_26  CAP26  1
    R36_27  COST  8.83998230181
    R36_27  BAL4_27  0.944428120951
    R36_27  BAL11_27  0.894471543874
    R36_27  BAL18_27  0.54957227716
    R36_27  BAL21_27  0.549408682655
    R36_27  BAL22_27  0.730546780218
    R36_27  BAL23_27  0.391377183922
    R36_27  BAL26_27  0.890036102295
    R36_27  CAP27  1
    R36_28  COST  8.83998230181
    R36_28  BAL4_28  0.944428120951
    R36_28  BAL11_28  0.894471543874
    R36_28  BAL18_28  0.54957227716
    R36_28  BAL21_28  0.549408682655
    R36_28  BAL22_28  0.730546780218
    R36_28  BAL23_28  0.391377183922
    R36_28  BAL26_28  0.890036102295
    R36_28  CAP28  1
    R36_29  COST  8.83998230181
    R36_29  BAL4_29  0.944428120951
    R36_29  BAL11_29  0.894471543874
    R36_29  BAL18_29  0.54957227716
    R36_29  BAL21_29  0.549408682655
    R36_29  BAL22_29  0.730546780218
    R36_29  BAL23_29  0.391377183922
    R36_29  BAL26_29  0.890036102295
    R36_29  CAP29  1
    R36_30  COST  8.83998230181
    R36_30  BAL4_30  0.944428120951
    R36_30  BAL11_30  0.894471543874
    R36_30  BAL18_30  0.54957227716
    R36_30  BAL21_30  0.549408682655
    R36_30  BAL22_30  0.730546780218
    R36_30  BAL23_30  0.391377183922
    R36_30  BAL26_30  0.890036102295
    R36_30  CAP30  1
    R36_31  COST  8.83998230181
    R36_31  BAL4_31  0.944428120951
    R36_31  BAL11_31  0.894471543874
    R36_31  BAL18_31  0.54957227716
    R36_31  BAL21_31  0.549408682655
    R36_31  BAL22_31  0.730546780218
    R36_31  BAL23_31  0.391377183922
    R36_31  BAL26_31  0.890036102295
    R36_31  CAP31  1
    R36_32  COST  8.83998230181
    R36_32  BAL4_32  0.944428120951
    R36_32  BAL11_32  0.894471543874
    R36_32  BAL18_32  0.54957227716
    R36_32  BAL21_32  0.549408682655
    R36_32  BAL22_32  0.730546780218
    R36_32  BAL23_32  0.391377183922
    R36_32  BAL26_32  0.890036102295
    R36_32  CAP32  1
    R36_33  COST  8.83998230181
    R36_33  BAL4_33  0.944428120951
    R36_33  BAL11_33  0.894471543874
    R36_33  BAL18_33  0.54957227716
    R36_33  BAL21_33  0.549408682655
    R36_33  BAL22_33  0.730546780218
    R36_33  BAL23_33  0.391377183922
    R36_33  BAL26_33  0.890036102295
    R36_33  CAP33  1
    R36_34  COST  8.83998230181
    R36_34  BAL4_34  0.944428120951
    R36_34  BAL11_34  0.894471543874
    R36_34  BAL18_34  0.54957227716
    R36_34  BAL21_34  0.549408682655
    R36_34  BAL22_34  0.730546780218
    R36_34  BAL23_34  0.391377183922
    R36_34  BAL26_34  0.890036102295
    R36_34  CAP34  1
    R36_35  COST  8.83998230181
    R36_35  BAL4_35  0.944428120951
    R36_35  BAL11_35  0.894471543874
    R36_35  BAL18_35  0.54957227716
    R36_35  BAL21_35  0.549408682655
    R36_35  BAL22_35  0.730546780218
    R36_35  BAL23_35  0.391377183922
    R36_35  BAL26_35  0.890036102295
    R36_35  CAP35  1
    R37_0  COST  7.69464396262
    R37_0  BAL1_0  0.431601995253
    R37_0  BAL2_0  0.338665546497
    R37_0  BAL4_0  0.485548368138
    R37_0  BAL8_0  0.183633326974
    R37_0  BAL12_0  0.592281550268
    R37_0  BAL14_0  0.429869405476
    R37_0  BAL15_0  0.426429169418
    R37_0  BAL17_0  0.909883875706
    R37_0  BAL18_0  0.581528025464
    R37_0  BAL19_0  0.533098859586
    R37_0  BAL22_0  0.903206981666
    R37_0  BAL29_0  0.593285879238
    R37_0  CAP0  1
    R37_1  COST  7.69464396262
    R37_1  BAL1_1  0.431601995253
    R37_1  BAL2_1  0.338665546497
    R37_1  BAL4_1  0.485548368138
    R37_1  BAL8_1  0.183633326974
    R37_1  BAL12_1  0.592281550268
    R37_1  BAL14_1  0.429869405476
    R37_1  BAL15_1  0.426429169418
    R37_1  BAL17_1  0.909883875706
    R37_1  BAL18_1  0.581528025464
    R37_1  BAL19_1  0.533098859586
    R37_1  BAL22_1  0.903206981666
    R37_1  BAL29_1  0.593285879238
    R37_1  CAP1  1
    R37_2  COST  7.69464396262
    R37_2  BAL1_2  0.431601995253
    R37_2  BAL2_2  0.338665546497
    R37_2  BAL4_2  0.485548368138
    R37_2  BAL8_2  0.183633326974
    R37_2  BAL12_2  0.592281550268
    R37_2  BAL14_2  0.429869405476
    R37_2  BAL15_2  0.426429169418
    R37_2  BAL17_2  0.909883875706
    R37_2  BAL18_2  0.581528025464
    R37_2  BAL19_2  0.533098859586
    R37_2  BAL22_2  0.903206981666
    R37_2  BAL29_2  0.593285879238
    R37_2  CAP2  1
    R37_3  COST  7.69464396262
    R37_3  BAL1_3  0.431601995253
    R37_3  BAL2_3  0.338665546497
    R37_3  BAL4_3  0.485548368138
    R37_3  BAL8_3  0.183633326974
    R37_3  BAL12_3  0.592281550268
    R37_3  BAL14_3  0.429869405476
    R37_3  BAL15_3  0.426429169418
    R37_3  BAL17_3  0.909883875706
    R37_3  BAL18_3  0.581528025464
    R37_3  BAL19_3  0.533098859586
    R37_3  BAL22_3  0.903206981666
    R37_3  BAL29_3  0.593285879238
    R37_3  CAP3  1
    R37_4  COST  7.69464396262
    R37_4  BAL1_4  0.431601995253
    R37_4  BAL2_4  0.338665546497
    R37_4  BAL4_4  0.485548368138
    R37_4  BAL8_4  0.183633326974
    R37_4  BAL12_4  0.592281550268
    R37_4  BAL14_4  0.429869405476
    R37_4  BAL15_4  0.426429169418
    R37_4  BAL17_4  0.909883875706
    R37_4  BAL18_4  0.581528025464
    R37_4  BAL19_4  0.533098859586
    R37_4  BAL22_4  0.903206981666
    R37_4  BAL29_4  0.593285879238
    R37_4  CAP4  1
    R37_5  COST  7.69464396262
    R37_5  BAL1_5  0.431601995253
    R37_5  BAL2_5  0.338665546497
    R37_5  BAL4_5  0.485548368138
    R37_5  BAL8_5  0.183633326974
    R37_5  BAL12_5  0.592281550268
    R37_5  BAL14_5  0.429869405476
    R37_5  BAL15_5  0.426429169418
    R37_5  BAL17_5  0.909883875706
    R37_5  BAL18_5  0.581528025464
    R37_5  BAL19_5  0.533098859586
    R37_5  BAL22_5  0.903206981666
    R37_5  BAL29_5  0.593285879238
    R37_5  CAP5  1
    R37_6  COST  7.69464396262
    R37_6  BAL1_6  0.431601995253
    R37_6  BAL2_6  0.338665546497
    R37_6  BAL4_6  0.485548368138
    R37_6  BAL8_6  0.183633326974
    R37_6  BAL12_6  0.592281550268
    R37_6  BAL14_6  0.429869405476
    R37_6  BAL15_6  0.426429169418
    R37_6  BAL17_6  0.909883875706
    R37_6  BAL18_6  0.581528025464
    R37_6  BAL19_6  0.533098859586
    R37_6  BAL22_6  0.903206981666
    R37_6  BAL29_6  0.593285879238
    R37_6  CAP6  1
    R37_7  COST  7.69464396262
    R37_7  BAL1_7  0.431601995253
    R37_7  BAL2_7  0.338665546497
    R37_7  BAL4_7  0.485548368138
    R37_7  BAL8_7  0.183633326974
    R37_7  BAL12_7  0.592281550268
    R37_7  BAL14_7  0.429869405476
    R37_7  BAL15_7  0.426429169418
    R37_7  BAL17_7  0.909883875706
    R37_7  BAL18_7  0.581528025464
    R37_7  BAL19_7  0.533098859586
    R37_7  BAL22_7  0.903206981666
    R37_7  BAL29_7  0.593285879238
    R37_7  CAP7  1
    R37_8  COST  7.69464396262
    R37_8  BAL1_8  0.431601995253
    R37_8  BAL2_8  0.338665546497
    R37_8  BAL4_8  0.485548368138
    R37_8  BAL8_8  0.183633326974
    R37_8  BAL12_8  0.592281550268
    R37_8  BAL14_8  0.429869405476
    R37_8  BAL15_8  0.426429169418
    R37_8  BAL17_8  0.909883875706
    R37_8  BAL18_8  0.581528025464
    R37_8  BAL19_8  0.533098859586
    R37_8  BAL22_8  0.903206981666
    R37_8  BAL29_8  0.593285879238
    R37_8  CAP8  1
    R37_9  COST  7.69464396262
    R37_9  BAL1_9  0.431601995253
    R37_9  BAL2_9  0.338665546497
    R37_9  BAL4_9  0.485548368138
    R37_9  BAL8_9  0.183633326974
    R37_9  BAL12_9  0.592281550268
    R37_9  BAL14_9  0.429869405476
    R37_9  BAL15_9  0.426429169418
    R37_9  BAL17_9  0.909883875706
    R37_9  BAL18_9  0.581528025464
    R37_9  BAL19_9  0.533098859586
    R37_9  BAL22_9  0.903206981666
    R37_9  BAL29_9  0.593285879238
    R37_9  CAP9  1
    R37_10  COST  7.69464396262
    R37_10  BAL1_10  0.431601995253
    R37_10  BAL2_10  0.338665546497
    R37_10  BAL4_10  0.485548368138
    R37_10  BAL8_10  0.183633326974
    R37_10  BAL12_10  0.592281550268
    R37_10  BAL14_10  0.429869405476
    R37_10  BAL15_10  0.426429169418
    R37_10  BAL17_10  0.909883875706
    R37_10  BAL18_10  0.581528025464
    R37_10  BAL19_10  0.533098859586
    R37_10  BAL22_10  0.903206981666
    R37_10  BAL29_10  0.593285879238
    R37_10  CAP10  1
    R37_11  COST  7.69464396262
    R37_11  BAL1_11  0.431601995253
    R37_11  BAL2_11  0.338665546497
    R37_11  BAL4_11  0.485548368138
    R37_11  BAL8_11  0.183633326974
    R37_11  BAL12_11  0.592281550268
    R37_11  BAL14_11  0.429869405476
    R37_11  BAL15_11  0.426429169418
    R37_11  BAL17_11  0.909883875706
    R37_11  BAL18_11  0.581528025464
    R37_11  BAL19_11  0.533098859586
    R37_11  BAL22_11  0.903206981666
    R37_11  BAL29_11  0.593285879238
    R37_11  CAP11  1
    R37_12  COST  7.69464396262
    R37_12  BAL1_12  0.431601995253
    R37_12  BAL2_12  0.338665546497
    R37_12  BAL4_12  0.485548368138
    R37_12  BAL8_12  0.183633326974
    R37_12  BAL12_12  0.592281550268
    R37_12  BAL14_12  0.429869405476
    R37_12  BAL15_12  0.426429169418
    R37_12  BAL17_12  0.909883875706
    R37_12  BAL18_12  0.581528025464
    R37_12  BAL19_12  0.533098859586
    R37_12  BAL22_12  0.903206981666
    R37_12  BAL29_12  0.593285879238
    R37_12  CAP12  1
    R37_13  COST  7.69464396262
    R37_13  BAL1_13  0.431601995253
    R37_13  BAL2_13  0.338665546497
    R37_13  BAL4_13  0.485548368138
    R37_13  BAL8_13  0.183633326974
    R37_13  BAL12_13  0.592281550268
    R37_13  BAL14_13  0.429869405476
    R37_13  BAL15_13  0.426429169418
    R37_13  BAL17_13  0.909883875706
    R37_13  BAL18_13  0.581528025464
    R37_13  BAL19_13  0.533098859586
    R37_13  BAL22_13  0.903206981666
    R37_13  BAL29_13  0.593285879238
    R37_13  CAP13  1
    R37_14  COST  7.69464396262
    R37_14  BAL1_14  0.431601995253
    R37_14  BAL2_14  0.338665546497
    R37_14  BAL4_14  0.485548368138
    R37_14  BAL8_14  0.183633326974
    R37_14  BAL12_14  0.592281550268
    R37_14  BAL14_14  0.429869405476
    R37_14  BAL15_14  0.426429169418
    R37_14  BAL17_14  0.909883875706
    R37_14  BAL18_14  0.581528025464
    R37_14  BAL19_14  0.533098859586
    R37_14  BAL22_14  0.903206981666
    R37_14  BAL29_14  0.593285879238
    R37_14  CAP14  1
    R37_15  COST  7.69464396262
    R37_15  BAL1_15  0.431601995253
    R37_15  BAL2_15  0.338665546497
    R37_15  BAL4_15  0.485548368138
    R37_15  BAL8_15  0.183633326974
    R37_15  BAL12_15  0.592281550268
    R37_15  BAL14_15  0.429869405476
    R37_15  BAL15_15  0.426429169418
    R37_15  BAL17_15  0.909883875706
    R37_15  BAL18_15  0.581528025464
    R37_15  BAL19_15  0.533098859586
    R37_15  BAL22_15  0.903206981666
    R37_15  BAL29_15  0.593285879238
    R37_15  CAP15  1
    R37_16  COST  7.69464396262
    R37_16  BAL1_16  0.431601995253
    R37_16  BAL2_16  0.338665546497
    R37_16  BAL4_16  0.485548368138
    R37_16  BAL8_16  0.183633326974
    R37_16  BAL12_16  0.592281550268
    R37_16  BAL14_16  0.429869405476
    R37_16  BAL15_16  0.426429169418
    R37_16  BAL17_16  0.909883875706
    R37_16  BAL18_16  0.581528025464
    R37_16  BAL19_16  0.533098859586
    R37_16  BAL22_16  0.903206981666
    R37_16  BAL29_16  0.593285879238
    R37_16  CAP16  1
    R37_17  COST  7.69464396262
    R37_17  BAL1_17  0.431601995253
    R37_17  BAL2_17  0.338665546497
    R37_17  BAL4_17  0.485548368138
    R37_17  BAL8_17  0.183633326974
    R37_17  BAL12_17  0.592281550268
    R37_17  BAL14_17  0.429869405476
    R37_17  BAL15_17  0.426429169418
    R37_17  BAL17_17  0.909883875706
    R37_17  BAL18_17  0.581528025464
    R37_17  BAL19_17  0.533098859586
    R37_17  BAL22_17  0.903206981666
    R37_17  BAL29_17  0.593285879238
    R37_17  CAP17  1
    R37_18  COST  7.69464396262
    R37_18  BAL1_18  0.431601995253
    R37_18  BAL2_18  0.338665546497
    R37_18  BAL4_18  0.485548368138
    R37_18  BAL8_18  0.183633326974
    R37_18  BAL12_18  0.592281550268
    R37_18  BAL14_18  0.429869405476
    R37_18  BAL15_18  0.426429169418
    R37_18  BAL17_18  0.909883875706
    R37_18  BAL18_18  0.581528025464
    R37_18  BAL19_18  0.533098859586
    R37_18  BAL22_18  0.903206981666
    R37_18  BAL29_18  0.593285879238
    R37_18  CAP18  1
    R37_19  COST  7.69464396262
    R37_19  BAL1_19  0.431601995253
    R37_19  BAL2_19  0.338665546497
    R37_19  BAL4_19  0.485548368138
    R37_19  BAL8_19  0.183633326974
    R37_19  BAL12_19  0.592281550268
    R37_19  BAL14_19  0.429869405476
    R37_19  BAL15_19  0.426429169418
    R37_19  BAL17_19  0.909883875706
    R37_19  BAL18_19  0.581528025464
    R37_19  BAL19_19  0.533098859586
    R37_19  BAL22_19  0.903206981666
    R37_19  BAL29_19  0.593285879238
    R37_19  CAP19  1
    R37_20  COST  7.69464396262
    R37_20  BAL1_20  0.431601995253
    R37_20  BAL2_20  0.338665546497
    R37_20  BAL4_20  0.485548368138
    R37_20  BAL8_20  0.183633326974
    R37_20  BAL12_20  0.592281550268
    R37_20  BAL14_20  0.429869405476
    R37_20  BAL15_20  0.426429169418
    R37_20  BAL17_20  0.909883875706
    R37_20  BAL18_20  0.581528025464
    R37_20  BAL19_20  0.533098859586
    R37_20  BAL22_20  0.903206981666
    R37_20  BAL29_20  0.593285879238
    R37_20  CAP20  1
    R37_21  COST  7.69464396262
    R37_21  BAL1_21  0.431601995253
    R37_21  BAL2_21  0.338665546497
    R37_21  BAL4_21  0.485548368138
    R37_21  BAL8_21  0.183633326974
    R37_21  BAL12_21  0.592281550268
    R37_21  BAL14_21  0.429869405476
    R37_21  BAL15_21  0.426429169418
    R37_21  BAL17_21  0.909883875706
    R37_21  BAL18_21  0.581528025464
    R37_21  BAL19_21  0.533098859586
    R37_21  BAL22_21  0.903206981666
    R37_21  BAL29_21  0.593285879238
    R37_21  CAP21  1
    R37_22  COST  7.69464396262
    R37_22  BAL1_22  0.431601995253
    R37_22  BAL2_22  0.338665546497
    R37_22  BAL4_22  0.485548368138
    R37_22  BAL8_22  0.183633326974
    R37_22  BAL12_22  0.592281550268
    R37_22  BAL14_22  0.429869405476
    R37_22  BAL15_22  0.426429169418
    R37_22  BAL17_22  0.909883875706
    R37_22  BAL18_22  0.581528025464
    R37_22  BAL19_22  0.533098859586
    R37_22  BAL22_22  0.903206981666
    R37_22  BAL29_22  0.593285879238
    R37_22  CAP22  1
    R37_23  COST  7.69464396262
    R37_23  BAL1_23  0.431601995253
    R37_23  BAL2_23  0.338665546497
    R37_23  BAL4_23  0.485548368138
    R37_23  BAL8_23  0.183633326974
    R37_23  BAL12_23  0.592281550268
    R37_23  BAL14_23  0.429869405476
    R37_23  BAL15_23  0.426429169418
    R37_23  BAL17_23  0.909883875706
    R37_23  BAL18_23  0.581528025464
    R37_23  BAL19_23  0.533098859586
    R37_23  BAL22_23  0.903206981666
    R37_23  BAL29_23  0.593285879238
    R37_23  CAP23  1
    R37_24  COST  7.69464396262
    R37_24  BAL1_24  0.431601995253
    R37_24  BAL2_24  0.338665546497
    R37_24  BAL4_24  0.485548368138
    R37_24  BAL8_24  0.183633326974
    R37_24  BAL12_24  0.592281550268
    R37_24  BAL14_24  0.429869405476
    R37_24  BAL15_24  0.426429169418
    R37_24  BAL17_24  0.909883875706
    R37_24  BAL18_24  0.581528025464
    R37_24  BAL19_24  0.533098859586
    R37_24  BAL22_24  0.903206981666
    R37_24  BAL29_24  0.593285879238
    R37_24  CAP24  1
    R37_25  COST  7.69464396262
    R37_25  BAL1_25  0.431601995253
    R37_25  BAL2_25  0.338665546497
    R37_25  BAL4_25  0.485548368138
    R37_25  BAL8_25  0.183633326974
    R37_25  BAL12_25  0.592281550268
    R37_25  BAL14_25  0.429869405476
    R37_25  BAL15_25  0.426429169418
    R37_25  BAL17_25  0.909883875706
    R37_25  BAL18_25  0.581528025464
    R37_25  BAL19_25  0.533098859586
    R37_25  BAL22_25  0.903206981666
    R37_25  BAL29_25  0.593285879238
    R37_25  CAP25  1
    R37_26  COST  7.69464396262
    R37_26  BAL1_26  0.431601995253
    R37_26  BAL2_26  0.338665546497
    R37_26  BAL4_26  0.485548368138
    R37_26  BAL8_26  0.183633326974
    R37_26  BAL12_26  0.592281550268
    R37_26  BAL14_26  0.429869405476
    R37_26  BAL15_26  0.426429169418
    R37_26  BAL17_26  0.909883875706
    R37_26  BAL18_26  0.581528025464
    R37_26  BAL19_26  0.533098859586
    R37_26  BAL22_26  0.903206981666
    R37_26  BAL29_26  0.593285879238
    R37_26  CAP26  1
    R37_27  COST  7.69464396262
    R37_27  BAL1_27  0.431601995253
    R37_27  BAL2_27  0.338665546497
    R37_27  BAL4_27  0.485548368138
    R37_27  BAL8_27  0.183633326974
    R37_27  BAL12_27  0.592281550268
    R37_27  BAL14_27  0.429869405476
    R37_27  BAL15_27  0.426429169418
    R37_27  BAL17_27  0.909883875706
    R37_27  BAL18_27  0.581528025464
    R37_27  BAL19_27  0.533098859586
    R37_27  BAL22_27  0.903206981666
    R37_27  BAL29_27  0.593285879238
    R37_27  CAP27  1
    R37_28  COST  7.69464396262
    R37_28  BAL1_28  0.431601995253
    R37_28  BAL2_28  0.338665546497
    R37_28  BAL4_28  0.485548368138
    R37_28  BAL8_28  0.183633326974
    R37_28  BAL12_28  0.592281550268
    R37_28  BAL14_28  0.429869405476
    R37_28  BAL15_28  0.426429169418
    R37_28  BAL17_28  0.909883875706
    R37_28  BAL18_28  0.581528025464
    R37_28  BAL19_28  0.533098859586
    R37_28  BAL22_28  0.903206981666
    R37_28  BAL29_28  0.593285879238
    R37_28  CAP28  1
    R37_29  COST  7.69464396262
    R37_29  BAL1_29  0.431601995253
    R37_29  BAL2_29  0.338665546497
    R37_29  BAL4_29  0.485548368138
    R37_29  BAL8_29  0.183633326974
    R37_29  BAL12_29  0.592281550268
    R37_29  BAL14_29  0.429869405476
    R37_29  BAL15_29  0.426429169418
    R37_29  BAL17_29  0.909883875706
    R37_29  BAL18_29  0.581528025464
    R37_29  BAL19_29  0.533098859586
    R37_29  BAL22_29  0.903206981666
    R37_29  BAL29_29  0.593285879238
    R37_29  CAP29  1
    R37_30  COST  7.69464396262
    R37_30  BAL1_30  0.431601995253
    R37_30  BAL2_30  0.338665546497
    R37_30  BAL4_30  0.485548368138
    R37_30  BAL8_30  0.183633326974
    R37_30  BAL12_30  0.592281550268
    R37_30  BAL14_30  0.429869405476
    R37_30  BAL15_30  0.426429169418
    R37_30  BAL17_30  0.909883875706
    R37_30  BAL18_30  0.581528025464
    R37_30  BAL19_30  0.533098859586
    R37_30  BAL22_30  0.903206981666
    R37_30  BAL29_30  0.593285879238
    R37_30  CAP30  1
    R37_31  COST  7.69464396262
    R37_31  BAL1_31  0.431601995253
    R37_31  BAL2_31  0.338665546497
    R37_31  BAL4_31  0.485548368138
    R37_31  BAL8_31  0.183633326974
    R37_31  BAL12_31  0.592281550268
    R37_31  BAL14_31  0.429869405476
    R37_31  BAL15_31  0.426429169418
    R37_31  BAL17_31  0.909883875706
    R37_31  BAL18_31  0.581528025464
    R37_31  BAL19_31  0.533098859586
    R37_31  BAL22_31  0.903206981666
    R37_31  BAL29_31  0.593285879238
    R37_31  CAP31  1
    R37_32  COST  7.69464396262
    R37_32  BAL1_32  0.431601995253
    R37_32  BAL2_32  0.338665546497
    R37_32  BAL4_32  0.485548368138
    R37_32  BAL8_32  0.183633326974
    R37_32  BAL12_32  0.592281550268
    R37_32  BAL14_32  0.429869405476
    R37_32  BAL15_32  0.426429169418
    R37_32  BAL17_32  0.909883875706
    R37_32  BAL18_32  0.581528025464
    R37_32  BAL19_32  0.533098859586
    R37_32  BAL22_32  0.903206981666
    R37_32  BAL29_32  0.593285879238
    R37_32  CAP32  1
    R37_33  COST  7.69464396262
    R37_33  BAL1_33  0.431601995253
    R37_33  BAL2_33  0.338665546497
    R37_33  BAL4_33  0.485548368138
    R37_33  BAL8_33  0.183633326974
    R37_33  BAL12_33  0.592281550268
    R37_33  BAL14_33  0.429869405476
    R37_33  BAL15_33  0.426429169418
    R37_33  BAL17_33  0.909883875706
    R37_33  BAL18_33  0.581528025464
    R37_33  BAL19_33  0.533098859586
    R37_33  BAL22_33  0.903206981666
    R37_33  BAL29_33  0.593285879238
    R37_33  CAP33  1
    R37_34  COST  7.69464396262
    R37_34  BAL1_34  0.431601995253
    R37_34  BAL2_34  0.338665546497
    R37_34  BAL4_34  0.485548368138
    R37_34  BAL8_34  0.183633326974
    R37_34  BAL12_34  0.592281550268
    R37_34  BAL14_34  0.429869405476
    R37_34  BAL15_34  0.426429169418
    R37_34  BAL17_34  0.909883875706
    R37_34  BAL18_34  0.581528025464
    R37_34  BAL19_34  0.533098859586
    R37_34  BAL22_34  0.903206981666
    R37_34  BAL29_34  0.593285879238
    R37_34  CAP34  1
    R37_35  COST  7.69464396262
    R37_35  BAL1_35  0.431601995253
    R37_35  BAL2_35  0.338665546497
    R37_35  BAL4_35  0.485548368138
    R37_35  BAL8_35  0.183633326974
    R37_35  BAL12_35  0.592281550268
    R37_35  BAL14_35  0.429869405476
    R37_35  BAL15_35  0.426429169418
    R37_35  BAL17_35  0.909883875706
    R37_35  BAL18_35  0.581528025464
    R37_35  BAL19_35  0.533098859586
    R37_35  BAL22_35  0.903206981666
    R37_35  BAL29_35  0.593285879238
    R37_35  CAP35  1
    R38_0  COST  6.52025795028
    R38_0  BAL1_0  0.248870534985
    R38_0  BAL3_0  0.16518243822
    R38_0  BAL8_0  0.856669260167
    R38_0  BAL13_0  0.166530193679
    R38_0  BAL18_0  0.300756212104
    R38_0  BAL23_0  0.809478501019
    R38_0  BAL25_0  0.945131374393
    R38_0  BAL28_0  0.357690839727
    R38_0  CAP0  1
    R38_1  COST  6.52025795028
    R38_1  BAL1_1  0.248870534985
    R38_1  BAL3_1  0.16518243822
    R38_1  BAL8_1  0.856669260167
    R38_1  BAL13_1  0.166530193679
    R38_1  BAL18_1  0.300756212104
    R38_1  BAL23_1  0.809478501019
    R38_1  BAL25_1  0.945131374393
    R38_1  BAL28_1  0.357690839727
    R38_1  CAP1  1
    R38_2  COST  6.52025795028
    R38_2  BAL1_2  0.248870534985
    R38_2  BAL3_2  0.16518243822
    R38_2  BAL8_2  0.856669260167
    R38_2  BAL13_2  0.166530193679
    R38_2  BAL18_2  0.300756212104
    R38_2  BAL23_2  0.809478501019
    R38_2  BAL25_2  0.945131374393
    R38_2  BAL28_2  0.357690839727
    R38_2  CAP2  1
    R38_3  COST  6.52025795028
    R38_3  BAL1_3  0.248870534985
    R38_3  BAL3_3  0.16518243822
    R38_3  BAL8_3  0.856669260167
    R38_3  BAL13_3  0.166530193679
    R38_3  BAL18_3  0.300756212104
    R38_3  BAL23_3  0.809478501019
    R38_3  BAL25_3  0.945131374393
    R38_3  BAL28_3  0.357690839727
    R38_3  CAP3  1
    R38_4  COST  6.52025795028
    R38_4  BAL1_4  0.248870534985
    R38_4  BAL3_4  0.16518243822
    R38_4  BAL8_4  0.856669260167
    R38_4  BAL13_4  0.166530193679
    R38_4  BAL18_4  0.300756212104
    R38_4  BAL23_4  0.809478501019
    R38_4  BAL25_4  0.945131374393
    R38_4  BAL28_4  0.357690839727
    R38_4  CAP4  1
    R38_5  COST  6.52025795028
    R38_5  BAL1_5  0.248870534985
    R38_5  BAL3_5  0.16518243822
    R38_5  BAL8_5  0.856669260167
    R38_5  BAL13_5  0.166530193679
    R38_5  BAL18_5  0.300756212104
    R38_5  BAL23_5  0.809478501019
    R38_5  BAL25_5  0.945131374393
    R38_5  BAL28_5  0.357690839727
    R38_5  CAP5  1
    R38_6  COST  6.52025795028
    R38_6  BAL1_6  0.248870534985
    R38_6  BAL3_6  0.16518243822
    R38_6  BAL8_6  0.856669260167
    R38_6  BAL13_6  0.166530193679
    R38_6  BAL18_6  0.300756212104
    R38_6  BAL23_6  0.809478501019
    R38_6  BAL25_6  0.945131374393
    R38_6  BAL28_6  0.357690839727
    R38_6  CAP6  1
    R38_7  COST  6.52025795028
    R38_7  BAL1_7  0.248870534985
    R38_7  BAL3_7  0.16518243822
    R38_7  BAL8_7  0.856669260167
    R38_7  BAL13_7  0.166530193679
    R38_7  BAL18_7  0.300756212104
    R38_7  BAL23_7  0.809478501019
    R38_7  BAL25_7  0.945131374393
    R38_7  BAL28_7  0.357690839727
    R38_7  CAP7  1
    R38_8  COST  6.52025795028
    R38_8  BAL1_8  0.248870534985
    R38_8  BAL3_8  0.16518243822
    R38_8  BAL8_8  0.856669260167
    R38_8  BAL13_8  0.166530193679
    R38_8  BAL18_8  0.300756212104
    R38_8  BAL23_8  0.809478501019
    R38_8  BAL25_8  0.945131374393
    R38_8  BAL28_8  0.357690839727
    R38_8  CAP8  1
    R38_9  COST  6.52025795028
    R38_9  BAL1_9  0.248870534985
    R38_9  BAL3_9  0.16518243822
    R38_9  BAL8_9  0.856669260167
    R38_9  BAL13_9  0.166530193679
    R38_9  BAL18_9  0.300756212104
    R38_9  BAL23_9  0.809478501019
    R38_9  BAL25_9  0.945131374393
    R38_9  BAL28_9  0.357690839727
    R38_9  CAP9  1
    R38_10  COST  6.52025795028
    R38_10  BAL1_10  0.248870534985
    R38_10  BAL3_10  0.16518243822
    R38_10  BAL8_10  0.856669260167
    R38_10  BAL13_10  0.166530193679
    R38_10  BAL18_10  0.300756212104
    R38_10  BAL23_10  0.809478501019
    R38_10  BAL25_10  0.945131374393
    R38_10  BAL28_10  0.357690839727
    R38_10  CAP10  1
    R38_11  COST  6.52025795028
    R38_11  BAL1_11  0.248870534985
    R38_11  BAL3_11  0.16518243822
    R38_11  BAL8_11  0.856669260167
    R38_11  BAL13_11  0.166530193679
    R38_11  BAL18_11  0.300756212104
    R38_11  BAL23_11  0.809478501019
    R38_11  BAL25_11  0.945131374393
    R38_11  BAL28_11  0.357690839727
    R38_11  CAP11  1
    R38_12  COST  6.52025795028
    R38_12  BAL1_12  0.248870534985
    R38_12  BAL3_12  0.16518243822
    R38_12  BAL8_12  0.856669260167
    R38_12  BAL13_12  0.166530193679
    R38_12  BAL18_12  0.300756212104
    R38_12  BAL23_12  0.809478501019
    R38_12  BAL25_12  0.945131374393
    R38_12  BAL28_12  0.357690839727
    R38_12  CAP12  1
    R38_13  COST  6.52025795028
    R38_13  BAL1_13  0.248870534985
    R38_13  BAL3_13  0.16518243822
    R38_13  BAL8_13  0.856669260167
    R38_13  BAL13_13  0.166530193679
    R38_13  BAL18_13  0.300756212104
    R38_13  BAL23_13  0.809478501019
    R38_13  BAL25_13  0.945131374393
    R38_13  BAL28_13  0.357690839727
    R38_13  CAP13  1
    R38_14  COST  6.52025795028
    R38_14  BAL1_14  0.248870534985
    R38_14  BAL3_14  0.16518243822
    R38_14  BAL8_14  0.856669260167
    R38_14  BAL13_14  0.166530193679
    R38_14  BAL18_14  0.300756212104
    R38_14  BAL23_14  0.809478501019
    R38_14  BAL25_14  0.945131374393
    R38_14  BAL28_14  0.357690839727
    R38_14  CAP14  1
    R38_15  COST  6.52025795028
    R38_15  BAL1_15  0.248870534985
    R38_15  BAL3_15  0.16518243822
    R38_15  BAL8_15  0.856669260167
    R38_15  BAL13_15  0.166530193679
    R38_15  BAL18_15  0.300756212104
    R38_15  BAL23_15  0.809478501019
    R38_15  BAL25_15  0.945131374393
    R38_15  BAL28_15  0.357690839727
    R38_15  CAP15  1
    R38_16  COST  6.52025795028
    R38_16  BAL1_16  0.248870534985
    R38_16  BAL3_16  0.16518243822
    R38_16  BAL8_16  0.856669260167
    R38_16  BAL13_16  0.166530193679
    R38_16  BAL18_16  0.300756212104
    R38_16  BAL23_16  0.809478501019
    R38_16  BAL25_16  0.945131374393
    R38_16  BAL28_16  0.357690839727
    R38_16  CAP16  1
    R38_17  COST  6.52025795028
    R38_17  BAL1_17  0.248870534985
    R38_17  BAL3_17  0.16518243822
    R38_17  BAL8_17  0.856669260167
    R38_17  BAL13_17  0.166530193679
    R38_17  BAL18_17  0.300756212104
    R38_17  BAL23_17  0.809478501019
    R38_17  BAL25_17  0.945131374393
    R38_17  BAL28_17  0.357690839727
    R38_17  CAP17  1
    R38_18  COST  6.52025795028
    R38_18  BAL1_18  0.248870534985
    R38_18  BAL3_18  0.16518243822
    R38_18  BAL8_18  0.856669260167
    R38_18  BAL13_18  0.166530193679
    R38_18  BAL18_18  0.300756212104
    R38_18  BAL23_18  0.809478501019
    R38_18  BAL25_18  0.945131374393
    R38_18  BAL28_18  0.357690839727
    R38_18  CAP18  1
    R38_19  COST  6.52025795028
    R38_19  BAL1_19  0.248870534985
    R38_19  BAL3_19  0.16518243822
    R38_19  BAL8_19  0.856669260167
    R38_19  BAL13_19  0.166530193679
    R38_19  BAL18_19  0.300756212104
    R38_19  BAL23_19  0.809478501019
    R38_19  BAL25_19  0.945131374393
    R38_19  BAL28_19  0.357690839727
    R38_19  CAP19  1
    R38_20  COST  6.52025795028
    R38_20  BAL1_20  0.248870534985
    R38_20  BAL3_20  0.16518243822
    R38_20  BAL8_20  0.856669260167
    R38_20  BAL13_20  0.166530193679
    R38_20  BAL18_20  0.300756212104
    R38_20  BAL23_20  0.809478501019
    R38_20  BAL25_20  0.945131374393
    R38_20  BAL28_20  0.357690839727
    R38_20  CAP20  1
    R38_21  COST  6.52025795028
    R38_21  BAL1_21  0.248870534985
    R38_21  BAL3_21  0.16518243822
    R38_21  BAL8_21  0.856669260167
    R38_21  BAL13_21  0.166530193679
    R38_21  BAL18_21  0.300756212104
    R38_21  BAL23_21  0.809478501019
    R38_21  BAL25_21  0.945131374393
    R38_21  BAL28_21  0.357690839727
    R38_21  CAP21  1
    R38_22  COST  6.52025795028
    R38_22  BAL1_22  0.248870534985
    R38_22  BAL3_22  0.16518243822
    R38_22  BAL8_22  0.856669260167
    R38_22  BAL13_22  0.166530193679
    R38_22  BAL18_22  0.300756212104
    R38_22  BAL23_22  0.809478501019
    R38_22  BAL25_22  0.945131374393
    R38_22  BAL28_22  0.357690839727
    R38_22  CAP22  1
    R38_23  COST  6.52025795028
    R38_23  BAL1_23  0.248870534985
    R38_23  BAL3_23  0.16518243822
    R38_23  BAL8_23  0.856669260167
    R38_23  BAL13_23  0.166530193679
    R38_23  BAL18_23  0.300756212104
    R38_23  BAL23_23  0.809478501019
    R38_23  BAL25_23  0.945131374393
    R38_23  BAL28_23  0.357690839727
    R38_23  CAP23  1
    R38_24  COST  6.52025795028
    R38_24  BAL1_24  0.248870534985
    R38_24  BAL3_24  0.16518243822
    R38_24  BAL8_24  0.856669260167
    R38_24  BAL13_24  0.166530193679
    R38_24  BAL18_24  0.300756212104
    R38_24  BAL23_24  0.809478501019
    R38_24  BAL25_24  0.945131374393
    R38_24  BAL28_24  0.357690839727
    R38_24  CAP24  1
    R38_25  COST  6.52025795028
    R38_25  BAL1_25  0.248870534985
    R38_25  BAL3_25  0.16518243822
    R38_25  BAL8_25  0.856669260167
    R38_25  BAL13_25  0.166530193679
    R38_25  BAL18_25  0.300756212104
    R38_25  BAL23_25  0.809478501019
    R38_25  BAL25_25  0.945131374393
    R38_25  BAL28_25  0.357690839727
    R38_25  CAP25  1
    R38_26  COST  6.52025795028
    R38_26  BAL1_26  0.248870534985
    R38_26  BAL3_26  0.16518243822
    R38_26  BAL8_26  0.856669260167
    R38_26  BAL13_26  0.166530193679
    R38_26  BAL18_26  0.300756212104
    R38_26  BAL23_26  0.809478501019
    R38_26  BAL25_26  0.945131374393
    R38_26  BAL28_26  0.357690839727
    R38_26  CAP26  1
    R38_27  COST  6.52025795028
    R38_27  BAL1_27  0.248870534985
    R38_27  BAL3_27  0.16518243822
    R38_27  BAL8_27  0.856669260167
    R38_27  BAL13_27  0.166530193679
    R38_27  BAL18_27  0.300756212104
    R38_27  BAL23_27  0.809478501019
    R38_27  BAL25_27  0.945131374393
    R38_27  BAL28_27  0.357690839727
    R38_27  CAP27  1
    R38_28  COST  6.52025795028
    R38_28  BAL1_28  0.248870534985
    R38_28  BAL3_28  0.16518243822
    R38_28  BAL8_28  0.856669260167
    R38_28  BAL13_28  0.166530193679
    R38_28  BAL18_28  0.300756212104
    R38_28  BAL23_28  0.809478501019
    R38_28  BAL25_28  0.945131374393
    R38_28  BAL28_28  0.357690839727
    R38_28  CAP28  1
    R38_29  COST  6.52025795028
    R38_29  BAL1_29  0.248870534985
    R38_29  BAL3_29  0.16518243822
    R38_29  BAL8_29  0.856669260167
    R38_29  BAL13_29  0.166530193679
    R38_29  BAL18_29  0.300756212104
    R38_29  BAL23_29  0.809478501019
    R38_29  BAL25_29  0.945131374393
    R38_29  BAL28_29  0.357690839727
    R38_29  CAP29  1
    R38_30  COST  6.52025795028
    R38_30  BAL1_30  0.248870534985
    R38_30  BAL3_30  0.16518243822
    R38_30  BAL8_30  0.856669260167
    R38_30  BAL13_30  0.166530193679
    R38_30  BAL18_30  0.300756212104
    R38_30  BAL23_30  0.809478501019
    R38_30  BAL25_30  0.945131374393
    R38_30  BAL28_30  0.357690839727
    R38_30  CAP30  1
    R38_31  COST  6.52025795028
    R38_31  BAL1_31  0.248870534985
    R38_31  BAL3_31  0.16518243822
    R38_31  BAL8_31  0.856669260167
    R38_31  BAL13_31  0.166530193679
    R38_31  BAL18_31  0.300756212104
    R38_31  BAL23_31  0.809478501019
    R38_31  BAL25_31  0.945131374393
    R38_31  BAL28_31  0.357690839727
    R38_31  CAP31  1
    R38_32  COST  6.52025795028
    R38_32  BAL1_32  0.248870534985
    R38_32  BAL3_32  0.16518243822
    R38_32  BAL8_32  0.856669260167
    R38_32  BAL13_32  0.166530193679
    R38_32  BAL18_32  0.300756212104
    R38_32  BAL23_32  0.809478501019
    R38_32  BAL25_32  0.945131374393
    R38_32  BAL28_32  0.357690839727
    R38_32  CAP32  1
    R38_33  COST  6.52025795028
    R38_33  BAL1_33  0.248870534985
    R38_33  BAL3_33  0.16518243822
    R38_33  BAL8_33  0.856669260167
    R38_33  BAL13_33  0.166530193679
    R38_33  BAL18_33  0.300756212104
    R38_33  BAL23_33  0.809478501019
    R38_33  BAL25_33  0.945131374393
    R38_33  BAL28_33  0.357690839727
    R38_33  CAP33  1
    R38_34  COST  6.52025795028
    R38_34  BAL1_34  0.248870534985
    R38_34  BAL3_34  0.16518243822
    R38_34  BAL8_34  0.856669260167
    R38_34  BAL13_34  0.166530193679
    R38_34  BAL18_34  0.300756212104
    R38_34  BAL23_34  0.809478501019
    R38_34  BAL25_34  0.945131374393
    R38_34  BAL28_34  0.357690839727
    R38_34  CAP34  1
    R38_35  COST  6.52025795028
    R38_35  BAL1_35  0.248870534985
    R38_35  BAL3_35  0.16518243822
    R38_35  BAL8_35  0.856669260167
    R38_35  BAL13_35  0.166530193679
    R38_35  BAL18_35  0.300756212104
    R38_35  BAL23_35  0.809478501019
    R38_35  BAL25_35  0.945131374393
    R38_35  BAL28_35  0.357690839727
    R38_35  CAP35  1
    R39_0  COST  16.4228578452
    R39_0  BAL0_0  0.930120059418
    R39_0  BAL1_0  0.309143505948
    R39_0  BAL4_0  0.731302479597
    R39_0  BAL6_0  0.676817435063
    R39_0  BAL7_0  0.67488009985
    R39_0  BAL8_0  0.313266841185
    R39_0  BAL9_0  0.932250942303
    R39_0  BAL13_0  0.18588501538
    R39_0  BAL14_0  0.647892971251
    R39_0  BAL15_0  0.308257932825
    R39_0  BAL16_0  0.657346869161
    R39_0  BAL20_0  0.435549937521
    R39_0  BAL21_0  0.667871814491
    R39_0  BAL27_0  0.349465143889
    R39_0  CAP0  1
    R39_1  COST  16.4228578452
    R39_1  BAL0_1  0.930120059418
    R39_1  BAL1_1  0.309143505948
    R39_1  BAL4_1  0.731302479597
    R39_1  BAL6_1  0.676817435063
    R39_1  BAL7_1  0.67488009985
    R39_1  BAL8_1  0.313266841185
    R39_1  BAL9_1  0.932250942303
    R39_1  BAL13_1  0.18588501538
    R39_1  BAL14_1  0.647892971251
    R39_1  BAL15_1  0.308257932825
    R39_1  BAL16_1  0.657346869161
    R39_1  BAL20_1  0.435549937521
    R39_1  BAL21_1  0.667871814491
    R39_1  BAL27_1  0.349465143889
    R39_1  CAP1  1
    R39_2  COST  16.4228578452
    R39_2  BAL0_2  0.930120059418
    R39_2  BAL1_2  0.309143505948
    R39_2  BAL4_2  0.731302479597
    R39_2  BAL6_2  0.676817435063
    R39_2  BAL7_2  0.67488009985
    R39_2  BAL8_2  0.313266841185
    R39_2  BAL9_2  0.932250942303
    R39_2  BAL13_2  0.18588501538
    R39_2  BAL14_2  0.647892971251
    R39_2  BAL15_2  0.308257932825
    R39_2  BAL16_2  0.657346869161
    R39_2  BAL20_2  0.435549937521
    R39_2  BAL21_2  0.667871814491
    R39_2  BAL27_2  0.349465143889
    R39_2  CAP2  1
    R39_3  COST  16.4228578452
    R39_3  BAL0_3  0.930120059418
    R39_3  BAL1_3  0.309143505948
    R39_3  BAL4_3  0.731302479597
    R39_3  BAL6_3  0.676817435063
    R39_3  BAL7_3  0.67488009985
    R39_3  BAL8_3  0.313266841185
    R39_3  BAL9_3  0.932250942303
    R39_3  BAL13_3  0.18588501538
    R39_3  BAL14_3  0.647892971251
    R39_3  BAL15_3  0.308257932825
    R39_3  BAL16_3  0.657346869161
    R39_3  BAL20_3  0.435549937521
    R39_3  BAL21_3  0.667871814491
    R39_3  BAL27_3  0.349465143889
    R39_3  CAP3  1
    R39_4  COST  16.4228578452
    R39_4  BAL0_4  0.930120059418
    R39_4  BAL1_4  0.309143505948
    R39_4  BAL4_4  0.731302479597
    R39_4  BAL6_4  0.676817435063
    R39_4  BAL7_4  0.67488009985
    R39_4  BAL8_4  0.313266841185
    R39_4  BAL9_4  0.932250942303
    R39_4  BAL13_4  0.18588501538
    R39_4  BAL14_4  0.647892971251
    R39_4  BAL15_4  0.308257932825
    R39_4  BAL16_4  0.657346869161
    R39_4  BAL20_4  0.435549937521
    R39_4  BAL21_4  0.667871814491
    R39_4  BAL27_4  0.349465143889
    R39_4  CAP4  1
    R39_5  COST  16.4228578452
    R39_5  BAL0_5  0.930120059418
    R39_5  BAL1_5  0.309143505948
    R39_5  BAL4_5  0.731302479597
    R39_5  BAL6_5  0.676817435063
    R39_5  BAL7_5  0.67488009985
    R39_5  BAL8_5  0.313266841185
    R39_5  BAL9_5  0.932250942303
    R39_5  BAL13_5  0.18588501538
    R39_5  BAL14_5  0.647892971251
    R39_5  BAL15_5  0.308257932825
    R39_5  BAL16_5  0.657346869161
    R39_5  BAL20_5  0.435549937521
    R39_5  BAL21_5  0.667871814491
    R39_5  BAL27_5  0.349465143889
    R39_5  CAP5  1
    R39_6  COST  16.4228578452
    R39_6  BAL0_6  0.930120059418
    R39_6  BAL1_6  0.309143505948
    R39_6  BAL4_6  0.731302479597
    R39_6  BAL6_6  0.676817435063
    R39_6  BAL7_6  0.67488009985
    R39_6  BAL8_6  0.313266841185
    R39_6  BAL9_6  0.932250942303
    R39_6  BAL13_6  0.18588501538
    R39_6  BAL14_6  0.647892971251
    R39_6  BAL15_6  0.308257932825
    R39_6  BAL16_6  0.657346869161
    R39_6  BAL20_6  0.435549937521
    R39_6  BAL21_6  0.667871814491
    R39_6  BAL27_6  0.349465143889
    R39_6  CAP6  1
    R39_7  COST  16.4228578452
    R39_7  BAL0_7  0.930120059418
    R39_7  BAL1_7  0.309143505948
    R39_7  BAL4_7  0.731302479597
    R39_7  BAL6_7  0.676817435063
    R39_7  BAL7_7  0.67488009985
    R39_7  BAL8_7  0.313266841185
    R39_7  BAL9_7  0.932250942303
    R39_7  BAL13_7  0.18588501538
    R39_7  BAL14_7  0.647892971251
    R39_7  BAL15_7  0.308257932825
    R39_7  BAL16_7  0.657346869161
    R39_7  BAL20_7  0.435549937521
    R39_7  BAL21_7  0.667871814491
    R39_7  BAL27_7  0.349465143889
    R39_7  CAP7  1
    R39_8  COST  16.4228578452
    R39_8  BAL0_8  0.930120059418
    R39_8  BAL1_8  0.309143505948
    R39_8  BAL4_8  0.731302479597
    R39_8  BAL6_8  0.676817435063
    R39_8  BAL7_8  0.67488009985
    R39_8  BAL8_8  0.313266841185
    R39_8  BAL9_8  0.932250942303
    R39_8  BAL13_8  0.18588501538
    R39_8  BAL14_8  0.647892971251
    R39_8  BAL15_8  0.308257932825
    R39_8  BAL16_8  0.657346869161
    R39_8  BAL20_8  0.435549937521
    R39_8  BAL21_8  0.667871814491
    R39_8  BAL27_8  0.349465143889
    R39_8  CAP8  1
    R39_9  COST  16.4228578452
    R39_9  BAL0_9  0.930120059418
    R39_9  BAL1_9  0.309143505948
    R39_9  BAL4_9  0.731302479597
    R39_9  BAL6_9  0.676817435063
    R39_9  BAL7_9  0.67488009985
    R39_9  BAL8_9  0.313266841185
    R39_9  BAL9_9  0.932250942303
    R39_9  BAL13_9  0.18588501538
    R39_9  BAL14_9  0.647892971251
    R39_9  BAL15_9  0.308257932825
    R39_9  BAL16_9  0.657346869161
    R39_9  BAL20_9  0.435549937521
    R39_9  BAL21_9  0.667871814491
    R39_9  BAL27_9  0.349465143889
    R39_9  CAP9  1
    R39_10  COST  16.4228578452
    R39_10  BAL0_10  0.930120059418
    R39_10  BAL1_10  0.309143505948
    R39_10  BAL4_10  0.731302479597
    R39_10  BAL6_10  0.676817435063
    R39_10  BAL7_10  0.67488009985
    R39_10  BAL8_10  0.313266841185
    R39_10  BAL9_10  0.932250942303
    R39_10  BAL13_10  0.18588501538
    R39_10  BAL14_10  0.647892971251
    R39_10  BAL15_10  0.308257932825
    R39_10  BAL16_10  0.657346869161
    R39_10  BAL20_10  0.435549937521
    R39_10  BAL21_10  0.667871814491
    R39_10  BAL27_10  0.349465143889
    R39_10  CAP10  1
    R39_11  COST  16.4228578452
    R39_11  BAL0_11  0.930120059418
    R39_11  BAL1_11  0.309143505948
    R39_11  BAL4_11  0.731302479597
    R39_11  BAL6_11  0.676817435063
    R39_11  BAL7_11  0.67488009985
    R39_11  BAL8_11  0.313266841185
    R39_11  BAL9_11  0.932250942303
    R39_11  BAL13_11  0.18588501538
    R39_11  BAL14_11  0.647892971251
    R39_11  BAL15_11  0.308257932825
    R39_11  BAL16_11  0.657346869161
    R39_11  BAL20_11  0.435549937521
    R39_11  BAL21_11  0.667871814491
    R39_11  BAL27_11  0.349465143889
    R39_11  CAP11  1
    R39_12  COST  16.4228578452
    R39_12  BAL0_12  0.930120059418
    R39_12  BAL1_12  0.309143505948
    R39_12  BAL4_12  0.731302479597
    R39_12  BAL6_12  0.676817435063
    R39_12  BAL7_12  0.67488009985
    R39_12  BAL8_12  0.313266841185
    R39_12  BAL9_12  0.932250942303
    R39_12  BAL13_12  0.18588501538
    R39_12  BAL14_12  0.647892971251
    R39_12  BAL15_12  0.308257932825
    R39_12  BAL16_12  0.657346869161
    R39_12  BAL20_12  0.435549937521
    R39_12  BAL21_12  0.667871814491
    R39_12  BAL27_12  0.349465143889
    R39_12  CAP12  1
    R39_13  COST  16.4228578452
    R39_13  BAL0_13  0.930120059418
    R39_13  BAL1_13  0.309143505948
    R39_13  BAL4_13  0.731302479597
    R39_13  BAL6_13  0.676817435063
    R39_13  BAL7_13  0.67488009985
    R39_13  BAL8_13  0.313266841185
    R39_13  BAL9_13  0.932250942303
    R39_13  BAL13_13  0.18588501538
    R39_13  BAL14_13  0.647892971251
    R39_13  BAL15_13  0.308257932825
    R39_13  BAL16_13  0.657346869161
    R39_13  BAL20_13  0.435549937521
    R39_13  BAL21_13  0.667871814491
    R39_13  BAL27_13  0.349465143889
    R39_13  CAP13  1
    R39_14  COST  16.4228578452
    R39_14  BAL0_14  0.930120059418
    R39_14  BAL1_14  0.309143505948
    R39_14  BAL4_14  0.731302479597
    R39_14  BAL6_14  0.676817435063
    R39_14  BAL7_14  0.67488009985
    R39_14  BAL8_14  0.313266841185
    R39_14  BAL9_14  0.932250942303
    R39_14  BAL13_14  0.18588501538
    R39_14  BAL14_14  0.647892971251
    R39_14  BAL15_14  0.308257932825
    R39_14  BAL16_14  0.657346869161
    R39_14  BAL20_14  0.435549937521
    R39_14  BAL21_14  0.667871814491
    R39_14  BAL27_14  0.349465143889
    R39_14  CAP14  1
    R39_15  COST  16.4228578452
    R39_15  BAL0_15  0.930120059418
    R39_15  BAL1_15  0.309143505948
    R39_15  BAL4_15  0.731302479597
    R39_15  BAL6_15  0.676817435063
    R39_15  BAL7_15  0.67488009985
    R39_15  BAL8_15  0.313266841185
    R39_15  BAL9_15  0.932250942303
    R39_15  BAL13_15  0.18588501538
    R39_15  BAL14_15  0.647892971251
    R39_15  BAL15_15  0.308257932825
    R39_15  BAL16_15  0.657346869161
    R39_15  BAL20_15  0.435549937521
    R39_15  BAL21_15  0.667871814491
    R39_15  BAL27_15  0.349465143889
    R39_15  CAP15  1
    R39_16  COST  16.4228578452
    R39_16  BAL0_16  0.930120059418
    R39_16  BAL1_16  0.309143505948
    R39_16  BAL4_16  0.731302479597
    R39_16  BAL6_16  0.676817435063
    R39_16  BAL7_16  0.67488009985
    R39_16  BAL8_16  0.313266841185
    R39_16  BAL9_16  0.932250942303
    R39_16  BAL13_16  0.18588501538
    R39_16  BAL14_16  0.647892971251
    R39_16  BAL15_16  0.308257932825
    R39_16  BAL16_16  0.657346869161
    R39_16  BAL20_16  0.435549937521
    R39_16  BAL21_16  0.667871814491
    R39_16  BAL27_16  0.349465143889
    R39_16  CAP16  1
    R39_17  COST  16.4228578452
    R39_17  BAL0_17  0.930120059418
    R39_17  BAL1_17  0.309143505948
    R39_17  BAL4_17  0.731302479597
    R39_17  BAL6_17  0.676817435063
    R39_17  BAL7_17  0.67488009985
    R39_17  BAL8_17  0.313266841185
    R39_17  BAL9_17  0.932250942303
    R39_17  BAL13_17  0.18588501538
    R39_17  BAL14_17  0.647892971251
    R39_17  BAL15_17  0.308257932825
    R39_17  BAL16_17  0.657346869161
    R39_17  BAL20_17  0.435549937521
    R39_17  BAL21_17  0.667871814491
    R39_17  BAL27_17  0.349465143889
    R39_17  CAP17  1
    R39_18  COST  16.4228578452
    R39_18  BAL0_18  0.930120059418
    R39_18  BAL1_18  0.309143505948
    R39_18  BAL4_18  0.731302479597
    R39_18  BAL6_18  0.676817435063
    R39_18  BAL7_18  0.67488009985
    R39_18  BAL8_18  0.313266841185
    R39_18  BAL9_18  0.932250942303
    R39_18  BAL13_18  0.18588501538
    R39_18  BAL14_18  0.647892971251
    R39_18  BAL15_18  0.308257932825
    R39_18  BAL16_18  0.657346869161
    R39_18  BAL20_18  0.435549937521
    R39_18  BAL21_18  0.667871814491
    R39_18  BAL27_18  0.349465143889
    R39_18  CAP18  1
    R39_19  COST  16.4228578452
    R39_19  BAL0_19  0.930120059418
    R39_19  BAL1_19  0.309143505948
    R39_19  BAL4_19  0.731302479597
    R39_19  BAL6_19  0.676817435063
    R39_19  BAL7_19  0.67488009985
    R39_19  BAL8_19  0.313266841185
    R39_19  BAL9_19  0.932250942303
    R39_19  BAL13_19  0.18588501538
    R39_19  BAL14_19  0.647892971251
    R39_19  BAL15_19  0.308257932825
    R39_19  BAL16_19  0.657346869161
    R39_19  BAL20_19  0.435549937521
    R39_19  BAL21_19  0.667871814491
    R39_19  BAL27_19  0.349465143889
    R39_19  CAP19  1
    R39_20  COST  16.4228578452
    R39_20  BAL0_20  0.930120059418
    R39_20  BAL1_20  0.309143505948
    R39_20  BAL4_20  0.731302479597
    R39_20  BAL6_20  0.676817435063
    R39_20  BAL7_20  0.67488009985
    R39_20  BAL8_20  0.313266841185
    R39_20  BAL9_20  0.932250942303
    R39_20  BAL13_20  0.18588501538
    R39_20  BAL14_20  0.647892971251
    R39_20  BAL15_20  0.308257932825
    R39_20  BAL16_20  0.657346869161
    R39_20  BAL20_20  0.435549937521
    R39_20  BAL21_20  0.667871814491
    R39_20  BAL27_20  0.349465143889
    R39_20  CAP20  1
    R39_21  COST  16.4228578452
    R39_21  BAL0_21  0.930120059418
    R39_21  BAL1_21  0.309143505948
    R39_21  BAL4_21  0.731302479597
    R39_21  BAL6_21  0.676817435063
    R39_21  BAL7_21  0.67488009985
    R39_21  BAL8_21  0.313266841185
    R39_21  BAL9_21  0.932250942303
    R39_21  BAL13_21  0.18588501538
    R39_21  BAL14_21  0.647892971251
    R39_21  BAL15_21  0.308257932825
    R39_21  BAL16_21  0.657346869161
    R39_21  BAL20_21  0.435549937521
    R39_21  BAL21_21  0.667871814491
    R39_21  BAL27_21  0.349465143889
    R39_21  CAP21  1
    R39_22  COST  16.4228578452
    R39_22  BAL0_22  0.930120059418
    R39_22  BAL1_22  0.309143505948
    R39_22  BAL4_22  0.731302479597
    R39_22  BAL6_22  0.676817435063
    R39_22  BAL7_22  0.67488009985
    R39_22  BAL8_22  0.313266841185
    R39_22  BAL9_22  0.932250942303
    R39_22  BAL13_22  0.18588501538
    R39_22  BAL14_22  0.647892971251
    R39_22  BAL15_22  0.308257932825
    R39_22  BAL16_22  0.657346869161
    R39_22  BAL20_22  0.435549937521
    R39_22  BAL21_22  0.667871814491
    R39_22  BAL27_22  0.349465143889
    R39_22  CAP22  1
    R39_23  COST  16.4228578452
    R39_23  BAL0_23  0.930120059418
    R39_23  BAL1_23  0.309143505948
    R39_23  BAL4_23  0.731302479597
    R39_23  BAL6_23  0.676817435063
    R39_23  BAL7_23  0.67488009985
    R39_23  BAL8_23  0.313266841185
    R39_23  BAL9_23  0.932250942303
    R39_23  BAL13_23  0.18588501538
    R39_23  BAL14_23  0.647892971251
    R39_23  BAL15_23  0.308257932825
    R39_23  BAL16_23  0.657346869161
    R39_23  BAL20_23  0.435549937521
    R39_23  BAL21_23  0.667871814491
    R39_23  BAL27_23  0.349465143889
    R39_23  CAP23  1
    R39_24  COST  16.4228578452
    R39_24  BAL0_24  0.930120059418
    R39_24  BAL1_24  0.309143505948
    R39_24  BAL4_24  0.731302479597
    R39_24  BAL6_24  0.676817435063
    R39_24  BAL7_24  0.67488009985
    R39_24  BAL8_24  0.313266841185
    R39_24  BAL9_24  0.932250942303
    R39_24  BAL13_24  0.18588501538
    R39_24  BAL14_24  0.647892971251
    R39_24  BAL15_24  0.308257932825
    R39_24  BAL16_24  0.657346869161
    R39_24  BAL20_24  0.435549937521
    R39_24  BAL21_24  0.667871814491
    R39_24  BAL27_24  0.349465143889
    R39_24  CAP24  1
    R39_25  COST  16.4228578452
    R39_25  BAL0_25  0.930120059418
    R39_25  BAL1_25  0.309143505948
    R39_25  BAL4_25  0.731302479597
    R39_25  BAL6_25  0.676817435063
    R39_25  BAL7_25  0.67488009985
    R39_25  BAL8_25  0.313266841185
    R39_25  BAL9_25  0.932250942303
    R39_25  BAL13_25  0.18588501538
    R39_25  BAL14_25  0.647892971251
    R39_25  BAL15_25  0.308257932825
    R39_25  BAL16_25  0.657346869161
    R39_25  BAL20_25  0.435549937521
    R39_25  BAL21_25  0.667871814491
    R39_25  BAL27_25  0.349465143889
    R39_25  CAP25  1
    R39_26  COST  16.4228578452
    R39_26  BAL0_26  0.930120059418
    R39_26  BAL1_26  0.309143505948
    R39_26  BAL4_26  0.731302479597
    R39_26  BAL6_26  0.676817435063
    R39_26  BAL7_26  0.67488009985
    R39_26  BAL8_26  0.313266841185
    R39_26  BAL9_26  0.932250942303
    R39_26  BAL13_26  0.18588501538
    R39_26  BAL14_26  0.647892971251
    R39_26  BAL15_26  0.308257932825
    R39_26  BAL16_26  0.657346869161
    R39_26  BAL20_26  0.435549937521
    R39_26  BAL21_26  0.667871814491
    R39_26  BAL27_26  0.349465143889
    R39_26  CAP26  1
    R39_27  COST  16.4228578452
    R39_27  BAL0_27  0.930120059418
    R39_27  BAL1_27  0.309143505948
    R39_27  BAL4_27  0.731302479597
    R39_27  BAL6_27  0.676817435063
    R39_27  BAL7_27  0.67488009985
    R39_27  BAL8_27  0.313266841185
    R39_27  BAL9_27  0.932250942303
    R39_27  BAL13_27  0.18588501538
    R39_27  BAL14_27  0.647892971251
    R39_27  BAL15_27  0.308257932825
    R39_27  BAL16_27  0.657346869161
    R39_27  BAL20_27  0.435549937521
    R39_27  BAL21_27  0.667871814491
    R39_27  BAL27_27  0.349465143889
    R39_27  CAP27  1
    R39_28  COST  16.4228578452
    R39_28  BAL0_28  0.930120059418
    R39_28  BAL1_28  0.309143505948
    R39_28  BAL4_28  0.731302479597
    R39_28  BAL6_28  0.676817435063
    R39_28  BAL7_28  0.67488009985
    R39_28  BAL8_28  0.313266841185
    R39_28  BAL9_28  0.932250942303
    R39_28  BAL13_28  0.18588501538
    R39_28  BAL14_28  0.647892971251
    R39_28  BAL15_28  0.308257932825
    R39_28  BAL16_28  0.657346869161
    R39_28  BAL20_28  0.435549937521
    R39_28  BAL21_28  0.667871814491
    R39_28  BAL27_28  0.349465143889
    R39_28  CAP28  1
    R39_29  COST  16.4228578452
    R39_29  BAL0_29  0.930120059418
    R39_29  BAL1_29  0.309143505948
    R39_29  BAL4_29  0.731302479597
    R39_29  BAL6_29  0.676817435063
    R39_29  BAL7_29  0.67488009985
    R39_29  BAL8_29  0.313266841185
    R39_29  BAL9_29  0.932250942303
    R39_29  BAL13_29  0.18588501538
    R39_29  BAL14_29  0.647892971251
    R39_29  BAL15_29  0.308257932825
    R39_29  BAL16_29  0.657346869161
    R39_29  BAL20_29  0.435549937521
    R39_29  BAL21_29  0.667871814491
    R39_29  BAL27_29  0.349465143889
    R39_29  CAP29  1
    R39_30  COST  16.4228578452
    R39_30  BAL0_30  0.930120059418
    R39_30  BAL1_30  0.309143505948
    R39_30  BAL4_30  0.731302479597
    R39_30  BAL6_30  0.676817435063
    R39_30  BAL7_30  0.67488009985
    R39_30  BAL8_30  0.313266841185
    R39_30  BAL9_30  0.932250942303
    R39_30  BAL13_30  0.18588501538
    R39_30  BAL14_30  0.647892971251
    R39_30  BAL15_30  0.308257932825
    R39_30  BAL16_30  0.657346869161
    R39_30  BAL20_30  0.435549937521
    R39_30  BAL21_30  0.667871814491
    R39_30  BAL27_30  0.349465143889
    R39_30  CAP30  1
    R39_31  COST  16.4228578452
    R39_31  BAL0_31  0.930120059418
    R39_31  BAL1_31  0.309143505948
    R39_31  BAL4_31  0.731302479597
    R39_31  BAL6_31  0.676817435063
    R39_31  BAL7_31  0.67488009985
    R39_31  BAL8_31  0.313266841185
    R39_31  BAL9_31  0.932250942303
    R39_31  BAL13_31  0.18588501538
    R39_31  BAL14_31  0.647892971251
    R39_31  BAL15_31  0.308257932825
    R39_31  BAL16_31  0.657346869161
    R39_31  BAL20_31  0.435549937521
    R39_31  BAL21_31  0.667871814491
    R39_31  BAL27_31  0.349465143889
    R39_31  CAP31  1
    R39_32  COST  16.4228578452
    R39_32  BAL0_32  0.930120059418
    R39_32  BAL1_32  0.309143505948
    R39_32  BAL4_32  0.731302479597
    R39_32  BAL6_32  0.676817435063
    R39_32  BAL7_32  0.67488009985
    R39_32  BAL8_32  0.313266841185
    R39_32  BAL9_32  0.932250942303
    R39_32  BAL13_32  0.18588501538
    R39_32  BAL14_32  0.647892971251
    R39_32  BAL15_32  0.308257932825
    R39_32  BAL16_32  0.657346869161
    R39_32  BAL20_32  0.435549937521
    R39_32  BAL21_32  0.667871814491
    R39_32  BAL27_32  0.349465143889
    R39_32  CAP32  1
    R39_33  COST  16.4228578452
    R39_33  BAL0_33  0.930120059418
    R39_33  BAL1_33  0.309143505948
    R39_33  BAL4_33  0.731302479597
    R39_33  BAL6_33  0.676817435063
    R39_33  BAL7_33  0.67488009985
    R39_33  BAL8_33  0.313266841185
    R39_33  BAL9_33  0.932250942303
    R39_33  BAL13_33  0.18588501538
    R39_33  BAL14_33  0.647892971251
    R39_33  BAL15_33  0.308257932825
    R39_33  BAL16_33  0.657346869161
    R39_33  BAL20_33  0.435549937521
    R39_33  BAL21_33  0.667871814491
    R39_33  BAL27_33  0.349465143889
    R39_33  CAP33  1
    R39_34  COST  16.4228578452
    R39_34  BAL0_34  0.930120059418
    R39_34  BAL1_34  0.309143505948
    R39_34  BAL4_34  0.731302479597
    R39_34  BAL6_34  0.676817435063
    R39_34  BAL7_34  0.67488009985
    R39_34  BAL8_34  0.313266841185
    R39_34  BAL9_34  0.932250942303
    R39_34  BAL13_34  0.18588501538
    R39_34  BAL14_34  0.647892971251
    R39_34  BAL15_34  0.308257932825
    R39_34  BAL16_34  0.657346869161
    R39_34  BAL20_34  0.435549937521
    R39_34  BAL21_34  0.667871814491
    R39_34  BAL27_34  0.349465143889
    R39_34  CAP34  1
    R39_35  COST  16.4228578452
    R39_35  BAL0_35  0.930120059418
    R39_35  BAL1_35  0.309143505948
    R39_35  BAL4_35  0.731302479597
    R39_35  BAL6_35  0.676817435063
    R39_35  BAL7_35  0.67488009985
    R39_35  BAL8_35  0.313266841185
    R39_35  BAL9_35  0.932250942303
    R39_35  BAL13_35  0.18588501538
    R39_35  BAL14_35  0.647892971251
    R39_35  BAL15_35  0.308257932825
    R39_35  BAL16_35  0.657346869161
    R39_35  BAL20_35  0.435549937521
    R39_35  BAL21_35  0.667871814491
    R39_35  BAL27_35  0.349465143889
    R39_35  CAP35  1
    I0_0  COST  2.19806536498
    I0_0  BAL0_0  -1
    I0_0  BAL0_1  1
    S0_0  COST  -69.8975118933
    S0_0  BAL0_0  -1
    S0_0  DEM0_0  1
    I0_1  COST  2.19806536498
    I0_1  BAL0_1  -1
    I0_1  BAL0_2  1
    S0_1  COST  -48.9244005524
    S0_1  BAL0_1  -1
    S0_1  DEM0_1  1
    I0_2  COST  2.19806536498
    I0_2  BAL0_2  -1
    I0_2  BAL0_3  1
    S0_2  COST  -53.6046086307
    S0_2  BAL0_2  -1
    S0_2  DEM0_2  1
    I0_3  COST  2.19806536498
    I0_3  BAL0_3  -1
    I0_3  BAL0_4  1
    S0_3  COST  -46.8213079524
    S0_3  BAL0_3  -1
    S0_3  DEM0_3  1
    I0_4  COST  2.19806536498
    I0_4  BAL0_4  -1
    I0_4  BAL0_5  1
    S0_4  COST  -58.7544362901
    S0_4  BAL0_4  -1
    S0_4  DEM0_4  1
    I0_5  COST  2.19806536498
    I0_5  BAL0_5  -1
    I0_5  BAL0_6  1
    S0_5  COST  -62.3102844005
    S0_5  BAL0_5  -1
    S0_5  DEM0_5  1
    I0_6  COST  2.19806536498
    I0_6  BAL0_6  -1
    I0_6  BAL0_7  1
    S0_6  COST  -48.5938146883
    S0_6  BAL0_6  -1
    S0_6  DEM0_6  1
    I0_7  COST  2.19806536498
    I0_7  BAL0_7  -1
    I0_7  BAL0_8  1
    S0_7  COST  -48.2457455116
    S0_7  BAL0_7  -1
    S0_7  DEM0_7  1
    I0_8  COST  2.19806536498
    I0_8  BAL0_8  -1
    I0_8  BAL0_9  1
    S0_8  COST  -54.1221677403
    S0_8  BAL0_8  -1
    S0_8  DEM0_8  1
    I0_9  COST  2.19806536498
    I0_9  BAL0_9  -1
    I0_9  BAL0_10  1
    S0_9  COST  -56.4392829028
    S0_9  BAL0_9  -1
    S0_9  DEM0_9  1
    I0_10  COST  2.19806536498
    I0_10  BAL0_10  -1
    I0_10  BAL0_11  1
    S0_10  COST  -56.8951962628
    S0_10  BAL0_10  -1
    S0_10  DEM0_10  1
    I0_11  COST  2.19806536498
    I0_11  BAL0_11  -1
    I0_11  BAL0_12  1
    S0_11  COST  -49.2629709741
    S0_11  BAL0_11  -1
    S0_11  DEM0_11  1
    I0_12  COST  2.19806536498
    I0_12  BAL0_12  -1
    I0_12  BAL0_13  1
    S0_12  COST  -51.8668719142
    S0_12  BAL0_12  -1
    S0_12  DEM0_12  1
    I0_13  COST  2.19806536498
    I0_13  BAL0_13  -1
    I0_13  BAL0_14  1
    S0_13  COST  -50.8219253519
    S0_13  BAL0_13  -1
    S0_13  DEM0_13  1
    I0_14  COST  2.19806536498
    I0_14  BAL0_14  -1
    I0_14  BAL0_15  1
    S0_14  COST  -46.5652213696
    S0_14  BAL0_14  -1
    S0_14  DEM0_14  1
    I0_15  COST  2.19806536498
    I0_15  BAL0_15  -1
    I0_15  BAL0_16  1
    S0_15  COST  -61.6631159534
    S0_15  BAL0_15  -1
    S0_15  DEM0_15  1
    I0_16  COST  2.19806536498
    I0_16  BAL0_16  -1
    I0_16  BAL0_17  1
    S0_16  COST  -56.7822128943
    S0_16  BAL0_16  -1
    S0_16  DEM0_16  1
    I0_17  COST  2.19806536498
    I0_17  BAL0_17  -1
    I0_17  BAL0_18  1
    S0_17  COST  -35.0296467717
    S0_17  BAL0_17  -1
    S0_17  DEM0_17  1
    I0_18  COST  2.19806536498
    I0_18  BAL0_18  -1
    I0_18  BAL0_19  1
    S0_18  COST  -42.5079297518
    S0_18  BAL0_18  -1
    S0_18  DEM0_18  1
    I0_19  COST  2.19806536498
    I0_19  BAL0_19  -1
    I0_19  BAL0_20  1
    S0_19  COST  -63.1304813888
    S0_19  BAL0_19  -1
    S0_19  DEM0_19  1
    I0_20  COST  2.19806536498
    I0_20  BAL0_20  -1
    I0_20  BAL0_21  1
    S0_20  COST  -49.8214430819
    S0_20  BAL0_20  -1
    S0_20  DEM0_20  1
    I0_21  COST  2.19806536498
    I0_21  BAL0_21  -1
    I0_21  BAL0_22  1
    S0_21  COST  -37.4114980411
    S0_21  BAL0_21  -1
    S0_21  DEM0_21  1
    I0_22  COST  2.19806536498
    I0_22  BAL0_22  -1
    I0_22  BAL0_23  1
    S0_22  COST  -55.7220337644
    S0_22  BAL0_22  -1
    S0_22  DEM0_22  1
    I0_23  COST  2.19806536498
    I0_23  BAL0_23  -1
    I0_23  BAL0_24  1
    S0_23  COST  -67.1453427052
    S0_23  BAL0_23  -1
    S0_23  DEM0_23  1
    I0_24  COST  2.19806536498
    I0_24  BAL0_24  -1
    I0_24  BAL0_25  1
    S0_24  COST  -46.7114452039
    S0_24  BAL0_24  -1
    S0_24  DEM0_24  1
    I0_25  COST  2.19806536498
    I0_25  BAL0_25  -1
    I0_25  BAL0_26  1
    S0_25  COST  -64.7616003947
    S0_25  BAL0_25  -1
    S0_25  DEM0_25  1
    I0_26  COST  2.19806536498
    I0_26  BAL0_26  -1
    I0_26  BAL0_27  1
    S0_26  COST  -64.7032560264
    S0_26  BAL0_26  -1
    S0_26  DEM0_26  1
    I0_27  COST  2.19806536498
    I0_27  BAL0_27  -1
    I0_27  BAL0_28  1
    S0_27  COST  -37.3431153458
    S0_27  BAL0_27  -1
    S0_27  DEM0_27  1
    I0_28  COST  2.19806536498
    I0_28  BAL0_28  -1
    I0_28  BAL0_29  1
    S0_28  COST  -55.4468375389
    S0_28  BAL0_28  -1
    S0_28  DEM0_28  1
    I0_29  COST  2.19806536498
    I0_29  BAL0_29  -1
    I0_29  BAL0_30  1
    S0_29  COST  -45.6334913683
    S0_29  BAL0_29  -1
    S0_29  DEM0_29  1
    I0_30  COST  2.19806536498
    I0_30  BAL0_30  -1
    I0_30  BAL0_31  1
    S0_30  COST  -51.2249245918
    S0_30  BAL0_30  -1
    S0_30  DEM0_30  1
    I0_31  COST  2.19806536498
    I0_31  BAL0_31  -1
    I0_31  BAL0_32  1
    S0_31  COST  -51.820824716
    S0_31  BAL0_31  -1
    S0_31  DEM0_31  1
    I0_32  COST  2.19806536498
    I0_32  BAL0_32  -1
    I0_32  BAL0_33  1
    S0_32  COST  -42.1035895868
    S0_32  BAL0_32  -1
    S0_32  DEM0_32  1
    I0_33  COST  2.19806536498
    I0_33  BAL0_33  -1
    I0_33  BAL0_34  1
    S0_33  COST  -33.6058488545
    S0_33  BAL0_33  -1
    S0_33  DEM0_33  1
    I0_34  COST  2.19806536498
    I0_34  BAL0_34  -1
    I0_34  BAL0_35  1
    S0_34  COST  -32.5778036252
    S0_34  BAL0_34  -1
    S0_34  DEM0_34  1
    I0_35  COST  2.19806536498
    I0_35  BAL0_35  -1
    S0_35  COST  -50.1080442659
    S0_35  BAL0_35  -1
    S0_35  DEM0_35  1
    I1_0  COST  2.22594434738
    I1_0  BAL1_0  -1
    I1_0  BAL1_1  1
    S1_0  COST  -50.0255922378
    S1_0  BAL1_0  -1
    S1_0  DEM1_0  1
    I1_1  COST  2.22594434738
    I1_1  BAL1_1  -1
    I1_1  BAL1_2  1
    S1_1  COST  -71.0500947798
    S1_1  BAL1_1  -1
    S1_1  DEM1_1  1
    I1_2  COST  2.22594434738
    I1_2  BAL1_2  -1
    I1_2  BAL1_3  1
    S1_2  COST  -47.9391965271
    S1_2  BAL1_2  -1
    S1_2  DEM1_2  1
    I1_3  COST  2.22594434738
    I1_3  BAL1_3  -1
    I1_3  BAL1_4  1
    S1_3  COST  -35.9746697906
    S1_3  BAL1_3  -1
    S1_3  DEM1_3  1
    I1_4  COST  2.22594434738
    I1_4  BAL1_4  -1
    I1_4  BAL1_5  1
    S1_4  COST  -47.9969212032
    S1_4  BAL1_4  -1
    S1_4  DEM1_4  1
    I1_5  COST  2.22594434738
    I1_5  BAL1_5  -1
    I1_5  BAL1_6  1
    S1_5  COST  -53.9037077741
    S1_5  BAL1_5  -1
    S1_5  DEM1_5  1
    I1_6  COST  2.22594434738
    I1_6  BAL1_6  -1
    I1_6  BAL1_7  1
    S1_6  COST  -32.566341237
    S1_6  BAL1_6  -1
    S1_6  DEM1_6  1
    I1_7  COST  2.22594434738
    I1_7  BAL1_7  -1
    I1_7  BAL1_8  1
    S1_7  COST  -63.2122386153
    S1_7  BAL1_7  -1
    S1_7  DEM1_7  1
    I1_8  COST  2.22594434738
    I1_8  BAL1_8  -1
    I1_8  BAL1_9  1
    S1_8  COST  -72.6596930843
    S1_8  BAL1_8  -1
    S1_8  DEM1_8  1
    I1_9  COST  2.22594434738
    I1_9  BAL1_9  -1
    I1_9  BAL1_10  1
    S1_9  COST  -32.7592114028
    S1_9  BAL1_9  -1
    S1_9  DEM1_9  1
    I1_10  COST  2.22594434738
    I1_10  BAL1_10  -1
    I1_10  BAL1_11  1
    S1_10  COST  -67.6709550694
    S1_10  BAL1_10  -1
    S1_10  DEM1_10  1
    I1_11  COST  2.22594434738
    I1_11  BAL1_11  -1
    I1_11  BAL1_12  1
    S1_11  COST  -45.5584343422
    S1_11  BAL1_11  -1
    S1_11  DEM1_11  1
    I1_12  COST  2.22594434738
    I1_12  BAL1_12  -1
    I1_12  BAL1_13  1
    S1_12  COST  -43.7006025798
    S1_12  BAL1_12  -1
    S1_12  DEM1_12  1
    I1_13  COST  2.22594434738
    I1_13  BAL1_13  -1
    I1_13  BAL1_14  1
    S1_13  COST  -69.9853244625
    S1_13  BAL1_13  -1
    S1_13  DEM1_13  1
    I1_14  COST  2.22594434738
    I1_14  BAL1_14  -1
    I1_14  BAL1_15  1
    S1_14  COST  -58.3214794418
    S1_14  BAL1_14  -1
    S1_14  DEM1_14  1
    I1_15  COST  2.22594434738
    I1_15  BAL1_15  -1
    I1_15  BAL1_16  1
    S1_15  COST  -47.1766585557
    S1_15  BAL1_15  -1
    S1_15  DEM1_15  1
    I1_16  COST  2.22594434738
    I1_16  BAL1_16  -1
    I1_16  BAL1_17  1
    S1_16  COST  -37.2892317478
    S1_16  BAL1_16  -1
    S1_16  DEM1_16  1
    I1_17  COST  2.22594434738
    I1_17  BAL1_17  -1
    I1_17  BAL1_18  1
    S1_17  COST  -52.9415345734
    S1_17  BAL1_17  -1
    S1_17  DEM1_17  1
    I1_18  COST  2.22594434738
    I1_18  BAL1_18  -1
    I1_18  BAL1_19  1
    S1_18  COST  -33.7244824558
    S1_18  BAL1_18  -1
    S1_18  DEM1_18  1
    I1_19  COST  2.22594434738
    I1_19  BAL1_19  -1
    I1_19  BAL1_20  1
    S1_19  COST  -62.94492452
    S1_19  BAL1_19  -1
    S1_19  DEM1_19  1
    I1_20  COST  2.22594434738
    I1_20  BAL1_20  -1
    I1_20  BAL1_21  1
    S1_20  COST  -68.486268262
    S1_20  BAL1_20  -1
    S1_20  DEM1_20  1
    I1_21  COST  2.22594434738
    I1_21  BAL1_21  -1
    I1_21  BAL1_22  1
    S1_21  COST  -62.7179405561
    S1_21  BAL1_21  -1
    S1_21  DEM1_21  1
    I1_22  COST  2.22594434738
    I1_22  BAL1_22  -1
    I1_22  BAL1_23  1
    S1_22  COST  -37.7094843891
    S1_22  BAL1_22  -1
    S1_22  DEM1_22  1
    I1_23  COST  2.22594434738
    I1_23  BAL1_23  -1
    I1_23  BAL1_24  1
    S1_23  COST  -64.7091362923
    S1_23  BAL1_23  -1
    S1_23  DEM1_23  1
    I1_24  COST  2.22594434738
    I1_24  BAL1_24  -1
    I1_24  BAL1_25  1
    S1_24  COST  -36.8677935856
    S1_24  BAL1_24  -1
    S1_24  DEM1_24  1
    I1_25  COST  2.22594434738
    I1_25  BAL1_25  -1
    I1_25  BAL1_26  1
    S1_25  COST  -35.7619442581
    S1_25  BAL1_25  -1
    S1_25  DEM1_25  1
    I1_26  COST  2.22594434738
    I1_26  BAL1_26  -1
    I1_26  BAL1_27  1
    S1_26  COST  -36.1034899326
    S1_26  BAL1_26  -1
    S1_26  DEM1_26  1
    I1_27  COST  2.22594434738
    I1_27  BAL1_27  -1
    I1_27  BAL1_28  1
    S1_27  COST  -52.6852274723
    S1_27  BAL1_27  -1
    S1_27  DEM1_27  1
    I1_28  COST  2.22594434738
    I1_28  BAL1_28  -1
    I1_28  BAL1_29  1
    S1_28  COST  -71.3170303867
    S1_28  BAL1_28  -1
    S1_28  DEM1_28  1
    I1_29  COST  2.22594434738
    I1_29  BAL1_29  -1
    I1_29  BAL1_30  1
    S1_29  COST  -37.2857129742
    S1_29  BAL1_29  -1
    S1_29  DEM1_29  1
    I1_30  COST  2.22594434738
    I1_30  BAL1_30  -1
    I1_30  BAL1_31  1
    S1_30  COST  -35.1307485467
    S1_30  BAL1_30  -1
    S1_30  DEM1_30  1
    I1_31  COST  2.22594434738
    I1_31  BAL1_31  -1
    I1_31  BAL1_32  1
    S1_31  COST  -72.3806078721
    S1_31  BAL1_31  -1
    S1_31  DEM1_31  1
    I1_32  COST  2.22594434738
    I1_32  BAL1_32  -1
    I1_32  BAL1_33  1
    S1_32  COST  -52.7718074915
    S1_32  BAL1_32  -1
    S1_32  DEM1_32  1
    I1_33  COST  2.22594434738
    I1_33  BAL1_33  -1
    I1_33  BAL1_34  1
    S1_33  COST  -74.8711548276
    S1_33  BAL1_33  -1
    S1_33  DEM1_33  1
    I1_34  COST  2.22594434738
    I1_34  BAL1_34  -1
    I1_34  BAL1_35  1
    S1_34  COST  -66.1442930193
    S1_34  BAL1_34  -1
    S1_34  DEM1_34  1
    I1_35  COST  2.22594434738
    I1_35  BAL1_35  -1
    S1_35  COST  -59.8574697466
    S1_35  BAL1_35  -1
    S1_35  DEM1_35  1
    I2_0  COST  1.39700430201
    I2_0  BAL2_0  -1
    I2_0  BAL2_1  1
    S2_0  COST  -45.2384232936
    S2_0  BAL2_0  -1
    S2_0  DEM2_0  1
    I2_1  COST  1.39700430201
    I2_1  BAL2_1  -1
    I2_1  BAL2_2  1
    S2_1  COST  -49.2850915843
    S2_1  BAL2_1  -1
    S2_1  DEM2_1  1
    I2_2  COST  1.39700430201
    I2_2  BAL2_2  -1
    I2_2  BAL2_3  1
    S2_2  COST  -50.2553495979
    S2_2  BAL2_2  -1
    S2_2  DEM2_2  1
    I2_3  COST  1.39700430201
    I2_3  BAL2_3  -1
    I2_3  BAL2_4  1
    S2_3  COST  -74.9653769166
    S2_3  BAL2_3  -1
    S2_3  DEM2_3  1
    I2_4  COST  1.39700430201
    I2_4  BAL2_4  -1
    I2_4  BAL2_5  1
    S2_4  COST  -73.3123868916
    S2_4  BAL2_4  -1
    S2_4  DEM2_4  1
    I2_5  COST  1.39700430201
    I2_5  BAL2_5  -1
    I2_5  BAL2_6  1
    S2_5  COST  -46.1266885877
    S2_5  BAL2_5  -1
    S2_5  DEM2_5  1
    I2_6  COST  1.39700430201
    I2_6  BAL2_6  -1
    I2_6  BAL2_7  1
    S2_6  COST  -30.9065003227
    S2_6  BAL2_6  -1
    S2_6  DEM2_6  1
    I2_7  COST  1.39700430201
    I2_7  BAL2_7  -1
    I2_7  BAL2_8  1
    S2_7  COST  -74.1264973549
    S2_7  BAL2_7  -1
    S2_7  DEM2_7  1
    I2_8  COST  1.39700430201
    I2_8  BAL2_8  -1
    I2_8  BAL2_9  1
    S2_8  COST  -43.640710002
    S2_8  BAL2_8  -1
    S2_8  DEM2_8  1
    I2_9  COST  1.39700430201
    I2_9  BAL2_9  -1
    I2_9  BAL2_10  1
    S2_9  COST  -60.5221085616
    S2_9  BAL2_9  -1
    S2_9  DEM2_9  1
    I2_10  COST  1.39700430201
    I2_10  BAL2_10  -1
    I2_10  BAL2_11  1
    S2_10  COST  -54.3662157647
    S2_10  BAL2_10  -1
    S2_10  DEM2_10  1
    I2_11  COST  1.39700430201
    I2_11  BAL2_11  -1
    I2_11  BAL2_12  1
    S2_11  COST  -45.1581162485
    S2_11  BAL2_11  -1
    S2_11  DEM2_11  1
    I2_12  COST  1.39700430201
    I2_12  BAL2_12  -1
    I2_12  BAL2_13  1
    S2_12  COST  -40.5414106128
    S2_12  BAL2_12  -1
    S2_12  DEM2_12  1
    I2_13  COST  1.39700430201
    I2_13  BAL2_13  -1
    I2_13  BAL2_14  1
    S2_13  COST  -64.5170074964
    S2_13  BAL2_13  -1
    S2_13  DEM2_13  1
    I2_14  COST  1.39700430201
    I2_14  BAL2_14  -1
    I2_14  BAL2_15  1
    S2_14  COST  -65.7223013228
    S2_14  BAL2_14  -1
    S2_14  DEM2_14  1
    I2_15  COST  1.39700430201
    I2_15  BAL2_15  -1
    I2_15  BAL2_16  1
    S2_15  COST  -32.4442244853
    S2_15  BAL2_15  -1
    S2_15  DEM2_15  1
    I2_16  COST  1.39700430201
    I2_16  BAL2_16  -1
    I2_16  BAL2_17  1
    S2_16  COST  -45.0612700695
    S2_16  BAL2_16  -1
    S2_16  DEM2_16  1
    I2_17  COST  1.39700430201
    I2_17  BAL2_17  -1
    I2_17  BAL2_18  1
    S2_17  COST  -43.7600533378
    S2_17  BAL2_17  -1
    S2_17  DEM2_17  1
    I2_18  COST  1.39700430201
    I2_18  BAL2_18  -1
    I2_18  BAL2_19  1
    S2_18  COST  -68.1549093505
    S2_18  BAL2_18  -1
    S2_18  DEM2_18  1
    I2_19  COST  1.39700430201
    I2_19  BAL2_19  -1
    I2_19  BAL2_20  1
    S2_19  COST  -51.1178685199
    S2_19  BAL2_19  -1
    S2_19  DEM2_19  1
    I2_20  COST  1.39700430201
    I2_20  BAL2_20  -1
    I2_20  BAL2_21  1
    S2_20  COST  -52.4104152934
    S2_20  BAL2_20  -1
    S2_20  DEM2_20  1
    I2_21  COST  1.39700430201
    I2_21  BAL2_21  -1
    I2_21  BAL2_22  1
    S2_21  COST  -68.9102120307
    S2_21  BAL2_21  -1
    S2_21  DEM2_21  1
    I2_22  COST  1.39700430201
    I2_22  BAL2_22  -1
    I2_22  BAL2_23  1
    S2_22  COST  -50.6663854816
    S2_22  BAL2_22  -1
    S2_22  DEM2_22  1
    I2_23  COST  1.39700430201
    I2_23  BAL2_23  -1
    I2_23  BAL2_24  1
    S2_23  COST  -64.5383716142
    S2_23  BAL2_23  -1
    S2_23  DEM2_23  1
    I2_24  COST  1.39700430201
    I2_24  BAL2_24  -1
    I2_24  BAL2_25  1
    S2_24  COST  -47.34712512
    S2_24  BAL2_24  -1
    S2_24  DEM2_24  1
    I2_25  COST  1.39700430201
    I2_25  BAL2_25  -1
    I2_25  BAL2_26  1
    S2_25  COST  -74.7042867949
    S2_25  BAL2_25  -1
    S2_25  DEM2_25  1
    I2_26  COST  1.39700430201
    I2_26  BAL2_26  -1
    I2_26  BAL2_27  1
    S2_26  COST  -40.8283996387
    S2_26  BAL2_26  -1
    S2_26  DEM2_26  1
    I2_27  COST  1.39700430201
    I2_27  BAL2_27  -1
    I2_27  BAL2_28  1
    S2_27  COST  -72.5150964506
    S2_27  BAL2_27  -1
    S2_27  DEM2_27  1
    I2_28  COST  1.39700430201
    I2_28  BAL2_28  -1
    I2_28  BAL2_29  1
    S2_28  COST  -46.9651944271
    S2_28  BAL2_28  -1
    S2_28  DEM2_28  1
    I2_29  COST  1.39700430201
    I2_29  BAL2_29  -1
    I2_29  BAL2_30  1
    S2_29  COST  -62.0400268514
    S2_29  BAL2_29  -1
    S2_29  DEM2_29  1
    I2_30  COST  1.39700430201
    I2_30  BAL2_30  -1
    I2_30  BAL2_31  1
    S2_30  COST  -42.7078381591
    S2_30  BAL2_30  -1
    S2_30  DEM2_30  1
    I2_31  COST  1.39700430201
    I2_31  BAL2_31  -1
    I2_31  BAL2_32  1
    S2_31  COST  -67.3244049556
    S2_31  BAL2_31  -1
    S2_31  DEM2_31  1
    I2_32  COST  1.39700430201
    I2_32  BAL2_32  -1
    I2_32  BAL2_33  1
    S2_32  COST  -54.045578924
    S2_32  BAL2_32  -1
    S2_32  DEM2_32  1
    I2_33  COST  1.39700430201
    I2_33  BAL2_33  -1
    I2_33  BAL2_34  1
    S2_33  COST  -49.5341357017
    S2_33  BAL2_33  -1
    S2_33  DEM2_33  1
    I2_34  COST  1.39700430201
    I2_34  BAL2_34  -1
    I2_34  BAL2_35  1
    S2_34  COST  -40.20574095
    S2_34  BAL2_34  -1
    S2_34  DEM2_34  1
    I2_35  COST  1.39700430201
    I2_35  BAL2_35  -1
    S2_35  COST  -68.4231939306
    S2_35  BAL2_35  -1
    S2_35  DEM2_35  1
    I3_0  COST  0.807311374382
    I3_0  BAL3_0  -1
    I3_0  BAL3_1  1
    S3_0  COST  -65.7242674198
    S3_0  BAL3_0  -1
    S3_0  DEM3_0  1
    I3_1  COST  0.807311374382
    I3_1  BAL3_1  -1
    I3_1  BAL3_2  1
    S3_1  COST  -56.884403038
    S3_1  BAL3_1  -1
    S3_1  DEM3_1  1
    I3_2  COST  0.807311374382
    I3_2  BAL3_2  -1
    I3_2  BAL3_3  1
    S3_2  COST  -33.0442269122
    S3_2  BAL3_2  -1
    S3_2  DEM3_2  1
    I3_3  COST  0.807311374382
    I3_3  BAL3_3  -1
    I3_3  BAL3_4  1
    S3_3  COST  -38.4037945717
    S3_3  BAL3_3  -1
    S3_3  DEM3_3  1
    I3_4  COST  0.807311374382
    I3_4  BAL3_4  -1
    I3_4  BAL3_5  1
    S3_4  COST  -63.5958907739
    S3_4  BAL3_4  -1
    S3_4  DEM3_4  1
    I3_5  COST  0.807311374382
    I3_5  BAL3_5  -1
    I3_5  BAL3_6  1
    S3_5  COST  -32.9730501756
    S3_5  BAL3_5  -1
    S3_5  DEM3_5  1
    I3_6  COST  0.807311374382
    I3_6  BAL3_6  -1
    I3_6  BAL3_7  1
    S3_6  COST  -37.7050333448
    S3_6  BAL3_6  -1
    S3_6  DEM3_6  1
    I3_7  COST  0.807311374382
    I3_7  BAL3_7  -1
    I3_7  BAL3_8  1
    S3_7  COST  -55.2148119039
    S3_7  BAL3_7  -1
    S3_7  DEM3_7  1
    I3_8  COST  0.807311374382
    I3_8  BAL3_8  -1
    I3_8  BAL3_9  1
    S3_8  COST  -71.4605936234
    S3_8  BAL3_8  -1
    S3_8  DEM3_8  1
    I3_9  COST  0.807311374382
    I3_9  BAL3_9  -1
    I3_9  BAL3_10  1
    S3_9  COST  -62.1722594782
    S3_9  BAL3_9  -1
    S3_9  DEM3_9  1
    I3_10  COST  0.807311374382
    I3_10  BAL3_10  -1
    I3_10  BAL3_11  1
    S3_10  COST  -48.656479529
    S3_10  BAL3_10  -1
    S3_10  DEM3_10  1
    I3_11  COST  0.807311374382
    I3_11  BAL3_11  -1
    I3_11  BAL3_12  1
    S3_11  COST  -52.0270040074
    S3_11  BAL3_11  -1
    S3_11  DEM3_11  1
    I3_12  COST  0.807311374382
    I3_12  BAL3_12  -1
    I3_12  BAL3_13  1
    S3_12  COST  -63.3313555357
    S3_12  BAL3_12  -1
    S3_12  DEM3_12  1
    I3_13  COST  0.807311374382
    I3_13  BAL3_13  -1
    I3_13  BAL3_14  1
    S3_13  COST  -51.1765536559
    S3_13  BAL3_13  -1
    S3_13  DEM3_13  1
    I3_14  COST  0.807311374382
    I3_14  BAL3_14  -1
    I3_14  BAL3_15  1
    S3_14  COST  -49.2640537895
    S3_14  BAL3_14  -1
    S3_14  DEM3_14  1
    I3_15  COST  0.807311374382
    I3_15  BAL3_15  -1
    I3_15  BAL3_16  1
    S3_15  COST  -62.6853937672
    S3_15  BAL3_15  -1
    S3_15  DEM3_15  1
    I3_16  COST  0.807311374382
    I3_16  BAL3_16  -1
    I3_16  BAL3_17  1
    S3_16  COST  -34.194911578
    S3_16  BAL3_16  -1
    S3_16  DEM3_16  1
    I3_17  COST  0.807311374382
    I3_17  BAL3_17  -1
    I3_17  BAL3_18  1
    S3_17  COST  -57.1090675919
    S3_17  BAL3_17  -1
    S3_17  DEM3_17  1
    I3_18  COST  0.807311374382
    I3_18  BAL3_18  -1
    I3_18  BAL3_19  1
    S3_18  COST  -42.3073415637
    S3_18  BAL3_18  -1
    S3_18  DEM3_18  1
    I3_19  COST  0.807311374382
    I3_19  BAL3_19  -1
    I3_19  BAL3_20  1
    S3_19  COST  -34.2400411248
    S3_19  BAL3_19  -1
    S3_19  DEM3_19  1
    I3_20  COST  0.807311374382
    I3_20  BAL3_20  -1
    I3_20  BAL3_21  1
    S3_20  COST  -74.3944237235
    S3_20  BAL3_20  -1
    S3_20  DEM3_20  1
    I3_21  COST  0.807311374382
    I3_21  BAL3_21  -1
    I3_21  BAL3_22  1
    S3_21  COST  -37.5632239419
    S3_21  BAL3_21  -1
    S3_21  DEM3_21  1
    I3_22  COST  0.807311374382
    I3_22  BAL3_22  -1
    I3_22  BAL3_23  1
    S3_22  COST  -69.507292831
    S3_22  BAL3_22  -1
    S3_22  DEM3_22  1
    I3_23  COST  0.807311374382
    I3_23  BAL3_23  -1
    I3_23  BAL3_24  1
    S3_23  COST  -66.8424495778
    S3_23  BAL3_23  -1
    S3_23  DEM3_23  1
    I3_24  COST  0.807311374382
    I3_24  BAL3_24  -1
    I3_24  BAL3_25  1
    S3_24  COST  -60.2708505132
    S3_24  BAL3_24  -1
    S3_24  DEM3_24  1
    I3_25  COST  0.807311374382
    I3_25  BAL3_25  -1
    I3_25  BAL3_26  1
    S3_25  COST  -37.2986958228
    S3_25  BAL3_25  -1
    S3_25  DEM3_25  1
    I3_26  COST  0.807311374382
    I3_26  BAL3_26  -1
    I3_26  BAL3_27  1
    S3_26  COST  -74.6370645307
    S3_26  BAL3_26  -1
    S3_26  DEM3_26  1
    I3_27  COST  0.807311374382
    I3_27  BAL3_27  -1
    I3_27  BAL3_28  1
    S3_27  COST  -33.7369366942
    S3_27  BAL3_27  -1
    S3_27  DEM3_27  1
    I3_28  COST  0.807311374382
    I3_28  BAL3_28  -1
    I3_28  BAL3_29  1
    S3_28  COST  -32.906469966
    S3_28  BAL3_28  -1
    S3_28  DEM3_28  1
    I3_29  COST  0.807311374382
    I3_29  BAL3_29  -1
    I3_29  BAL3_30  1
    S3_29  COST  -48.7366507458
    S3_29  BAL3_29  -1
    S3_29  DEM3_29  1
    I3_30  COST  0.807311374382
    I3_30  BAL3_30  -1
    I3_30  BAL3_31  1
    S3_30  COST  -60.5059396394
    S3_30  BAL3_30  -1
    S3_30  DEM3_30  1
    I3_31  COST  0.807311374382
    I3_31  BAL3_31  -1
    I3_31  BAL3_32  1
    S3_31  COST  -69.2392472117
    S3_31  BAL3_31  -1
    S3_31  DEM3_31  1
    I3_32  COST  0.807311374382
    I3_32  BAL3_32  -1
    I3_32  BAL3_33  1
    S3_32  COST  -68.6568137589
    S3_32  BAL3_32  -1
    S3_32  DEM3_32  1
    I3_33  COST  0.807311374382
    I3_33  BAL3_33  -1
    I3_33  BAL3_34  1
    S3_33  COST  -58.7741564224
    S3_33  BAL3_33  -1
    S3_33  DEM3_33  1
    I3_34  COST  0.807311374382
    I3_34  BAL3_34  -1
    I3_34  BAL3_35  1
    S3_34  COST  -41.0256578921
    S3_34  BAL3_34  -1
    S3_34  DEM3_34  1
    I3_35  COST  0.807311374382
    I3_35  BAL3_35  -1
    S3_35  COST  -45.5640232838
    S3_35  BAL3_35  -1
    S3_35  DEM3_35  1
    I4_0  COST  2.03621408889
    I4_0  BAL4_0  -1
    I4_0  BAL4_1  1
    S4_0  COST  -45.4813219731
    S4_0  BAL4_0  -1
    S4_0  DEM4_0  1
    I4_1  COST  2.03621408889
    I4_1  BAL4_1  -1
    I4_1  BAL4_2  1
    S4_1  COST  -38.9590443956
    S4_1  BAL4_1  -1
    S4_1  DEM4_1  1
    I4_2  COST  2.03621408889
    I4_2  BAL4_2  -1
    I4_2  BAL4_3  1
    S4_2  COST  -32.0241022941
    S4_2  BAL4_2  -1
    S4_2  DEM4_2  1
    I4_3  COST  2.03621408889
    I4_3  BAL4_3  -1
    I4_3  BAL4_4  1
    S4_3  COST  -38.3185580263
    S4_3  BAL4_3  -1
    S4_3  DEM4_3  1
    I4_4  COST  2.03621408889
    I4_4  BAL4_4  -1
    I4_4  BAL4_5  1
    S4_4  COST  -68.933306983
    S4_4  BAL4_4  -1
    S4_4  DEM4_4  1
    I4_5  COST  2.03621408889
    I4_5  BAL4_5  -1
    I4_5  BAL4_6  1
    S4_5  COST  -63.1319971408
    S4_5  BAL4_5  -1
    S4_5  DEM4_5  1
    I4_6  COST  2.03621408889
    I4_6  BAL4_6  -1
    I4_6  BAL4_7  1
    S4_6  COST  -54.2560703358
    S4_6  BAL4_6  -1
    S4_6  DEM4_6  1
    I4_7  COST  2.03621408889
    I4_7  BAL4_7  -1
    I4_7  BAL4_8  1
    S4_7  COST  -73.3084617878
    S4_7  BAL4_7  -1
    S4_7  DEM4_7  1
    I4_8  COST  2.03621408889
    I4_8  BAL4_8  -1
    I4_8  BAL4_9  1
    S4_8  COST  -30.8276282426
    S4_8  BAL4_8  -1
    S4_8  DEM4_8  1
    I4_9  COST  2.03621408889
    I4_9  BAL4_9  -1
    I4_9  BAL4_10  1
    S4_9  COST  -74.9976317089
    S4_9  BAL4_9  -1
    S4_9  DEM4_9  1
    I4_10  COST  2.03621408889
    I4_10  BAL4_10  -1
    I4_10  BAL4_11  1
    S4_10  COST  -51.5914424292
    S4_10  BAL4_10  -1
    S4_10  DEM4_10  1
    I4_11  COST  2.03621408889
    I4_11  BAL4_11  -1
    I4_11  BAL4_12  1
    S4_11  COST  -48.4232297405
    S4_11  BAL4_11  -1
    S4_11  DEM4_11  1
    I4_12  COST  2.03621408889
    I4_12  BAL4_12  -1
    I4_12  BAL4_13  1
    S4_12  COST  -42.78165485
    S4_12  BAL4_12  -1
    S4_12  DEM4_12  1
    I4_13  COST  2.03621408889
    I4_13  BAL4_13  -1
    I4_13  BAL4_14  1
    S4_13  COST  -72.0667961056
    S4_13  BAL4_13  -1
    S4_13  DEM4_13  1
    I4_14  COST  2.03621408889
    I4_14  BAL4_14  -1
    I4_14  BAL4_15  1
    S4_14  COST  -63.1439642204
    S4_14  BAL4_14  -1
    S4_14  DEM4_14  1
    I4_15  COST  2.03621408889
    I4_15  BAL4_15  -1
    I4_15  BAL4_16  1
    S4_15  COST  -60.5987199214
    S4_15  BAL4_15  -1
    S4_15  DEM4_15  1
    I4_16  COST  2.03621408889
    I4_16  BAL4_16  -1
    I4_16  BAL4_17  1
    S4_16  COST  -31.3499648596
    S4_16  BAL4_16  -1
    S4_16  DEM4_16  1
    I4_17  COST  2.03621408889
    I4_17  BAL4_17  -1
    I4_17  BAL4_18  1
    S4_17  COST  -47.9489046156
    S4_17  BAL4_17  -1
    S4_17  DEM4_17  1
    I4_18  COST  2.03621408889
    I4_18  BAL4_18  -1
    I4_18  BAL4_19  1
    S4_18  COST  -45.8878733736
    S4_18  BAL4_18  -1
    S4_18  DEM4_18  1
    I4_19  COST  2.03621408889
    I4_19  BAL4_19  -1
    I4_19  BAL4_20  1
    S4_19  COST  -74.7077717496
    S4_19  BAL4_19  -1
    S4_19  DEM4_19  1
    I4_20  COST  2.03621408889
    I4_20  BAL4_20  -1
    I4_20  BAL4_21  1
    S4_20  COST  -36.8754474979
    S4_20  BAL4_20  -1
    S4_20  DEM4_20  1
    I4_21  COST  2.03621408889
    I4_21  BAL4_21  -1
    I4_21  BAL4_22  1
    S4_21  COST  -32.6877772537
    S4_21  BAL4_21  -1
    S4_21  DEM4_21  1
    I4_22  COST  2.03621408889
    I4_22  BAL4_22  -1
    I4_22  BAL4_23  1
    S4_22  COST  -45.8295030011
    S4_22  BAL4_22  -1
    S4_22  DEM4_22  1
    I4_23  COST  2.03621408889
    I4_23  BAL4_23  -1
    I4_23  BAL4_24  1
    S4_23  COST  -35.6489546823
    S4_23  BAL4_23  -1
    S4_23  DEM4_23  1
    I4_24  COST  2.03621408889
    I4_24  BAL4_24  -1
    I4_24  BAL4_25  1
    S4_24  COST  -52.6292915457
    S4_24  BAL4_24  -1
    S4_24  DEM4_24  1
    I4_25  COST  2.03621408889
    I4_25  BAL4_25  -1
    I4_25  BAL4_26  1
    S4_25  COST  -62.5106410093
    S4_25  BAL4_25  -1
    S4_25  DEM4_25  1
    I4_26  COST  2.03621408889
    I4_26  BAL4_26  -1
    I4_26  BAL4_27  1
    S4_26  COST  -66.7747794766
    S4_26  BAL4_26  -1
    S4_26  DEM4_26  1
    I4_27  COST  2.03621408889
    I4_27  BAL4_27  -1
    I4_27  BAL4_28  1
    S4_27  COST  -45.5405957903
    S4_27  BAL4_27  -1
    S4_27  DEM4_27  1
    I4_28  COST  2.03621408889
    I4_28  BAL4_28  -1
    I4_28  BAL4_29  1
    S4_28  COST  -72.5880037789
    S4_28  BAL4_28  -1
    S4_28  DEM4_28  1
    I4_29  COST  2.03621408889
    I4_29  BAL4_29  -1
    I4_29  BAL4_30  1
    S4_29  COST  -73.9330265264
    S4_29  BAL4_29  -1
    S4_29  DEM4_29  1
    I4_30  COST  2.03621408889
    I4_30  BAL4_30  -1
    I4_30  BAL4_31  1
    S4_30  COST  -32.9028866578
    S4_30  BAL4_30  -1
    S4_30  DEM4_30  1
    I4_31  COST  2.03621408889
    I4_31  BAL4_31  -1
    I4_31  BAL4_32  1
    S4_31  COST  -40.7037253718
    S4_31  BAL4_31  -1
    S4_31  DEM4_31  1
    I4_32  COST  2.03621408889
    I4_32  BAL4_32  -1
    I4_32  BAL4_33  1
    S4_32  COST  -49.4667112885
    S4_32  BAL4_32  -1
    S4_32  DEM4_32  1
    I4_33  COST  2.03621408889
    I4_33  BAL4_33  -1
    I4_33  BAL4_34  1
    S4_33  COST  -30.8684982099
    S4_33  BAL4_33  -1
    S4_33  DEM4_33  1
    I4_34  COST  2.03621408889
    I4_34  BAL4_34  -1
    I4_34  BAL4_35  1
    S4_34  COST  -74.0951844578
    S4_34  BAL4_34  -1
    S4_34  DEM4_34  1
    I4_35  COST  2.03621408889
    I4_35  BAL4_35  -1
    S4_35  COST  -34.9881757255
    S4_35  BAL4_35  -1
    S4_35  DEM4_35  1
    I5_0  COST  1.75816673532
    I5_0  BAL5_0  -1
    I5_0  BAL5_1  1
    S5_0  COST  -46.9847429338
    S5_0  BAL5_0  -1
    S5_0  DEM5_0  1
    I5_1  COST  1.75816673532
    I5_1  BAL5_1  -1
    I5_1  BAL5_2  1
    S5_1  COST  -56.9513104987
    S5_1  BAL5_1  -1
    S5_1  DEM5_1  1
    I5_2  COST  1.75816673532
    I5_2  BAL5_2  -1
    I5_2  BAL5_3  1
    S5_2  COST  -70.1074448883
    S5_2  BAL5_2  -1
    S5_2  DEM5_2  1
    I5_3  COST  1.75816673532
    I5_3  BAL5_3  -1
    I5_3  BAL5_4  1
    S5_3  COST  -58.4186150264
    S5_3  BAL5_3  -1
    S5_3  DEM5_3  1
    I5_4  COST  1.75816673532
    I5_4  BAL5_4  -1
    I5_4  BAL5_5  1
    S5_4  COST  -60.6562715795
    S5_4  BAL5_4  -1
    S5_4  DEM5_4  1
    I5_5  COST  1.75816673532
    I5_5  BAL5_5  -1
    I5_5  BAL5_6  1
    S5_5  COST  -71.5039884623
    S5_5  BAL5_5  -1
    S5_5  DEM5_5  1
    I5_6  COST  1.75816673532
    I5_6  BAL5_6  -1
    I5_6  BAL5_7  1
    S5_6  COST  -62.6881038315
    S5_6  BAL5_6  -1
    S5_6  DEM5_6  1
    I5_7  COST  1.75816673532
    I5_7  BAL5_7  -1
    I5_7  BAL5_8  1
    S5_7  COST  -55.4926945639
    S5_7  BAL5_7  -1
    S5_7  DEM5_7  1
    I5_8  COST  1.75816673532
    I5_8  BAL5_8  -1
    I5_8  BAL5_9  1
    S5_8  COST  -48.1137219881
    S5_8  BAL5_8  -1
    S5_8  DEM5_8  1
    I5_9  COST  1.75816673532
    I5_9  BAL5_9  -1
    I5_9  BAL5_10  1
    S5_9  COST  -55.245375988
    S5_9  BAL5_9  -1
    S5_9  DEM5_9  1
    I5_10  COST  1.75816673532
    I5_10  BAL5_10  -1
    I5_10  BAL5_11  1
    S5_10  COST  -64.2447929034
    S5_10  BAL5_10  -1
    S5_10  DEM5_10  1
    I5_11  COST  1.75816673532
    I5_11  BAL5_11  -1
    I5_11  BAL5_12  1
    S5_11  COST  -64.3457637432
    S5_11  BAL5_11  -1
    S5_11  DEM5_11  1
    I5_12  COST  1.75816673532
    I5_12  BAL5_12  -1
    I5_12  BAL5_13  1
    S5_12  COST  -47.4600262007
    S5_12  BAL5_12  -1
    S5_12  DEM5_12  1
    I5_13  COST  1.75816673532
    I5_13  BAL5_13  -1
    I5_13  BAL5_14  1
    S5_13  COST  -47.6405821634
    S5_13  BAL5_13  -1
    S5_13  DEM5_13  1
    I5_14  COST  1.75816673532
    I5_14  BAL5_14  -1
    I5_14  BAL5_15  1
    S5_14  COST  -62.8408609748
    S5_14  BAL5_14  -1
    S5_14  DEM5_14  1
    I5_15  COST  1.75816673532
    I5_15  BAL5_15  -1
    I5_15  BAL5_16  1
    S5_15  COST  -68.0776458468
    S5_15  BAL5_15  -1
    S5_15  DEM5_15  1
    I5_16  COST  1.75816673532
    I5_16  BAL5_16  -1
    I5_16  BAL5_17  1
    S5_16  COST  -65.8496795146
    S5_16  BAL5_16  -1
    S5_16  DEM5_16  1
    I5_17  COST  1.75816673532
    I5_17  BAL5_17  -1
    I5_17  BAL5_18  1
    S5_17  COST  -72.5897554405
    S5_17  BAL5_17  -1
    S5_17  DEM5_17  1
    I5_18  COST  1.75816673532
    I5_18  BAL5_18  -1
    I5_18  BAL5_19  1
    S5_18  COST  -48.1260767854
    S5_18  BAL5_18  -1
    S5_18  DEM5_18  1
    I5_19  COST  1.75816673532
    I5_19  BAL5_19  -1
    I5_19  BAL5_20  1
    S5_19  COST  -43.3229098486
    S5_19  BAL5_19  -1
    S5_19  DEM5_19  1
    I5_20  COST  1.75816673532
    I5_20  BAL5_20  -1
    I5_20  BAL5_21  1
    S5_20  COST  -34.7055481433
    S5_20  BAL5_20  -1
    S5_20  DEM5_20  1
    I5_21  COST  1.75816673532
    I5_21  BAL5_21  -1
    I5_21  BAL5_22  1
    S5_21  COST  -71.9594684377
    S5_21  BAL5_21  -1
    S5_21  DEM5_21  1
    I5_22  COST  1.75816673532
    I5_22  BAL5_22  -1
    I5_22  BAL5_23  1
    S5_22  COST  -44.0246941901
    S5_22  BAL5_22  -1
    S5_22  DEM5_22  1
    I5_23  COST  1.75816673532
    I5_23  BAL5_23  -1
    I5_23  BAL5_24  1
    S5_23  COST  -62.6785755895
    S5_23  BAL5_23  -1
    S5_23  DEM5_23  1
    I5_24  COST  1.75816673532
    I5_24  BAL5_24  -1
    I5_24  BAL5_25  1
    S5_24  COST  -40.9790611117
    S5_24  BAL5_24  -1
    S5_24  DEM5_24  1
    I5_25  COST  1.75816673532
    I5_25  BAL5_25  -1
    I5_25  BAL5_26  1
    S5_25  COST  -43.0751603613
    S5_25  BAL5_25  -1
    S5_25  DEM5_25  1
    I5_26  COST  1.75816673532
    I5_26  BAL5_26  -1
    I5_26  BAL5_27  1
    S5_26  COST  -30.3015967744
    S5_26  BAL5_26  -1
    S5_26  DEM5_26  1
    I5_27  COST  1.75816673532
    I5_27  BAL5_27  -1
    I5_27  BAL5_28  1
    S5_27  COST  -74.650930437
    S5_27  BAL5_27  -1
    S5_27  DEM5_27  1
    I5_28  COST  1.75816673532
    I5_28  BAL5_28  -1
    I5_28  BAL5_29  1
    S5_28  COST  -65.326164339
    S5_28  BAL5_28  -1
    S5_28  DEM5_28  1
    I5_29  COST  1.75816673532
    I5_29  BAL5_29  -1
    I5_29  BAL5_30  1
    S5_29  COST  -55.331070935
    S5_29  BAL5_29  -1
    S5_29  DEM5_29  1
    I5_30  COST  1.75816673532
    I5_30  BAL5_30  -1
    I5_30  BAL5_31  1
    S5_30  COST  -35.9950881236
    S5_30  BAL5_30  -1
    S5_30  DEM5_30  1
    I5_31  COST  1.75816673532
    I5_31  BAL5_31  -1
    I5_31  BAL5_32  1
    S5_31  COST  -41.7025653681
    S5_31  BAL5_31  -1
    S5_31  DEM5_31  1
    I5_32  COST  1.75816673532
    I5_32  BAL5_32  -1
    I5_32  BAL5_33  1
    S5_32  COST  -53.0834777196
    S5_32  BAL5_32  -1
    S5_32  DEM5_32  1
    I5_33  COST  1.75816673532
    I5_33  BAL5_33  -1
    I5_33  BAL5_34  1
    S5_33  COST  -55.5204684515
    S5_33  BAL5_33  -1
    S5_33  DEM5_33  1
    I5_34  COST  1.75816673532
    I5_34  BAL5_34  -1
    I5_34  BAL5_35  1
    S5_34  COST  -49.5610752028
    S5_34  BAL5_34  -1
    S5_34  DEM5_34  1
    I5_35  COST  1.75816673532
    I5_35  BAL5_35  -1
    S5_35  COST  -51.7729525183
    S5_35  BAL5_35  -1
    S5_35  DEM5_35  1
    I6_0  COST  2.39666021876
    I6_0  BAL6_0  -1
    I6_0  BAL6_1  1
    S6_0  COST  -63.2509132988
    S6_0  BAL6_0  -1
    S6_0  DEM6_0  1
    I6_1  COST  2.39666021876
    I6_1  BAL6_1  -1
    I6_1  BAL6_2  1
    S6_1  COST  -34.2835222603
    S6_1  BAL6_1  -1
    S6_1  DEM6_1  1
    I6_2  COST  2.39666021876
    I6_2  BAL6_2  -1
    I6_2  BAL6_3  1
    S6_2  COST  -39.8143335786
    S6_2  BAL6_2  -1
    S6_2  DEM6_2  1
    I6_3  COST  2.39666021876
    I6_3  BAL6_3  -1
    I6_3  BAL6_4  1
    S6_3  COST  -58.3053549981
    S6_3  BAL6_3  -1
    S6_3  DEM6_3  1
    I6_4  COST  2.39666021876
    I6_4  BAL6_4  -1
    I6_4  BAL6_5  1
    S6_4  COST  -71.2118500173
    S6_4  BAL6_4  -1
    S6_4  DEM6_4  1
    I6_5  COST  2.39666021876
    I6_5  BAL6_5  -1
    I6_5  BAL6_6  1
    S6_5  COST  -36.1245620671
    S6_5  BAL6_5  -1
    S6_5  DEM6_5  1
    I6_6  COST  2.39666021876
    I6_6  BAL6_6  -1
    I6_6  BAL6_7  1
    S6_6  COST  -62.2960609016
    S6_6  BAL6_6  -1
    S6_6  DEM6_6  1
    I6_7  COST  2.39666021876
    I6_7  BAL6_7  -1
    I6_7  BAL6_8  1
    S6_7  COST  -37.9805525629
    S6_7  BAL6_7  -1
    S6_7  DEM6_7  1
    I6_8  COST  2.39666021876
    I6_8  BAL6_8  -1
    I6_8  BAL6_9  1
    S6_8  COST  -50.2655546578
    S6_8  BAL6_8  -1
    S6_8  DEM6_8  1
    I6_9  COST  2.39666021876
    I6_9  BAL6_9  -1
    I6_9  BAL6_10  1
    S6_9  COST  -51.6264895369
    S6_9  BAL6_9  -1
    S6_9  DEM6_9  1
    I6_10  COST  2.39666021876
    I6_10  BAL6_10  -1
    I6_10  BAL6_11  1
    S6_10  COST  -58.4213150572
    S6_10  BAL6_10  -1
    S6_10  DEM6_10  1
    I6_11  COST  2.39666021876
    I6_11  BAL6_11  -1
    I6_11  BAL6_12  1
    S6_11  COST  -72.485976626
    S6_11  BAL6_11  -1
    S6_11  DEM6_11  1
    I6_12  COST  2.39666021876
    I6_12  BAL6_12  -1
    I6_12  BAL6_13  1
    S6_12  COST  -73.2996918791
    S6_12  BAL6_12  -1
    S6_12  DEM6_12  1
    I6_13  COST  2.39666021876
    I6_13  BAL6_13  -1
    I6_13  BAL6_14  1
    S6_13  COST  -54.5261733229
    S6_13  BAL6_13  -1
    S6_13  DEM6_13  1
    I6_14  COST  2.39666021876
    I6_14  BAL6_14  -1
    I6_14  BAL6_15  1
    S6_14  COST  -64.1108383484
    S6_14  BAL6_14  -1
    S6_14  DEM6_14  1
    I6_15  COST  2.39666021876
    I6_15  BAL6_15  -1
    I6_15  BAL6_16  1
    S6_15  COST  -52.4962830857
    S6_15  BAL6_15  -1
    S6_15  DEM6_15  1
    I6_16  COST  2.39666021876
    I6_16  BAL6_16  -1
    I6_16  BAL6_17  1
    S6_16  COST  -45.8734343434
    S6_16  BAL6_16  -1
    S6_16  DEM6_16  1
    I6_17  COST  2.39666021876
    I6_17  BAL6_17  -1
    I6_17  BAL6_18  1
    S6_17  COST  -55.1198176238
    S6_17  BAL6_17  -1
    S6_17  DEM6_17  1
    I6_18  COST  2.39666021876
    I6_18  BAL6_18  -1
    I6_18  BAL6_19  1
    S6_18  COST  -74.5716848462
    S6_18  BAL6_18  -1
    S6_18  DEM6_18  1
    I6_19  COST  2.39666021876
    I6_19  BAL6_19  -1
    I6_19  BAL6_20  1
    S6_19  COST  -65.4759514262
    S6_19  BAL6_19  -1
    S6_19  DEM6_19  1
    I6_20  COST  2.39666021876
    I6_20  BAL6_20  -1
    I6_20  BAL6_21  1
    S6_20  COST  -74.220118495
    S6_20  BAL6_20  -1
    S6_20  DEM6_20  1
    I6_21  COST  2.39666021876
    I6_21  BAL6_21  -1
    I6_21  BAL6_22  1
    S6_21  COST  -45.7032068546
    S6_21  BAL6_21  -1
    S6_21  DEM6_21  1
    I6_22  COST  2.39666021876
    I6_22  BAL6_22  -1
    I6_22  BAL6_23  1
    S6_22  COST  -52.7387886878
    S6_22  BAL6_22  -1
    S6_22  DEM6_22  1
    I6_23  COST  2.39666021876
    I6_23  BAL6_23  -1
    I6_23  BAL6_24  1
    S6_23  COST  -33.9894952584
    S6_23  BAL6_23  -1
    S6_23  DEM6_23  1
    I6_24  COST  2.39666021876
    I6_24  BAL6_24  -1
    I6_24  BAL6_25  1
    S6_24  COST  -66.8759482432
    S6_24  BAL6_24  -1
    S6_24  DEM6_24  1
    I6_25  COST  2.39666021876
    I6_25  BAL6_25  -1
    I6_25  BAL6_26  1
    S6_25  COST  -58.0833567042
    S6_25  BAL6_25  -1
    S6_25  DEM6_25  1
    I6_26  COST  2.39666021876
    I6_26  BAL6_26  -1
    I6_26  BAL6_27  1
    S6_26  COST  -69.971532707
    S6_26  BAL6_26  -1
    S6_26  DEM6_26  1
    I6_27  COST  2.39666021876
    I6_27  BAL6_27  -1
    I6_27  BAL6_28  1
    S6_27  COST  -56.1087163138
    S6_27  BAL6_27  -1
    S6_27  DEM6_27  1
    I6_28  COST  2.39666021876
    I6_28  BAL6_28  -1
    I6_28  BAL6_29  1
    S6_28  COST  -47.9049862892
    S6_28  BAL6_28  -1
    S6_28  DEM6_28  1
    I6_29  COST  2.39666021876
    I6_29  BAL6_29  -1
    I6_29  BAL6_30  1
    S6_29  COST  -35.2381401848
    S6_29  BAL6_29  -1
    S6_29  DEM6_29  1
    I6_30  COST  2.39666021876
    I6_30  BAL6_30  -1
    I6_30  BAL6_31  1
    S6_30  COST  -33.0582475739
    S6_30  BAL6_30  -1
    S6_30  DEM6_30  1
    I6_31  COST  2.39666021876
    I6_31  BAL6_31  -1
    I6_31  BAL6_32  1
    S6_31  COST  -32.2395838196
    S6_31  BAL6_31  -1
    S6_31  DEM6_31  1
    I6_32  COST  2.39666021876
    I6_32  BAL6_32  -1
    I6_32  BAL6_33  1
    S6_32  COST  -33.7877471756
    S6_32  BAL6_32  -1
    S6_32  DEM6_32  1
    I6_33  COST  2.39666021876
    I6_33  BAL6_33  -1
    I6_33  BAL6_34  1
    S6_33  COST  -39.10624748
    S6_33  BAL6_33  -1
    S6_33  DEM6_33  1
    I6_34  COST  2.39666021876
    I6_34  BAL6_34  -1
    I6_34  BAL6_35  1
    S6_34  COST  -32.450561618
    S6_34  BAL6_34  -1
    S6_34  DEM6_34  1
    I6_35  COST  2.39666021876
    I6_35  BAL6_35  -1
    S6_35  COST  -35.0900034037
    S6_35  BAL6_35  -1
    S6_35  DEM6_35  1
    I7_0  COST  0.729686673876
    I7_0  BAL7_0  -1
    I7_0  BAL7_1  1
    S7_0  COST  -32.0459883654
    S7_0  BAL7_0  -1
    S7_0  DEM7_0  1
    I7_1  COST  0.729686673876
    I7_1  BAL7_1  -1
    I7_1  BAL7_2  1
    S7_1  COST  -66.7272902563
    S7_1  BAL7_1  -1
    S7_1  DEM7_1  1
    I7_2  COST  0.729686673876
    I7_2  BAL7_2  -1
    I7_2  BAL7_3  1
    S7_2  COST  -51.866115222
    S7_2  BAL7_2  -1
    S7_2  DEM7_2  1
    I7_3  COST  0.729686673876
    I7_3  BAL7_3  -1
    I7_3  BAL7_4  1
    S7_3  COST  -39.6619821665
    S7_3  BAL7_3  -1
    S7_3  DEM7_3  1
    I7_4  COST  0.729686673876
    I7_4  BAL7_4  -1
    I7_4  BAL7_5  1
    S7_4  COST  -64.3605999302
    S7_4  BAL7_4  -1
    S7_4  DEM7_4  1
    I7_5  COST  0.729686673876
    I7_5  BAL7_5  -1
    I7_5  BAL7_6  1
    S7_5  COST  -35.2994174717
    S7_5  BAL7_5  -1
    S7_5  DEM7_5  1
    I7_6  COST  0.729686673876
    I7_6  BAL7_6  -1
    I7_6  BAL7_7  1
    S7_6  COST  -59.2499920858
    S7_6  BAL7_6  -1
    S7_6  DEM7_6  1
    I7_7  COST  0.729686673876
    I7_7  BAL7_7  -1
    I7_7  BAL7_8  1
    S7_7  COST  -50.3487278236
    S7_7  BAL7_7  -1
    S7_7  DEM7_7  1
    I7_8  COST  0.729686673876
    I7_8  BAL7_8  -1
    I7_8  BAL7_9  1
    S7_8  COST  -60.9055896227
    S7_8  BAL7_8  -1
    S7_8  DEM7_8  1
    I7_9  COST  0.729686673876
    I7_9  BAL7_9  -1
    I7_9  BAL7_10  1
    S7_9  COST  -52.5186666889
    S7_9  BAL7_9  -1
    S7_9  DEM7_9  1
    I7_10  COST  0.729686673876
    I7_10  BAL7_10  -1
    I7_10  BAL7_11  1
    S7_10  COST  -51.1064880515
    S7_10  BAL7_10  -1
    S7_10  DEM7_10  1
    I7_11  COST  0.729686673876
    I7_11  BAL7_11  -1
    I7_11  BAL7_12  1
    S7_11  COST  -38.2488076584
    S7_11  BAL7_11  -1
    S7_11  DEM7_11  1
    I7_12  COST  0.729686673876
    I7_12  BAL7_12  -1
    I7_12  BAL7_13  1
    S7_12  COST  -66.802294638
    S7_12  BAL7_12  -1
    S7_12  DEM7_12  1
    I7_13  COST  0.729686673876
    I7_13  BAL7_13  -1
    I7_13  BAL7_14  1
    S7_13  COST  -32.8169736296
    S7_13  BAL7_13  -1
    S7_13  DEM7_13  1
    I7_14  COST  0.729686673876
    I7_14  BAL7_14  -1
    I7_14  BAL7_15  1
    S7_14  COST  -67.4252634081
    S7_14  BAL7_14  -1
    S7_14  DEM7_14  1
    I7_15  COST  0.729686673876
    I7_15  BAL7_15  -1
    I7_15  BAL7_16  1
    S7_15  COST  -58.837610192
    S7_15  BAL7_15  -1
    S7_15  DEM7_15  1
    I7_16  COST  0.729686673876
    I7_16  BAL7_16  -1
    I7_16  BAL7_17  1
    S7_16  COST  -54.1953694272
    S7_16  BAL7_16  -1
    S7_16  DEM7_16  1
    I7_17  COST  0.729686673876
    I7_17  BAL7_17  -1
    I7_17  BAL7_18  1
    S7_17  COST  -53.1017460928
    S7_17  BAL7_17  -1
    S7_17  DEM7_17  1
    I7_18  COST  0.729686673876
    I7_18  BAL7_18  -1
    I7_18  BAL7_19  1
    S7_18  COST  -32.5753560779
    S7_18  BAL7_18  -1
    S7_18  DEM7_18  1
    I7_19  COST  0.729686673876
    I7_19  BAL7_19  -1
    I7_19  BAL7_20  1
    S7_19  COST  -63.4112550774
    S7_19  BAL7_19  -1
    S7_19  DEM7_19  1
    I7_20  COST  0.729686673876
    I7_20  BAL7_20  -1
    I7_20  BAL7_21  1
    S7_20  COST  -42.5550246169
    S7_20  BAL7_20  -1
    S7_20  DEM7_20  1
    I7_21  COST  0.729686673876
    I7_21  BAL7_21  -1
    I7_21  BAL7_22  1
    S7_21  COST  -55.271600661
    S7_21  BAL7_21  -1
    S7_21  DEM7_21  1
    I7_22  COST  0.729686673876
    I7_22  BAL7_22  -1
    I7_22  BAL7_23  1
    S7_22  COST  -68.6390129854
    S7_22  BAL7_22  -1
    S7_22  DEM7_22  1
    I7_23  COST  0.729686673876
    I7_23  BAL7_23  -1
    I7_23  BAL7_24  1
    S7_23  COST  -35.4670387626
    S7_23  BAL7_23  -1
    S7_23  DEM7_23  1
    I7_24  COST  0.729686673876
    I7_24  BAL7_24  -1
    I7_24  BAL7_25  1
    S7_24  COST  -36.1931737432
    S7_24  BAL7_24  -1
    S7_24  DEM7_24  1
    I7_25  COST  0.729686673876
    I7_25  BAL7_25  -1
    I7_25  BAL7_26  1
    S7_25  COST  -70.18850606
    S7_25  BAL7_25  -1
    S7_25  DEM7_25  1
    I7_26  COST  0.729686673876
    I7_26  BAL7_26  -1
    I7_26  BAL7_27  1
    S7_26  COST  -31.0684243891
    S7_26  BAL7_26  -1
    S7_26  DEM7_26  1
    I7_27  COST  0.729686673876
    I7_27  BAL7_27  -1
    I7_27  BAL7_28  1
    S7_27  COST  -62.0429208485
    S7_27  BAL7_27  -1
    S7_27  DEM7_27  1
    I7_28  COST  0.729686673876
    I7_28  BAL7_28  -1
    I7_28  BAL7_29  1
    S7_28  COST  -37.7701033589
    S7_28  BAL7_28  -1
    S7_28  DEM7_28  1
    I7_29  COST  0.729686673876
    I7_29  BAL7_29  -1
    I7_29  BAL7_30  1
    S7_29  COST  -63.2932516978
    S7_29  BAL7_29  -1
    S7_29  DEM7_29  1
    I7_30  COST  0.729686673876
    I7_30  BAL7_30  -1
    I7_30  BAL7_31  1
    S7_30  COST  -54.4789736235
    S7_30  BAL7_30  -1
    S7_30  DEM7_30  1
    I7_31  COST  0.729686673876
    I7_31  BAL7_31  -1
    I7_31  BAL7_32  1
    S7_31  COST  -47.2652036641
    S7_31  BAL7_31  -1
    S7_31  DEM7_31  1
    I7_32  COST  0.729686673876
    I7_32  BAL7_32  -1
    I7_32  BAL7_33  1
    S7_32  COST  -52.0345167036
    S7_32  BAL7_32  -1
    S7_32  DEM7_32  1
    I7_33  COST  0.729686673876
    I7_33  BAL7_33  -1
    I7_33  BAL7_34  1
    S7_33  COST  -50.3066295843
    S7_33  BAL7_33  -1
    S7_33  DEM7_33  1
    I7_34  COST  0.729686673876
    I7_34  BAL7_34  -1
    I7_34  BAL7_35  1
    S7_34  COST  -36.0599869515
    S7_34  BAL7_34  -1
    S7_34  DEM7_34  1
    I7_35  COST  0.729686673876
    I7_35  BAL7_35  -1
    S7_35  COST  -34.8360398431
    S7_35  BAL7_35  -1
    S7_35  DEM7_35  1
    I8_0  COST  1.93408858855
    I8_0  BAL8_0  -1
    I8_0  BAL8_1  1
    S8_0  COST  -57.116496544
    S8_0  BAL8_0  -1
    S8_0  DEM8_0  1
    I8_1  COST  1.93408858855
    I8_1  BAL8_1  -1
    I8_1  BAL8_2  1
    S8_1  COST  -68.8651506269
    S8_1  BAL8_1  -1
    S8_1  DEM8_1  1
    I8_2  COST  1.93408858855
    I8_2  BAL8_2  -1
    I8_2  BAL8_3  1
    S8_2  COST  -51.9574373502
    S8_2  BAL8_2  -1
    S8_2  DEM8_2  1
    I8_3  COST  1.93408858855
    I8_3  BAL8_3  -1
    I8_3  BAL8_4  1
    S8_3  COST  -33.3891890642
    S8_3  BAL8_3  -1
    S8_3  DEM8_3  1
    I8_4  COST  1.93408858855
    I8_4  BAL8_4  -1
    I8_4  BAL8_5  1
    S8_4  COST  -64.2786137473
    S8_4  BAL8_4  -1
    S8_4  DEM8_4  1
    I8_5  COST  1.93408858855
    I8_5  BAL8_5  -1
    I8_5  BAL8_6  1
    S8_5  COST  -47.7305321407
    S8_5  BAL8_5  -1
    S8_5  DEM8_5  1
    I8_6  COST  1.93408858855
    I8_6  BAL8_6  -1
    I8_6  BAL8_7  1
    S8_6  COST  -64.8313806943
    S8_6  BAL8_6  -1
    S8_6  DEM8_6  1
    I8_7  COST  1.93408858855
    I8_7  BAL8_7  -1
    I8_7  BAL8_8  1
    S8_7  COST  -50.4446338646
    S8_7  BAL8_7  -1
    S8_7  DEM8_7  1
    I8_8  COST  1.93408858855
    I8_8  BAL8_8  -1
    I8_8  BAL8_9  1
    S8_8  COST  -50.9374112822
    S8_8  BAL8_8  -1
    S8_8  DEM8_8  1
    I8_9  COST  1.93408858855
    I8_9  BAL8_9  -1
    I8_9  BAL8_10  1
    S8_9  COST  -57.8727079768
    S8_9  BAL8_9  -1
    S8_9  DEM8_9  1
    I8_10  COST  1.93408858855
    I8_10  BAL8_10  -1
    I8_10  BAL8_11  1
    S8_10  COST  -68.8111568776
    S8_10  BAL8_10  -1
    S8_10  DEM8_10  1
    I8_11  COST  1.93408858855
    I8_11  BAL8_11  -1
    I8_11  BAL8_12  1
    S8_11  COST  -31.4183070517
    S8_11  BAL8_11  -1
    S8_11  DEM8_11  1
    I8_12  COST  1.93408858855
    I8_12  BAL8_12  -1
    I8_12  BAL8_13  1
    S8_12  COST  -35.2574349822
    S8_12  BAL8_12  -1
    S8_12  DEM8_12  1
    I8_13  COST  1.93408858855
    I8_13  BAL8_13  -1
    I8_13  BAL8_14  1
    S8_13  COST  -61.0158271768
    S8_13  BAL8_13  -1
    S8_13  DEM8_13  1
    I8_14  COST  1.93408858855
    I8_14  BAL8_14  -1
    I8_14  BAL8_15  1
    S8_14  COST  -71.6544181054
    S8_14  BAL8_14  -1
    S8_14  DEM8_14  1
    I8_15  COST  1.93408858855
    I8_15  BAL8_15  -1
    I8_15  BAL8_16  1
    S8_15  COST  -41.341292876
    S8_15  BAL8_15  -1
    S8_15  DEM8_15  1
    I8_16  COST  1.93408858855
    I8_16  BAL8_16  -1
    I8_16  BAL8_17  1
    S8_16  COST  -45.3522027467
    S8_16  BAL8_16  -1
    S8_16  DEM8_16  1
    I8_17  COST  1.93408858855
    I8_17  BAL8_17  -1
    I8_17  BAL8_18  1
    S8_17  COST  -59.0973588819
    S8_17  BAL8_17  -1
    S8_17  DEM8_17  1
    I8_18  COST  1.93408858855
    I8_18  BAL8_18  -1
    I8_18  BAL8_19  1
    S8_18  COST  -35.5880290673
    S8_18  BAL8_18  -1
    S8_18  DEM8_18  1
    I8_19  COST  1.93408858855
    I8_19  BAL8_19  -1
    I8_19  BAL8_20  1
    S8_19  COST  -33.6553219495
    S8_19  BAL8_19  -1
    S8_19  DEM8_19  1
    I8_20  COST  1.93408858855
    I8_20  BAL8_20  -1
    I8_20  BAL8_21  1
    S8_20  COST  -50.7582213223
    S8_20  BAL8_20  -1
    S8_20  DEM8_20  1
    I8_21  COST  1.93408858855
    I8_21  BAL8_21  -1
    I8_21  BAL8_22  1
    S8_21  COST  -72.737103714
    S8_21  BAL8_21  -1
    S8_21  DEM8_21  1
    I8_22  COST  1.93408858855
    I8_22  BAL8_22  -1
    I8_22  BAL8_23  1
    S8_22  COST  -62.2018916882
    S8_22  BAL8_22  -1
    S8_22  DEM8_22  1
    I8_23  COST  1.93408858855
    I8_23  BAL8_23  -1
    I8_23  BAL8_24  1
    S8_23  COST  -71.3043698939
    S8_23  BAL8_23  -1
    S8_23  DEM8_23  1
    I8_24  COST  1.93408858855
    I8_24  BAL8_24  -1
    I8_24  BAL8_25  1
    S8_24  COST  -56.7843304762
    S8_24  BAL8_24  -1
    S8_24  DEM8_24  1
    I8_25  COST  1.93408858855
    I8_25  BAL8_25  -1
    I8_25  BAL8_26  1
    S8_25  COST  -52.4158486769
    S8_25  BAL8_25  -1
    S8_25  DEM8_25  1
    I8_26  COST  1.93408858855
    I8_26  BAL8_26  -1
    I8_26  BAL8_27  1
    S8_26  COST  -61.1237177069
    S8_26  BAL8_26  -1
    S8_26  DEM8_26  1
    I8_27  COST  1.93408858855
    I8_27  BAL8_27  -1
    I8_27  BAL8_28  1
    S8_27  COST  -67.9225057801
    S8_27  BAL8_27  -1
    S8_27  DEM8_27  1
    I8_28  COST  1.93408858855
    I8_28  BAL8_28  -1
    I8_28  BAL8_29  1
    S8_28  COST  -59.3856584828
    S8_28  BAL8_28  -1
    S8_28  DEM8_28  1
    I8_29  COST  1.93408858855
    I8_29  BAL8_29  -1
    I8_29  BAL8_30  1
    S8_29  COST  -58.7538835171
    S8_29  BAL8_29  -1
    S8_29  DEM8_29  1
    I8_30  COST  1.93408858855
    I8_30  BAL8_30  -1
    I8_30  BAL8_31  1
    S8_30  COST  -67.9107202128
    S8_30  BAL8_30  -1
    S8_30  DEM8_30  1
    I8_31  COST  1.93408858855
    I8_31  BAL8_31  -1
    I8_31  BAL8_32  1
    S8_31  COST  -34.5981184669
    S8_31  BAL8_31  -1
    S8_31  DEM8_31  1
    I8_32  COST  1.93408858855
    I8_32  BAL8_32  -1
    I8_32  BAL8_33  1
    S8_32  COST  -42.9578579595
    S8_32  BAL8_32  -1
    S8_32  DEM8_32  1
    I8_33  COST  1.93408858855
    I8_33  BAL8_33  -1
    I8_33  BAL8_34  1
    S8_33  COST  -41.5344896999
    S8_33  BAL8_33  -1
    S8_33  DEM8_33  1
    I8_34  COST  1.93408858855
    I8_34  BAL8_34  -1
    I8_34  BAL8_35  1
    S8_34  COST  -55.4976101536
    S8_34  BAL8_34  -1
    S8_34  DEM8_34  1
    I8_35  COST  1.93408858855
    I8_35  BAL8_35  -1
    S8_35  COST  -46.1942678362
    S8_35  BAL8_35  -1
    S8_35  DEM8_35  1
    I9_0  COST  2.21049258436
    I9_0  BAL9_0  -1
    I9_0  BAL9_1  1
    S9_0  COST  -61.0434873989
    S9_0  BAL9_0  -1
    S9_0  DEM9_0  1
    I9_1  COST  2.21049258436
    I9_1  BAL9_1  -1
    I9_1  BAL9_2  1
    S9_1  COST  -48.0346173458
    S9_1  BAL9_1  -1
    S9_1  DEM9_1  1
    I9_2  COST  2.21049258436
    I9_2  BAL9_2  -1
    I9_2  BAL9_3  1
    S9_2  COST  -52.7004952768
    S9_2  BAL9_2  -1
    S9_2  DEM9_2  1
    I9_3  COST  2.21049258436
    I9_3  BAL9_3  -1
    I9_3  BAL9_4  1
    S9_3  COST  -42.2949949053
    S9_3  BAL9_3  -1
    S9_3  DEM9_3  1
    I9_4  COST  2.21049258436
    I9_4  BAL9_4  -1
    I9_4  BAL9_5  1
    S9_4  COST  -62.5903176799
    S9_4  BAL9_4  -1
    S9_4  DEM9_4  1
    I9_5  COST  2.21049258436
    I9_5  BAL9_5  -1
    I9_5  BAL9_6  1
    S9_5  COST  -57.3704234461
    S9_5  BAL9_5  -1
    S9_5  DEM9_5  1
    I9_6  COST  2.21049258436
    I9_6  BAL9_6  -1
    I9_6  BAL9_7  1
    S9_6  COST  -74.4178603723
    S9_6  BAL9_6  -1
    S9_6  DEM9_6  1
    I9_7  COST  2.21049258436
    I9_7  BAL9_7  -1
    I9_7  BAL9_8  1
    S9_7  COST  -65.8840511628
    S9_7  BAL9_7  -1
    S9_7  DEM9_7  1
    I9_8  COST  2.21049258436
    I9_8  BAL9_8  -1
    I9_8  BAL9_9  1
    S9_8  COST  -36.8859753138
    S9_8  BAL9_8  -1
    S9_8  DEM9_8  1
    I9_9  COST  2.21049258436
    I9_9  BAL9_9  -1
    I9_9  BAL9_10  1
    S9_9  COST  -32.0137200155
    S9_9  BAL9_9  -1
    S9_9  DEM9_9  1
    I9_10  COST  2.21049258436
    I9_10  BAL9_10  -1
    I9_10  BAL9_11  1
    S9_10  COST  -74.9629325472
    S9_10  BAL9_10  -1
    S9_10  DEM9_10  1
    I9_11  COST  2.21049258436
    I9_11  BAL9_11  -1
    I9_11  BAL9_12  1
    S9_11  COST  -71.278188118
    S9_11  BAL9_11  -1
    S9_11  DEM9_11  1
    I9_12  COST  2.21049258436
    I9_12  BAL9_12  -1
    I9_12  BAL9_13  1
    S9_12  COST  -58.2510265929
    S9_12  BAL9_12  -1
    S9_12  DEM9_12  1
    I9_13  COST  2.21049258436
    I9_13  BAL9_13  -1
    I9_13  BAL9_14  1
    S9_13  COST  -39.3089898481
    S9_13  BAL9_13  -1
    S9_13  DEM9_13  1
    I9_14  COST  2.21049258436
    I9_14  BAL9_14  -1
    I9_14  BAL9_15  1
    S9_14  COST  -46.0529316077
    S9_14  BAL9_14  -1
    S9_14  DEM9_14  1
    I9_15  COST  2.21049258436
    I9_15  BAL9_15  -1
    I9_15  BAL9_16  1
    S9_15  COST  -67.6550974846
    S9_15  BAL9_15  -1
    S9_15  DEM9_15  1
    I9_16  COST  2.21049258436
    I9_16  BAL9_16  -1
    I9_16  BAL9_17  1
    S9_16  COST  -41.997834595
    S9_16  BAL9_16  -1
    S9_16  DEM9_16  1
    I9_17  COST  2.21049258436
    I9_17  BAL9_17  -1
    I9_17  BAL9_18  1
    S9_17  COST  -61.8878324449
    S9_17  BAL9_17  -1
    S9_17  DEM9_17  1
    I9_18  COST  2.21049258436
    I9_18  BAL9_18  -1
    I9_18  BAL9_19  1
    S9_18  COST  -73.8541607655
    S9_18  BAL9_18  -1
    S9_18  DEM9_18  1
    I9_19  COST  2.21049258436
    I9_19  BAL9_19  -1
    I9_19  BAL9_20  1
    S9_19  COST  -65.395060855
    S9_19  BAL9_19  -1
    S9_19  DEM9_19  1
    I9_20  COST  2.21049258436
    I9_20  BAL9_20  -1
    I9_20  BAL9_21  1
    S9_20  COST  -61.5549473523
    S9_20  BAL9_20  -1
    S9_20  DEM9_20  1
    I9_21  COST  2.21049258436
    I9_21  BAL9_21  -1
    I9_21  BAL9_22  1
    S9_21  COST  -39.8074160055
    S9_21  BAL9_21  -1
    S9_21  DEM9_21  1
    I9_22  COST  2.21049258436
    I9_22  BAL9_22  -1
    I9_22  BAL9_23  1
    S9_22  COST  -69.0403068495
    S9_22  BAL9_22  -1
    S9_22  DEM9_22  1
    I9_23  COST  2.21049258436
    I9_23  BAL9_23  -1
    I9_23  BAL9_24  1
    S9_23  COST  -54.403726115
    S9_23  BAL9_23  -1
    S9_23  DEM9_23  1
    I9_24  COST  2.21049258436
    I9_24  BAL9_24  -1
    I9_24  BAL9_25  1
    S9_24  COST  -67.6253256626
    S9_24  BAL9_24  -1
    S9_24  DEM9_24  1
    I9_25  COST  2.21049258436
    I9_25  BAL9_25  -1
    I9_25  BAL9_26  1
    S9_25  COST  -60.1824873907
    S9_25  BAL9_25  -1
    S9_25  DEM9_25  1
    I9_26  COST  2.21049258436
    I9_26  BAL9_26  -1
    I9_26  BAL9_27  1
    S9_26  COST  -36.5219116916
    S9_26  BAL9_26  -1
    S9_26  DEM9_26  1
    I9_27  COST  2.21049258436
    I9_27  BAL9_27  -1
    I9_27  BAL9_28  1
    S9_27  COST  -71.9991258452
    S9_27  BAL9_27  -1
    S9_27  DEM9_27  1
    I9_28  COST  2.21049258436
    I9_28  BAL9_28  -1
    I9_28  BAL9_29  1
    S9_28  COST  -49.3244743008
    S9_28  BAL9_28  -1
    S9_28  DEM9_28  1
    I9_29  COST  2.21049258436
    I9_29  BAL9_29  -1
    I9_29  BAL9_30  1
    S9_29  COST  -63.8551913803
    S9_29  BAL9_29  -1
    S9_29  DEM9_29  1
    I9_30  COST  2.21049258436
    I9_30  BAL9_30  -1
    I9_30  BAL9_31  1
    S9_30  COST  -65.8288777497
    S9_30  BAL9_30  -1
    S9_30  DEM9_30  1
    I9_31  COST  2.21049258436
    I9_31  BAL9_31  -1
    I9_31  BAL9_32  1
    S9_31  COST  -59.2618120574
    S9_31  BAL9_31  -1
    S9_31  DEM9_31  1
    I9_32  COST  2.21049258436
    I9_32  BAL9_32  -1
    I9_32  BAL9_33  1
    S9_32  COST  -72.3950272539
    S9_32  BAL9_32  -1
    S9_32  DEM9_32  1
    I9_33  COST  2.21049258436
    I9_33  BAL9_33  -1
    I9_33  BAL9_34  1
    S9_33  COST  -50.256605482
    S9_33  BAL9_33  -1
    S9_33  DEM9_33  1
    I9_34  COST  2.21049258436
    I9_34  BAL9_34  -1
    I9_34  BAL9_35  1
    S9_34  COST  -38.2697975603
    S9_34  BAL9_34  -1
    S9_34  DEM9_34  1
    I9_35  COST  2.21049258436
    I9_35  BAL9_35  -1
    S9_35  COST  -37.0298947729
    S9_35  BAL9_35  -1
    S9_35  DEM9_35  1
    I10_0  COST  0.535171495279
    I10_0  BAL10_0  -1
    I10_0  BAL10_1  1
    S10_0  COST  -69.5045042756
    S10_0  BAL10_0  -1
    S10_0  DEM10_0  1
    I10_1  COST  0.535171495279
    I10_1  BAL10_1  -1
    I10_1  BAL10_2  1
    S10_1  COST  -64.5404085416
    S10_1  BAL10_1  -1
    S10_1  DEM10_1  1
    I10_2  COST  0.535171495279
    I10_2  BAL10_2  -1
    I10_2  BAL10_3  1
    S10_2  COST  -43.8740666196
    S10_2  BAL10_2  -1
    S10_2  DEM10_2  1
    I10_3  COST  0.535171495279
    I10_3  BAL10_3  -1
    I10_3  BAL10_4  1
    S10_3  COST  -52.1337174297
    S10_3  BAL10_3  -1
    S10_3  DEM10_3  1
    I10_4  COST  0.535171495279
    I10_4  BAL10_4  -1
    I10_4  BAL10_5  1
    S10_4  COST  -43.4330961662
    S10_4  BAL10_4  -1
    S10_4  DEM10_4  1
    I10_5  COST  0.535171495279
    I10_5  BAL10_5  -1
    I10_5  BAL10_6  1
    S10_5  COST  -51.3492991902
    S10_5  BAL10_5  -1
    S10_5  DEM10_5  1
    I10_6  COST  0.535171495279
    I10_6  BAL10_6  -1
    I10_6  BAL10_7  1
    S10_6  COST  -36.8362472482
    S10_6  BAL10_6  -1
    S10_6  DEM10_6  1
    I10_7  COST  0.535171495279
    I10_7  BAL10_7  -1
    I10_7  BAL10_8  1
    S10_7  COST  -74.332653689
    S10_7  BAL10_7  -1
    S10_7  DEM10_7  1
    I10_8  COST  0.535171495279
    I10_8  BAL10_8  -1
    I10_8  BAL10_9  1
    S10_8  COST  -45.8781120015
    S10_8  BAL10_8  -1
    S10_8  DEM10_8  1
    I10_9  COST  0.535171495279
    I10_9  BAL10_9  -1
    I10_9  BAL10_10  1
    S10_9  COST  -33.256677323
    S10_9  BAL10_9  -1
    S10_9  DEM10_9  1
    I10_10  COST  0.535171495279
    I10_10  BAL10_10  -1
    I10_10  BAL10_11  1
    S10_10  COST  -44.9969996377
    S10_10  BAL10_10  -1
    S10_10  DEM10_10  1
    I10_11  COST  0.535171495279
    I10_11  BAL10_11  -1
    I10_11  BAL10_12  1
    S10_11  COST  -56.2784336935
    S10_11  BAL10_11  -1
    S10_11  DEM10_11  1
    I10_12  COST  0.535171495279
    I10_12  BAL10_12  -1
    I10_12  BAL10_13  1
    S10_12  COST  -42.1771196676
    S10_12  BAL10_12  -1
    S10_12  DEM10_12  1
    I10_13  COST  0.535171495279
    I10_13  BAL10_13  -1
    I10_13  BAL10_14  1
    S10_13  COST  -56.699608513
    S10_13  BAL10_13  -1
    S10_13  DEM10_13  1
    I10_14  COST  0.535171495279
    I10_14  BAL10_14  -1
    I10_14  BAL10_15  1
    S10_14  COST  -50.6856780072
    S10_14  BAL10_14  -1
    S10_14  DEM10_14  1
    I10_15  COST  0.535171495279
    I10_15  BAL10_15  -1
    I10_15  BAL10_16  1
    S10_15  COST  -39.4602904553
    S10_15  BAL10_15  -1
    S10_15  DEM10_15  1
    I10_16  COST  0.535171495279
    I10_16  BAL10_16  -1
    I10_16  BAL10_17  1
    S10_16  COST  -69.6141445442
    S10_16  BAL10_16  -1
    S10_16  DEM10_16  1
    I10_17  COST  0.535171495279
    I10_17  BAL10_17  -1
    I10_17  BAL10_18  1
    S10_17  COST  -50.1302970366
    S10_17  BAL10_17  -1
    S10_17  DEM10_17  1
    I10_18  COST  0.535171495279
    I10_18  BAL10_18  -1
    I10_18  BAL10_19  1
    S10_18  COST  -46.8540598009
    S10_18  BAL10_18  -1
    S10_18  DEM10_18  1
    I10_19  COST  0.535171495279
    I10_19  BAL10_19  -1
    I10_19  BAL10_20  1
    S10_19  COST  -74.6409992667
    S10_19  BAL10_19  -1
    S10_19  DEM10_19  1
    I10_20  COST  0.535171495279
    I10_20  BAL10_20  -1
    I10_20  BAL10_21  1
    S10_20  COST  -50.7092625524
    S10_20  BAL10_20  -1
    S10_20  DEM10_20  1
    I10_21  COST  0.535171495279
    I10_21  BAL10_21  -1
    I10_21  BAL10_22  1
    S10_21  COST  -71.5048811198
    S10_21  BAL10_21  -1
    S10_21  DEM10_21  1
    I10_22  COST  0.535171495279
    I10_22  BAL10_22  -1
    I10_22  BAL10_23  1
    S10_22  COST  -59.0628059734
    S10_22  BAL10_22  -1
    S10_22  DEM10_22  1
    I10_23  COST  0.535171495279
    I10_23  BAL10_23  -1
    I10_23  BAL10_24  1
    S10_23  COST  -35.0215511293
    S10_23  BAL10_23  -1
    S10_23  DEM10_23  1
    I10_24  COST  0.535171495279
    I10_24  BAL10_24  -1
    I10_24  BAL10_25  1
    S10_24  COST  -61.4945547409
    S10_24  BAL10_24  -1
    S10_24  DEM10_24  1
    I10_25  COST  0.535171495279
    I10_25  BAL10_25  -1
    I10_25  BAL10_26  1
    S10_25  COST  -72.3216700477
    S10_25  BAL10_25  -1
    S10_25  DEM10_25  1
    I10_26  COST  0.535171495279
    I10_26  BAL10_26  -1
    I10_26  BAL10_27  1
    S10_26  COST  -38.6854632842
    S10_26  BAL10_26  -1
    S10_26  DEM10_26  1
    I10_27  COST  0.535171495279
    I10_27  BAL10_27  -1
    I10_27  BAL10_28  1
    S10_27  COST  -41.7246640287
    S10_27  BAL10_27  -1
    S10_27  DEM10_27  1
    I10_28  COST  0.535171495279
    I10_28  BAL10_28  -1
    I10_28  BAL10_29  1
    S10_28  COST  -43.0567907903
    S10_28  BAL10_28  -1
    S10_28  DEM10_28  1
    I10_29  COST  0.535171495279
    I10_29  BAL10_29  -1
    I10_29  BAL10_30  1
    S10_29  COST  -54.0803784132
    S10_29  BAL10_29  -1
    S10_29  DEM10_29  1
    I10_30  COST  0.535171495279
    I10_30  BAL10_30  -1
    I10_30  BAL10_31  1
    S10_30  COST  -71.4557233389
    S10_30  BAL10_30  -1
    S10_30  DEM10_30  1
    I10_31  COST  0.535171495279
    I10_31  BAL10_31  -1
    I10_31  BAL10_32  1
    S10_31  COST  -38.7659468967
    S10_31  BAL10_31  -1
    S10_31  DEM10_31  1
    I10_32  COST  0.535171495279
    I10_32  BAL10_32  -1
    I10_32  BAL10_33  1
    S10_32  COST  -53.4406240461
    S10_32  BAL10_32  -1
    S10_32  DEM10_32  1
    I10_33  COST  0.535171495279
    I10_33  BAL10_33  -1
    I10_33  BAL10_34  1
    S10_33  COST  -64.5533263272
    S10_33  BAL10_33  -1
    S10_33  DEM10_33  1
    I10_34  COST  0.535171495279
    I10_34  BAL10_34  -1
    I10_34  BAL10_35  1
    S10_34  COST  -38.0003245151
    S10_34  BAL10_34  -1
    S10_34  DEM10_34  1
    I10_35  COST  0.535171495279
    I10_35  BAL10_35  -1
    S10_35  COST  -35.5996491516
    S10_35  BAL10_35  -1
    S10_35  DEM10_35  1
    I11_0  COST  1.85989894415
    I11_0  BAL11_0  -1
    I11_0  BAL11_1  1
    S11_0  COST  -57.3339296995
    S11_0  BAL11_0  -1
    S11_0  DEM11_0  1
    I11_1  COST  1.85989894415
    I11_1  BAL11_1  -1
    I11_1  BAL11_2  1
    S11_1  COST  -56.6154715271
    S11_1  BAL11_1  -1
    S11_1  DEM11_1  1
    I11_2  COST  1.85989894415
    I11_2  BAL11_2  -1
    I11_2  BAL11_3  1
    S11_2  COST  -62.9764277947
    S11_2  BAL11_2  -1
    S11_2  DEM11_2  1
    I11_3  COST  1.85989894415
    I11_3  BAL11_3  -1
    I11_3  BAL11_4  1
    S11_3  COST  -40.5944883651
    S11_3  BAL11_3  -1
    S11_3  DEM11_3  1
    I11_4  COST  1.85989894415
    I11_4  BAL11_4  -1
    I11_4  BAL11_5  1
    S11_4  COST  -57.0384706613
    S11_4  BAL11_4  -1
    S11_4  DEM11_4  1
    I11_5  COST  1.85989894415
    I11_5  BAL11_5  -1
    I11_5  BAL11_6  1
    S11_5  COST  -74.8540397656
    S11_5  BAL11_5  -1
    S11_5  DEM11_5  1
    I11_6  COST  1.85989894415
    I11_6  BAL11_6  -1
    I11_6  BAL11_7  1
    S11_6  COST  -68.1388951416
    S11_6  BAL11_6  -1
    S11_6  DEM11_6  1
    I11_7  COST  1.85989894415
    I11_7  BAL11_7  -1
    I11_7  BAL11_8  1
    S11_7  COST  -53.9353084892
    S11_7  BAL11_7  -1
    S11_7  DEM11_7  1
    I11_8  COST  1.85989894415
    I11_8  BAL11_8  -1
    I11_8  BAL11_9  1
    S11_8  COST  -50.4612376514
    S11_8  BAL11_8  -1
    S11_8  DEM11_8  1
    I11_9  COST  1.85989894415
    I11_9  BAL11_9  -1
    I11_9  BAL11_10  1
    S11_9  COST  -36.8584511607
    S11_9  BAL11_9  -1
    S11_9  DEM11_9  1
    I11_10  COST  1.85989894415
    I11_10  BAL11_10  -1
    I11_10  BAL11_11  1
    S11_10  COST  -43.7024047269
    S11_10  BAL11_10  -1
    S11_10  DEM11_10  1
    I11_11  COST  1.85989894415
    I11_11  BAL11_11  -1
    I11_11  BAL11_12  1
    S11_11  COST  -40.9514061946
    S11_11  BAL11_11  -1
    S11_11  DEM11_11  1
    I11_12  COST  1.85989894415
    I11_12  BAL11_12  -1
    I11_12  BAL11_13  1
    S11_12  COST  -43.0073463701
    S11_12  BAL11_12  -1
    S11_12  DEM11_12  1
    I11_13  COST  1.85989894415
    I11_13  BAL11_13  -1
    I11_13  BAL11_14  1
    S11_13  COST  -45.1068097153
    S11_13  BAL11_13  -1
    S11_13  DEM11_13  1
    I11_14  COST  1.85989894415
    I11_14  BAL11_14  -1
    I11_14  BAL11_15  1
    S11_14  COST  -61.628958435
    S11_14  BAL11_14  -1
    S11_14  DEM11_14  1
    I11_15  COST  1.85989894415
    I11_15  BAL11_15  -1
    I11_15  BAL11_16  1
    S11_15  COST  -41.9585302648
    S11_15  BAL11_15  -1
    S11_15  DEM11_15  1
    I11_16  COST  1.85989894415
    I11_16  BAL11_16  -1
    I11_16  BAL11_17  1
    S11_16  COST  -68.6751257019
    S11_16  BAL11_16  -1
    S11_16  DEM11_16  1
    I11_17  COST  1.85989894415
    I11_17  BAL11_17  -1
    I11_17  BAL11_18  1
    S11_17  COST  -35.3615845655
    S11_17  BAL11_17  -1
    S11_17  DEM11_17  1
    I11_18  COST  1.85989894415
    I11_18  BAL11_18  -1
    I11_18  BAL11_19  1
    S11_18  COST  -56.3440315444
    S11_18  BAL11_18  -1
    S11_18  DEM11_18  1
    I11_19  COST  1.85989894415
    I11_19  BAL11_19  -1
    I11_19  BAL11_20  1
    S11_19  COST  -30.5068942983
    S11_19  BAL11_19  -1
    S11_19  DEM11_19  1
    I11_20  COST  1.85989894415
    I11_20  BAL11_20  -1
    I11_20  BAL11_21  1
    S11_20  COST  -48.3957594979
    S11_20  BAL11_20  -1
    S11_20  DEM11_20  1
    I11_21  COST  1.85989894415
    I11_21  BAL11_21  -1
    I11_21  BAL11_22  1
    S11_21  COST  -61.7749848066
    S11_21  BAL11_21  -1
    S11_21  DEM11_21  1
    I11_22  COST  1.85989894415
    I11_22  BAL11_22  -1
    I11_22  BAL11_23  1
    S11_22  COST  -64.1587342756
    S11_22  BAL11_22  -1
    S11_22  DEM11_22  1
    I11_23  COST  1.85989894415
    I11_23  BAL11_23  -1
    I11_23  BAL11_24  1
    S11_23  COST  -30.0073271786
    S11_23  BAL11_23  -1
    S11_23  DEM11_23  1
    I11_24  COST  1.85989894415
    I11_24  BAL11_24  -1
    I11_24  BAL11_25  1
    S11_24  COST  -59.3213684487
    S11_24  BAL11_24  -1
    S11_24  DEM11_24  1
    I11_25  COST  1.85989894415
    I11_25  BAL11_25  -1
    I11_25  BAL11_26  1
    S11_25  COST  -38.351813787
    S11_25  BAL11_25  -1
    S11_25  DEM11_25  1
    I11_26  COST  1.85989894415
    I11_26  BAL11_26  -1
    I11_26  BAL11_27  1
    S11_26  COST  -42.5406403378
    S11_26  BAL11_26  -1
    S11_26  DEM11_26  1
    I11_27  COST  1.85989894415
    I11_27  BAL11_27  -1
    I11_27  BAL11_28  1
    S11_27  COST  -36.0682804504
    S11_27  BAL11_27  -1
    S11_27  DEM11_27  1
    I11_28  COST  1.85989894415
    I11_28  BAL11_28  -1
    I11_28  BAL11_29  1
    S11_28  COST  -49.3296877123
    S11_28  BAL11_28  -1
    S11_28  DEM11_28  1
    I11_29  COST  1.85989894415
    I11_29  BAL11_29  -1
    I11_29  BAL11_30  1
    S11_29  COST  -34.201474643
    S11_29  BAL11_29  -1
    S11_29  DEM11_29  1
    I11_30  COST  1.85989894415
    I11_30  BAL11_30  -1
    I11_30  BAL11_31  1
    S11_30  COST  -41.7435851268
    S11_30  BAL11_30  -1
    S11_30  DEM11_30  1
    I11_31  COST  1.85989894415
    I11_31  BAL11_31  -1
    I11_31  BAL11_32  1
    S11_31  COST  -64.9550723141
    S11_31  BAL11_31  -1
    S11_31  DEM11_31  1
    I11_32  COST  1.85989894415
    I11_32  BAL11_32  -1
    I11_32  BAL11_33  1
    S11_32  COST  -71.4895691651
    S11_32  BAL11_32  -1
    S11_32  DEM11_32  1
    I11_33  COST  1.85989894415
    I11_33  BAL11_33  -1
    I11_33  BAL11_34  1
    S11_33  COST  -63.843627829
    S11_33  BAL11_33  -1
    S11_33  DEM11_33  1
    I11_34  COST  1.85989894415
    I11_34  BAL11_34  -1
    I11_34  BAL11_35  1
    S11_34  COST  -36.3502954124
    S11_34  BAL11_34  -1
    S11_34  DEM11_34  1
    I11_35  COST  1.85989894415
    I11_35  BAL11_35  -1
    S11_35  COST  -39.6710952938
    S11_35  BAL11_35  -1
    S11_35  DEM11_35  1
    I12_0  COST  1.30330878135
    I12_0  BAL12_0  -1
    I12_0  BAL12_1  1
    S12_0  COST  -41.3372317822
    S12_0  BAL12_0  -1
    S12_0  DEM12_0  1
    I12_1  COST  1.30330878135
    I12_1  BAL12_1  -1
    I12_1  BAL12_2  1
    S12_1  COST  -44.2789221019
    S12_1  BAL12_1  -1
    S12_1  DEM12_1  1
    I12_2  COST  1.30330878135
    I12_2  BAL12_2  -1
    I12_2  BAL12_3  1
    S12_2  COST  -71.45460193
    S12_2  BAL12_2  -1
    S12_2  DEM12_2  1
    I12_3  COST  1.30330878135
    I12_3  BAL12_3  -1
    I12_3  BAL12_4  1
    S12_3  COST  -34.0537680975
    S12_3  BAL12_3  -1
    S12_3  DEM12_3  1
    I12_4  COST  1.30330878135
    I12_4  BAL12_4  -1
    I12_4  BAL12_5  1
    S12_4  COST  -52.5565253236
    S12_4  BAL12_4  -1
    S12_4  DEM12_4  1
    I12_5  COST  1.30330878135
    I12_5  BAL12_5  -1
    I12_5  BAL12_6  1
    S12_5  COST  -35.1853699181
    S12_5  BAL12_5  -1
    S12_5  DEM12_5  1
    I12_6  COST  1.30330878135
    I12_6  BAL12_6  -1
    I12_6  BAL12_7  1
    S12_6  COST  -72.0498641848
    S12_6  BAL12_6  -1
    S12_6  DEM12_6  1
    I12_7  COST  1.30330878135
    I12_7  BAL12_7  -1
    I12_7  BAL12_8  1
    S12_7  COST  -46.6154365043
    S12_7  BAL12_7  -1
    S12_7  DEM12_7  1
    I12_8  COST  1.30330878135
    I12_8  BAL12_8  -1
    I12_8  BAL12_9  1
    S12_8  COST  -60.8851425313
    S12_8  BAL12_8  -1
    S12_8  DEM12_8  1
    I12_9  COST  1.30330878135
    I12_9  BAL12_9  -1
    I12_9  BAL12_10  1
    S12_9  COST  -73.7784751653
    S12_9  BAL12_9  -1
    S12_9  DEM12_9  1
    I12_10  COST  1.30330878135
    I12_10  BAL12_10  -1
    I12_10  BAL12_11  1
    S12_10  COST  -73.8991968327
    S12_10  BAL12_10  -1
    S12_10  DEM12_10  1
    I12_11  COST  1.30330878135
    I12_11  BAL12_11  -1
    I12_11  BAL12_12  1
    S12_11  COST  -33.0011054643
    S12_11  BAL12_11  -1
    S12_11  DEM12_11  1
    I12_12  COST  1.30330878135
    I12_12  BAL12_12  -1
    I12_12  BAL12_13  1
    S12_12  COST  -57.1720946013
    S12_12  BAL12_12  -1
    S12_12  DEM12_12  1
    I12_13  COST  1.30330878135
    I12_13  BAL12_13  -1
    I12_13  BAL12_14  1
    S12_13  COST  -65.2458099535
    S12_13  BAL12_13  -1
    S12_13  DEM12_13  1
    I12_14  COST  1.30330878135
    I12_14  BAL12_14  -1
    I12_14  BAL12_15  1
    S12_14  COST  -37.284622599
    S12_14  BAL12_14  -1
    S12_14  DEM12_14  1
    I12_15  COST  1.30330878135
    I12_15  BAL12_15  -1
    I12_15  BAL12_16  1
    S12_15  COST  -41.3146609769
    S12_15  BAL12_15  -1
    S12_15  DEM12_15  1
    I12_16  COST  1.30330878135
    I12_16  BAL12_16  -1
    I12_16  BAL12_17  1
    S12_16  COST  -34.5785620551
    S12_16  BAL12_16  -1
    S12_16  DEM12_16  1
    I12_17  COST  1.30330878135
    I12_17  BAL12_17  -1
    I12_17  BAL12_18  1
    S12_17  COST  -58.4900430176
    S12_17  BAL12_17  -1
    S12_17  DEM12_17  1
    I12_18  COST  1.30330878135
    I12_18  BAL12_18  -1
    I12_18  BAL12_19  1
    S12_18  COST  -47.1450721233
    S12_18  BAL12_18  -1
    S12_18  DEM12_18  1
    I12_19  COST  1.30330878135
    I12_19  BAL12_19  -1
    I12_19  BAL12_20  1
    S12_19  COST  -31.2624450316
    S12_19  BAL12_19  -1
    S12_19  DEM12_19  1
    I12_20  COST  1.30330878135
    I12_20  BAL12_20  -1
    I12_20  BAL12_21  1
    S12_20  COST  -34.9852044912
    S12_20  BAL12_20  -1
    S12_20  DEM12_20  1
    I12_21  COST  1.30330878135
    I12_21  BAL12_21  -1
    I12_21  BAL12_22  1
    S12_21  COST  -44.5369576866
    S12_21  BAL12_21  -1
    S12_21  DEM12_21  1
    I12_22  COST  1.30330878135
    I12_22  BAL12_22  -1
    I12_22  BAL12_23  1
    S12_22  COST  -66.5597220696
    S12_22  BAL12_22  -1
    S12_22  DEM12_22  1
    I12_23  COST  1.30330878135
    I12_23  BAL12_23  -1
    I12_23  BAL12_24  1
    S12_23  COST  -46.0175009535
    S12_23  BAL12_23  -1
    S12_23  DEM12_23  1
    I12_24  COST  1.30330878135
    I12_24  BAL12_24  -1
    I12_24  BAL12_25  1
    S12_24  COST  -68.9648398243
    S12_24  BAL12_24  -1
    S12_24  DEM12_24  1
    I12_25  COST  1.30330878135
    I12_25  BAL12_25  -1
    I12_25  BAL12_26  1
    S12_25  COST  -41.4901818219
    S12_25  BAL12_25  -1
    S12_25  DEM12_25  1
    I12_26  COST  1.30330878135
    I12_26  BAL12_26  -1
    I12_26  BAL12_27  1
    S12_26  COST  -49.1552809986
    S12_26  BAL12_26  -1
    S12_26  DEM12_26  1
    I12_27  COST  1.30330878135
    I12_27  BAL12_27  -1
    I12_27  BAL12_28  1
    S12_27  COST  -61.9378343466
    S12_27  BAL12_27  -1
    S12_27  DEM12_27  1
    I12_28  COST  1.30330878135
    I12_28  BAL12_28  -1
    I12_28  BAL12_29  1
    S12_28  COST  -57.1461328067
    S12_28  BAL12_28  -1
    S12_28  DEM12_28  1
    I12_29  COST  1.30330878135
    I12_29  BAL12_29  -1
    I12_29  BAL12_30  1
    S12_29  COST  -36.1978237466
    S12_29  BAL12_29  -1
    S12_29  DEM12_29  1
    I12_30  COST  1.30330878135
    I12_30  BAL12_30  -1
    I12_30  BAL12_31  1
    S12_30  COST  -68.0285814579
    S12_30  BAL12_30  -1
    S12_30  DEM12_30  1
    I12_31  COST  1.30330878135
    I12_31  BAL12_31  -1
    I12_31  BAL12_32  1
    S12_31  COST  -61.2128282404
    S12_31  BAL12_31  -1
    S12_31  DEM12_31  1
    I12_32  COST  1.30330878135
    I12_32  BAL12_32  -1
    I12_32  BAL12_33  1
    S12_32  COST  -63.2117796593
    S12_32  BAL12_32  -1
    S12_32  DEM12_32  1
    I12_33  COST  1.30330878135
    I12_33  BAL12_33  -1
    I12_33  BAL12_34  1
    S12_33  COST  -58.0332660065
    S12_33  BAL12_33  -1
    S12_33  DEM12_33  1
    I12_34  COST  1.30330878135
    I12_34  BAL12_34  -1
    I12_34  BAL12_35  1
    S12_34  COST  -65.3441822905
    S12_34  BAL12_34  -1
    S12_34  DEM12_34  1
    I12_35  COST  1.30330878135
    I12_35  BAL12_35  -1
    S12_35  COST  -47.3009814026
    S12_35  BAL12_35  -1
    S12_35  DEM12_35  1
    I13_0  COST  0.594197071479
    I13_0  BAL13_0  -1
    I13_0  BAL13_1  1
    S13_0  COST  -64.7559516025
    S13_0  BAL13_0  -1
    S13_0  DEM13_0  1
    I13_1  COST  0.594197071479
    I13_1  BAL13_1  -1
    I13_1  BAL13_2  1
    S13_1  COST  -33.6188666718
    S13_1  BAL13_1  -1
    S13_1  DEM13_1  1
    I13_2  COST  0.594197071479
    I13_2  BAL13_2  -1
    I13_2  BAL13_3  1
    S13_2  COST  -35.1287826932
    S13_2  BAL13_2  -1
    S13_2  DEM13_2  1
    I13_3  COST  0.594197071479
    I13_3  BAL13_3  -1
    I13_3  BAL13_4  1
    S13_3  COST  -39.9368485398
    S13_3  BAL13_3  -1
    S13_3  DEM13_3  1
    I13_4  COST  0.594197071479
    I13_4  BAL13_4  -1
    I13_4  BAL13_5  1
    S13_4  COST  -53.0025781875
    S13_4  BAL13_4  -1
    S13_4  DEM13_4  1
    I13_5  COST  0.594197071479
    I13_5  BAL13_5  -1
    I13_5  BAL13_6  1
    S13_5  COST  -64.1518670739
    S13_5  BAL13_5  -1
    S13_5  DEM13_5  1
    I13_6  COST  0.594197071479
    I13_6  BAL13_6  -1
    I13_6  BAL13_7  1
    S13_6  COST  -44.3036349647
    S13_6  BAL13_6  -1
    S13_6  DEM13_6  1
    I13_7  COST  0.594197071479
    I13_7  BAL13_7  -1
    I13_7  BAL13_8  1
    S13_7  COST  -64.3293735894
    S13_7  BAL13_7  -1
    S13_7  DEM13_7  1
    I13_8  COST  0.594197071479
    I13_8  BAL13_8  -1
    I13_8  BAL13_9  1
    S13_8  COST  -58.8784099301
    S13_8  BAL13_8  -1
    S13_8  DEM13_8  1
    I13_9  COST  0.594197071479
    I13_9  BAL13_9  -1
    I13_9  BAL13_10  1
    S13_9  COST  -52.7209915337
    S13_9  BAL13_9  -1
    S13_9  DEM13_9  1
    I13_10  COST  0.594197071479
    I13_10  BAL13_10  -1
    I13_10  BAL13_11  1
    S13_10  COST  -65.2813797946
    S13_10  BAL13_10  -1
    S13_10  DEM13_10  1
    I13_11  COST  0.594197071479
    I13_11  BAL13_11  -1
    I13_11  BAL13_12  1
    S13_11  COST  -32.7738523939
    S13_11  BAL13_11  -1
    S13_11  DEM13_11  1
    I13_12  COST  0.594197071479
    I13_12  BAL13_12  -1
    I13_12  BAL13_13  1
    S13_12  COST  -69.9098479356
    S13_12  BAL13_12  -1
    S13_12  DEM13_12  1
    I13_13  COST  0.594197071479
    I13_13  BAL13_13  -1
    I13_13  BAL13_14  1
    S13_13  COST  -56.4487294445
    S13_13  BAL13_13  -1
    S13_13  DEM13_13  1
    I13_14  COST  0.594197071479
    I13_14  BAL13_14  -1
    I13_14  BAL13_15  1
    S13_14  COST  -47.4807576388
    S13_14  BAL13_14  -1
    S13_14  DEM13_14  1
    I13_15  COST  0.594197071479
    I13_15  BAL13_15  -1
    I13_15  BAL13_16  1
    S13_15  COST  -68.5976210884
    S13_15  BAL13_15  -1
    S13_15  DEM13_15  1
    I13_16  COST  0.594197071479
    I13_16  BAL13_16  -1
    I13_16  BAL13_17  1
    S13_16  COST  -52.3393127458
    S13_16  BAL13_16  -1
    S13_16  DEM13_16  1
    I13_17  COST  0.594197071479
    I13_17  BAL13_17  -1
    I13_17  BAL13_18  1
    S13_17  COST  -49.2325685927
    S13_17  BAL13_17  -1
    S13_17  DEM13_17  1
    I13_18  COST  0.594197071479
    I13_18  BAL13_18  -1
    I13_18  BAL13_19  1
    S13_18  COST  -52.9343517675
    S13_18  BAL13_18  -1
    S13_18  DEM13_18  1
    I13_19  COST  0.594197071479
    I13_19  BAL13_19  -1
    I13_19  BAL13_20  1
    S13_19  COST  -48.4744681423
    S13_19  BAL13_19  -1
    S13_19  DEM13_19  1
    I13_20  COST  0.594197071479
    I13_20  BAL13_20  -1
    I13_20  BAL13_21  1
    S13_20  COST  -47.7932200118
    S13_20  BAL13_20  -1
    S13_20  DEM13_20  1
    I13_21  COST  0.594197071479
    I13_21  BAL13_21  -1
    I13_21  BAL13_22  1
    S13_21  COST  -53.3331557879
    S13_21  BAL13_21  -1
    S13_21  DEM13_21  1
    I13_22  COST  0.594197071479
    I13_22  BAL13_22  -1
    I13_22  BAL13_23  1
    S13_22  COST  -39.5387209735
    S13_22  BAL13_22  -1
    S13_22  DEM13_22  1
    I13_23  COST  0.594197071479
    I13_23  BAL13_23  -1
    I13_23  BAL13_24  1
    S13_23  COST  -67.742051753
    S13_23  BAL13_23  -1
    S13_23  DEM13_23  1
    I13_24  COST  0.594197071479
    I13_24  BAL13_24  -1
    I13_24  BAL13_25  1
    S13_24  COST  -66.444444835
    S13_24  BAL13_24  -1
    S13_24  DEM13_24  1
    I13_25  COST  0.594197071479
    I13_25  BAL13_25  -1
    I13_25  BAL13_26  1
    S13_25  COST  -68.4392607707
    S13_25  BAL13_25  -1
    S13_25  DEM13_25  1
    I13_26  COST  0.594197071479
    I13_26  BAL13_26  -1
    I13_26  BAL13_27  1
    S13_26  COST  -61.0169417845
    S13_26  BAL13_26  -1
    S13_26  DEM13_26  1
    I13_27  COST  0.594197071479
    I13_27  BAL13_27  -1
    I13_27  BAL13_28  1
    S13_27  COST  -32.7185711737
    S13_27  BAL13_27  -1
    S13_27  DEM13_27  1
    I13_28  COST  0.594197071479
    I13_28  BAL13_28  -1
    I13_28  BAL13_29  1
    S13_28  COST  -36.3091333896
    S13_28  BAL13_28  -1
    S13_28  DEM13_28  1
    I13_29  COST  0.594197071479
    I13_29  BAL13_29  -1
    I13_29  BAL13_30  1
    S13_29  COST  -65.8954744862
    S13_29  BAL13_29  -1
    S13_29  DEM13_29  1
    I13_30  COST  0.594197071479
    I13_30  BAL13_30  -1
    I13_30  BAL13_31  1
    S13_30  COST  -55.7501465686
    S13_30  BAL13_30  -1
    S13_30  DEM13_30  1
    I13_31  COST  0.594197071479
    I13_31  BAL13_31  -1
    I13_31  BAL13_32  1
    S13_31  COST  -30.4657761191
    S13_31  BAL13_31  -1
    S13_31  DEM13_31  1
    I13_32  COST  0.594197071479
    I13_32  BAL13_32  -1
    I13_32  BAL13_33  1
    S13_32  COST  -53.3802453032
    S13_32  BAL13_32  -1
    S13_32  DEM13_32  1
    I13_33  COST  0.594197071479
    I13_33  BAL13_33  -1
    I13_33  BAL13_34  1
    S13_33  COST  -50.9861892236
    S13_33  BAL13_33  -1
    S13_33  DEM13_33  1
    I13_34  COST  0.594197071479
    I13_34  BAL13_34  -1
    I13_34  BAL13_35  1
    S13_34  COST  -69.0644826453
    S13_34  BAL13_34  -1
    S13_34  DEM13_34  1
    I13_35  COST  0.594197071479
    I13_35  BAL13_35  -1
    S13_35  COST  -44.905926697
    S13_35  BAL13_35  -1
    S13_35  DEM13_35  1
    I14_0  COST  2.44730502081
    I14_0  BAL14_0  -1
    I14_0  BAL14_1  1
    S14_0  COST  -34.6929139241
    S14_0  BAL14_0  -1
    S14_0  DEM14_0  1
    I14_1  COST  2.44730502081
    I14_1  BAL14_1  -1
    I14_1  BAL14_2  1
    S14_1  COST  -71.3271772436
    S14_1  BAL14_1  -1
    S14_1  DEM14_1  1
    I14_2  COST  2.44730502081
    I14_2  BAL14_2  -1
    I14_2  BAL14_3  1
    S14_2  COST  -33.87044514
    S14_2  BAL14_2  -1
    S14_2  DEM14_2  1
    I14_3  COST  2.44730502081
    I14_3  BAL14_3  -1
    I14_3  BAL14_4  1
    S14_3  COST  -43.1086489438
    S14_3  BAL14_3  -1
    S14_3  DEM14_3  1
    I14_4  COST  2.44730502081
    I14_4  BAL14_4  -1
    I14_4  BAL14_5  1
    S14_4  COST  -37.6678159927
    S14_4  BAL14_4  -1
    S14_4  DEM14_4  1
    I14_5  COST  2.44730502081
    I14_5  BAL14_5  -1
    I14_5  BAL14_6  1
    S14_5  COST  -38.5629114157
    S14_5  BAL14_5  -1
    S14_5  DEM14_5  1
    I14_6  COST  2.44730502081
    I14_6  BAL14_6  -1
    I14_6  BAL14_7  1
    S14_6  COST  -42.1310852119
    S14_6  BAL14_6  -1
    S14_6  DEM14_6  1
    I14_7  COST  2.44730502081
    I14_7  BAL14_7  -1
    I14_7  BAL14_8  1
    S14_7  COST  -74.1572990414
    S14_7  BAL14_7  -1
    S14_7  DEM14_7  1
    I14_8  COST  2.44730502081
    I14_8  BAL14_8  -1
    I14_8  BAL14_9  1
    S14_8  COST  -39.3810806979
    S14_8  BAL14_8  -1
    S14_8  DEM14_8  1
    I14_9  COST  2.44730502081
    I14_9  BAL14_9  -1
    I14_9  BAL14_10  1
    S14_9  COST  -64.2027231876
    S14_9  BAL14_9  -1
    S14_9  DEM14_9  1
    I14_10  COST  2.44730502081
    I14_10  BAL14_10  -1
    I14_10  BAL14_11  1
    S14_10  COST  -62.2357157692
    S14_10  BAL14_10  -1
    S14_10  DEM14_10  1
    I14_11  COST  2.44730502081
    I14_11  BAL14_11  -1
    I14_11  BAL14_12  1
    S14_11  COST  -30.6084194159
    S14_11  BAL14_11  -1
    S14_11  DEM14_11  1
    I14_12  COST  2.44730502081
    I14_12  BAL14_12  -1
    I14_12  BAL14_13  1
    S14_12  COST  -38.0042383291
    S14_12  BAL14_12  -1
    S14_12  DEM14_12  1
    I14_13  COST  2.44730502081
    I14_13  BAL14_13  -1
    I14_13  BAL14_14  1
    S14_13  COST  -47.673156364
    S14_13  BAL14_13  -1
    S14_13  DEM14_13  1
    I14_14  COST  2.44730502081
    I14_14  BAL14_14  -1
    I14_14  BAL14_15  1
    S14_14  COST  -62.065404135
    S14_14  BAL14_14  -1
    S14_14  DEM14_14  1
    I14_15  COST  2.44730502081
    I14_15  BAL14_15  -1
    I14_15  BAL14_16  1
    S14_15  COST  -38.6537097295
    S14_15  BAL14_15  -1
    S14_15  DEM14_15  1
    I14_16  COST  2.44730502081
    I14_16  BAL14_16  -1
    I14_16  BAL14_17  1
    S14_16  COST  -50.9275383267
    S14_16  BAL14_16  -1
    S14_16  DEM14_16  1
    I14_17  COST  2.44730502081
    I14_17  BAL14_17  -1
    I14_17  BAL14_18  1
    S14_17  COST  -62.6833975322
    S14_17  BAL14_17  -1
    S14_17  DEM14_17  1
    I14_18  COST  2.44730502081
    I14_18  BAL14_18  -1
    I14_18  BAL14_19  1
    S14_18  COST  -41.2872605827
    S14_18  BAL14_18  -1
    S14_18  DEM14_18  1
    I14_19  COST  2.44730502081
    I14_19  BAL14_19  -1
    I14_19  BAL14_20  1
    S14_19  COST  -32.4292146332
    S14_19  BAL14_19  -1
    S14_19  DEM14_19  1
    I14_20  COST  2.44730502081
    I14_20  BAL14_20  -1
    I14_20  BAL14_21  1
    S14_20  COST  -30.1834625875
    S14_20  BAL14_20  -1
    S14_20  DEM14_20  1
    I14_21  COST  2.44730502081
    I14_21  BAL14_21  -1
    I14_21  BAL14_22  1
    S14_21  COST  -42.9006480179
    S14_21  BAL14_21  -1
    S14_21  DEM14_21  1
    I14_22  COST  2.44730502081
    I14_22  BAL14_22  -1
    I14_22  BAL14_23  1
    S14_22  COST  -66.6226969498
    S14_22  BAL14_22  -1
    S14_22  DEM14_22  1
    I14_23  COST  2.44730502081
    I14_23  BAL14_23  -1
    I14_23  BAL14_24  1
    S14_23  COST  -71.1032879492
    S14_23  BAL14_23  -1
    S14_23  DEM14_23  1
    I14_24  COST  2.44730502081
    I14_24  BAL14_24  -1
    I14_24  BAL14_25  1
    S14_24  COST  -42.6584504051
    S14_24  BAL14_24  -1
    S14_24  DEM14_24  1
    I14_25  COST  2.44730502081
    I14_25  BAL14_25  -1
    I14_25  BAL14_26  1
    S14_25  COST  -65.5091532373
    S14_25  BAL14_25  -1
    S14_25  DEM14_25  1
    I14_26  COST  2.44730502081
    I14_26  BAL14_26  -1
    I14_26  BAL14_27  1
    S14_26  COST  -68.3867014421
    S14_26  BAL14_26  -1
    S14_26  DEM14_26  1
    I14_27  COST  2.44730502081
    I14_27  BAL14_27  -1
    I14_27  BAL14_28  1
    S14_27  COST  -47.5942101252
    S14_27  BAL14_27  -1
    S14_27  DEM14_27  1
    I14_28  COST  2.44730502081
    I14_28  BAL14_28  -1
    I14_28  BAL14_29  1
    S14_28  COST  -71.2045299922
    S14_28  BAL14_28  -1
    S14_28  DEM14_28  1
    I14_29  COST  2.44730502081
    I14_29  BAL14_29  -1
    I14_29  BAL14_30  1
    S14_29  COST  -36.339600094
    S14_29  BAL14_29  -1
    S14_29  DEM14_29  1
    I14_30  COST  2.44730502081
    I14_30  BAL14_30  -1
    I14_30  BAL14_31  1
    S14_30  COST  -57.1274447005
    S14_30  BAL14_30  -1
    S14_30  DEM14_30  1
    I14_31  COST  2.44730502081
    I14_31  BAL14_31  -1
    I14_31  BAL14_32  1
    S14_31  COST  -39.3987693072
    S14_31  BAL14_31  -1
    S14_31  DEM14_31  1
    I14_32  COST  2.44730502081
    I14_32  BAL14_32  -1
    I14_32  BAL14_33  1
    S14_32  COST  -70.9427381857
    S14_32  BAL14_32  -1
    S14_32  DEM14_32  1
    I14_33  COST  2.44730502081
    I14_33  BAL14_33  -1
    I14_33  BAL14_34  1
    S14_33  COST  -38.8393671925
    S14_33  BAL14_33  -1
    S14_33  DEM14_33  1
    I14_34  COST  2.44730502081
    I14_34  BAL14_34  -1
    I14_34  BAL14_35  1
    S14_34  COST  -74.2099875611
    S14_34  BAL14_34  -1
    S14_34  DEM14_34  1
    I14_35  COST  2.44730502081
    I14_35  BAL14_35  -1
    S14_35  COST  -55.1502830403
    S14_35  BAL14_35  -1
    S14_35  DEM14_35  1
    I15_0  COST  1.25798082133
    I15_0  BAL15_0  -1
    I15_0  BAL15_1  1
    S15_0  COST  -30.8068863295
    S15_0  BAL15_0  -1
    S15_0  DEM15_0  1
    I15_1  COST  1.25798082133
    I15_1  BAL15_1  -1
    I15_1  BAL15_2  1
    S15_1  COST  -63.3704756816
    S15_1  BAL15_1  -1
    S15_1  DEM15_1  1
    I15_2  COST  1.25798082133
    I15_2  BAL15_2  -1
    I15_2  BAL15_3  1
    S15_2  COST  -48.8847016454
    S15_2  BAL15_2  -1
    S15_2  DEM15_2  1
    I15_3  COST  1.25798082133
    I15_3  BAL15_3  -1
    I15_3  BAL15_4  1
    S15_3  COST  -64.7720986129
    S15_3  BAL15_3  -1
    S15_3  DEM15_3  1
    I15_4  COST  1.25798082133
    I15_4  BAL15_4  -1
    I15_4  BAL15_5  1
    S15_4  COST  -62.1617467562
    S15_4  BAL15_4  -1
    S15_4  DEM15_4  1
    I15_5  COST  1.25798082133
    I15_5  BAL15_5  -1
    I15_5  BAL15_6  1
    S15_5  COST  -45.045588815
    S15_5  BAL15_5  -1
    S15_5  DEM15_5  1
    I15_6  COST  1.25798082133
    I15_6  BAL15_6  -1
    I15_6  BAL15_7  1
    S15_6  COST  -58.0808415897
    S15_6  BAL15_6  -1
    S15_6  DEM15_6  1
    I15_7  COST  1.25798082133
    I15_7  BAL15_7  -1
    I15_7  BAL15_8  1
    S15_7  COST  -58.2032463293
    S15_7  BAL15_7  -1
    S15_7  DEM15_7  1
    I15_8  COST  1.25798082133
    I15_8  BAL15_8  -1
    I15_8  BAL15_9  1
    S15_8  COST  -44.2615418803
    S15_8  BAL15_8  -1
    S15_8  DEM15_8  1
    I15_9  COST  1.25798082133
    I15_9  BAL15_9  -1
    I15_9  BAL15_10  1
    S15_9  COST  -71.8544631782
    S15_9  BAL15_9  -1
    S15_9  DEM15_9  1
    I15_10  COST  1.25798082133
    I15_10  BAL15_10  -1
    I15_10  BAL15_11  1
    S15_10  COST  -53.511195112
    S15_10  BAL15_10  -1
    S15_10  DEM15_10  1
    I15_11  COST  1.25798082133
    I15_11  BAL15_11  -1
    I15_11  BAL15_12  1
    S15_11  COST  -72.6938464838
    S15_11  BAL15_11  -1
    S15_11  DEM15_11  1
    I15_12  COST  1.25798082133
    I15_12  BAL15_12  -1
    I15_12  BAL15_13  1
    S15_12  COST  -37.8694858932
    S15_12  BAL15_12  -1
    S15_12  DEM15_12  1
    I15_13  COST  1.25798082133
    I15_13  BAL15_13  -1
    I15_13  BAL15_14  1
    S15_13  COST  -42.4199546992
    S15_13  BAL15_13  -1
    S15_13  DEM15_13  1
    I15_14  COST  1.25798082133
    I15_14  BAL15_14  -1
    I15_14  BAL15_15  1
    S15_14  COST  -72.6627732241
    S15_14  BAL15_14  -1
    S15_14  DEM15_14  1
    I15_15  COST  1.25798082133
    I15_15  BAL15_15  -1
    I15_15  BAL15_16  1
    S15_15  COST  -49.8409910644
    S15_15  BAL15_15  -1
    S15_15  DEM15_15  1
    I15_16  COST  1.25798082133
    I15_16  BAL15_16  -1
    I15_16  BAL15_17  1
    S15_16  COST  -52.2601138022
    S15_16  BAL15_16  -1
    S15_16  DEM15_16  1
    I15_17  COST  1.25798082133
    I15_17  BAL15_17  -1
    I15_17  BAL15_18  1
    S15_17  COST  -74.5558262472
    S15_17  BAL15_17  -1
    S15_17  DEM15_17  1
    I15_18  COST  1.25798082133
    I15_18  BAL15_18  -1
    I15_18  BAL15_19  1
    S15_18  COST  -53.7877570835
    S15_18  BAL15_18  -1
    S15_18  DEM15_18  1
    I15_19  COST  1.25798082133
    I15_19  BAL15_19  -1
    I15_19  BAL15_20  1
    S15_19  COST  -67.7399985985
    S15_19  BAL15_19  -1
    S15_19  DEM15_19  1
    I15_20  COST  1.25798082133
    I15_20  BAL15_20  -1
    I15_20  BAL15_21  1
    S15_20  COST  -67.3082293013
    S15_20  BAL15_20  -1
    S15_20  DEM15_20  1
    I15_21  COST  1.25798082133
    I15_21  BAL15_21  -1
    I15_21  BAL15_22  1
    S15_21  COST  -50.2536496704
    S15_21  BAL15_21  -1
    S15_21  DEM15_21  1
    I15_22  COST  1.25798082133
    I15_22  BAL15_22  -1
    I15_22  BAL15_23  1
    S15_22  COST  -64.6678606094
    S15_22  BAL15_22  -1
    S15_22  DEM15_22  1
    I15_23  COST  1.25798082133
    I15_23  BAL15_23  -1
    I15_23  BAL15_24  1
    S15_23  COST  -30.9637884668
    S15_23  BAL15_23  -1
    S15_23  DEM15_23  1
    I15_24  COST  1.25798082133
    I15_24  BAL15_24  -1
    I15_24  BAL15_25  1
    S15_24  COST  -62.644389469
    S15_24  BAL15_24  -1
    S15_24  DEM15_24  1
    I15_25  COST  1.25798082133
    I15_25  BAL15_25  -1
    I15_25  BAL15_26  1
    S15_25  COST  -46.0194292725
    S15_25  BAL15_25  -1
    S15_25  DEM15_25  1
    I15_26  COST  1.25798082133
    I15_26  BAL15_26  -1
    I15_26  BAL15_27  1
    S15_26  COST  -62.0422508468
    S15_26  BAL15_26  -1
    S15_26  DEM15_26  1
    I15_27  COST  1.25798082133
    I15_27  BAL15_27  -1
    I15_27  BAL15_28  1
    S15_27  COST  -53.6114510362
    S15_27  BAL15_27  -1
    S15_27  DEM15_27  1
    I15_28  COST  1.25798082133
    I15_28  BAL15_28  -1
    I15_28  BAL15_29  1
    S15_28  COST  -57.9774955213
    S15_28  BAL15_28  -1
    S15_28  DEM15_28  1
    I15_29  COST  1.25798082133
    I15_29  BAL15_29  -1
    I15_29  BAL15_30  1
    S15_29  COST  -32.3501661831
    S15_29  BAL15_29  -1
    S15_29  DEM15_29  1
    I15_30  COST  1.25798082133
    I15_30  BAL15_30  -1
    I15_30  BAL15_31  1
    S15_30  COST  -66.8567737353
    S15_30  BAL15_30  -1
    S15_30  DEM15_30  1
    I15_31  COST  1.25798082133
    I15_31  BAL15_31  -1
    I15_31  BAL15_32  1
    S15_31  COST  -42.9845778116
    S15_31  BAL15_31  -1
    S15_31  DEM15_31  1
    I15_32  COST  1.25798082133
    I15_32  BAL15_32  -1
    I15_32  BAL15_33  1
    S15_32  COST  -42.4039536384
    S15_32  BAL15_32  -1
    S15_32  DEM15_32  1
    I15_33  COST  1.25798082133
    I15_33  BAL15_33  -1
    I15_33  BAL15_34  1
    S15_33  COST  -56.5824909536
    S15_33  BAL15_33  -1
    S15_33  DEM15_33  1
    I15_34  COST  1.25798082133
    I15_34  BAL15_34  -1
    I15_34  BAL15_35  1
    S15_34  COST  -44.9763402687
    S15_34  BAL15_34  -1
    S15_34  DEM15_34  1
    I15_35  COST  1.25798082133
    I15_35  BAL15_35  -1
    S15_35  COST  -60.2261663964
    S15_35  BAL15_35  -1
    S15_35  DEM15_35  1
    I16_0  COST  0.766350114528
    I16_0  BAL16_0  -1
    I16_0  BAL16_1  1
    S16_0  COST  -50.461183232
    S16_0  BAL16_0  -1
    S16_0  DEM16_0  1
    I16_1  COST  0.766350114528
    I16_1  BAL16_1  -1
    I16_1  BAL16_2  1
    S16_1  COST  -73.7517983196
    S16_1  BAL16_1  -1
    S16_1  DEM16_1  1
    I16_2  COST  0.766350114528
    I16_2  BAL16_2  -1
    I16_2  BAL16_3  1
    S16_2  COST  -32.353143985
    S16_2  BAL16_2  -1
    S16_2  DEM16_2  1
    I16_3  COST  0.766350114528
    I16_3  BAL16_3  -1
    I16_3  BAL16_4  1
    S16_3  COST  -52.6997431935
    S16_3  BAL16_3  -1
    S16_3  DEM16_3  1
    I16_4  COST  0.766350114528
    I16_4  BAL16_4  -1
    I16_4  BAL16_5  1
    S16_4  COST  -63.7064039503
    S16_4  BAL16_4  -1
    S16_4  DEM16_4  1
    I16_5  COST  0.766350114528
    I16_5  BAL16_5  -1
    I16_5  BAL16_6  1
    S16_5  COST  -43.9806463378
    S16_5  BAL16_5  -1
    S16_5  DEM16_5  1
    I16_6  COST  0.766350114528
    I16_6  BAL16_6  -1
    I16_6  BAL16_7  1
    S16_6  COST  -35.6574700641
    S16_6  BAL16_6  -1
    S16_6  DEM16_6  1
    I16_7  COST  0.766350114528
    I16_7  BAL16_7  -1
    I16_7  BAL16_8  1
    S16_7  COST  -46.3765533921
    S16_7  BAL16_7  -1
    S16_7  DEM16_7  1
    I16_8  COST  0.766350114528
    I16_8  BAL16_8  -1
    I16_8  BAL16_9  1
    S16_8  COST  -72.9185520327
    S16_8  BAL16_8  -1
    S16_8  DEM16_8  1
    I16_9  COST  0.766350114528
    I16_9  BAL16_9  -1
    I16_9  BAL16_10  1
    S16_9  COST  -52.0210045052
    S16_9  BAL16_9  -1
    S16_9  DEM16_9  1
    I16_10  COST  0.766350114528
    I16_10  BAL16_10  -1
    I16_10  BAL16_11  1
    S16_10  COST  -72.8623492623
    S16_10  BAL16_10  -1
    S16_10  DEM16_10  1
    I16_11  COST  0.766350114528
    I16_11  BAL16_11  -1
    I16_11  BAL16_12  1
    S16_11  COST  -40.5909757047
    S16_11  BAL16_11  -1
    S16_11  DEM16_11  1
    I16_12  COST  0.766350114528
    I16_12  BAL16_12  -1
    I16_12  BAL16_13  1
    S16_12  COST  -40.5806463031
    S16_12  BAL16_12  -1
    S16_12  DEM16_12  1
    I16_13  COST  0.766350114528
    I16_13  BAL16_13  -1
    I16_13  BAL16_14  1
    S16_13  COST  -42.5242645505
    S16_13  BAL16_13  -1
    S16_13  DEM16_13  1
    I16_14  COST  0.766350114528
    I16_14  BAL16_14  -1
    I16_14  BAL16_15  1
    S16_14  COST  -39.9294275271
    S16_14  BAL16_14  -1
    S16_14  DEM16_14  1
    I16_15  COST  0.766350114528
    I16_15  BAL16_15  -1
    I16_15  BAL16_16  1
    S16_15  COST  -40.9516370528
    S16_15  BAL16_15  -1
    S16_15  DEM16_15  1
    I16_16  COST  0.766350114528
    I16_16  BAL16_16  -1
    I16_16  BAL16_17  1
    S16_16  COST  -59.2979387746
    S16_16  BAL16_16  -1
    S16_16  DEM16_16  1
    I16_17  COST  0.766350114528
    I16_17  BAL16_17  -1
    I16_17  BAL16_18  1
    S16_17  COST  -53.896986489
    S16_17  BAL16_17  -1
    S16_17  DEM16_17  1
    I16_18  COST  0.766350114528
    I16_18  BAL16_18  -1
    I16_18  BAL16_19  1
    S16_18  COST  -42.673673392
    S16_18  BAL16_18  -1
    S16_18  DEM16_18  1
    I16_19  COST  0.766350114528
    I16_19  BAL16_19  -1
    I16_19  BAL16_20  1
    S16_19  COST  -68.10511712
    S16_19  BAL16_19  -1
    S16_19  DEM16_19  1
    I16_20  COST  0.766350114528
    I16_20  BAL16_20  -1
    I16_20  BAL16_21  1
    S16_20  COST  -69.3343140537
    S16_20  BAL16_20  -1
    S16_20  DEM16_20  1
    I16_21  COST  0.766350114528
    I16_21  BAL16_21  -1
    I16_21  BAL16_22  1
    S16_21  COST  -35.4987187485
    S16_21  BAL16_21  -1
    S16_21  DEM16_21  1
    I16_22  COST  0.766350114528
    I16_22  BAL16_22  -1
    I16_22  BAL16_23  1
    S16_22  COST  -42.2146200729
    S16_22  BAL16_22  -1
    S16_22  DEM16_22  1
    I16_23  COST  0.766350114528
    I16_23  BAL16_23  -1
    I16_23  BAL16_24  1
    S16_23  COST  -34.5262001802
    S16_23  BAL16_23  -1
    S16_23  DEM16_23  1
    I16_24  COST  0.766350114528
    I16_24  BAL16_24  -1
    I16_24  BAL16_25  1
    S16_24  COST  -73.1858114983
    S16_24  BAL16_24  -1
    S16_24  DEM16_24  1
    I16_25  COST  0.766350114528
    I16_25  BAL16_25  -1
    I16_25  BAL16_26  1
    S16_25  COST  -36.7663516965
    S16_25  BAL16_25  -1
    S16_25  DEM16_25  1
    I16_26  COST  0.766350114528
    I16_26  BAL16_26  -1
    I16_26  BAL16_27  1
    S16_26  COST  -62.3454602911
    S16_26  BAL16_26  -1
    S16_26  DEM16_26  1
    I16_27  COST  0.766350114528
    I16_27  BAL16_27  -1
    I16_27  BAL16_28  1
    S16_27  COST  -47.8173648606
    S16_27  BAL16_27  -1
    S16_27  DEM16_27  1
    I16_28  COST  0.766350114528
    I16_28  BAL16_28  -1
    I16_28  BAL16_29  1
    S16_28  COST  -72.7289240899
    S16_28  BAL16_28  -1
    S16_28  DEM16_28  1
    I16_29  COST  0.766350114528
    I16_29  BAL16_29  -1
    I16_29  BAL16_30  1
    S16_29  COST  -49.3405332353
    S16_29  BAL16_29  -1
    S16_29  DEM16_29  1
    I16_30  COST  0.766350114528
    I16_30  BAL16_30  -1
    I16_30  BAL16_31  1
    S16_30  COST  -56.3727267723
    S16_30  BAL16_30  -1
    S16_30  DEM16_30  1
    I16_31  COST  0.766350114528
    I16_31  BAL16_31  -1
    I16_31  BAL16_32  1
    S16_31  COST  -33.7955690349
    S16_31  BAL16_31  -1
    S16_31  DEM16_31  1
    I16_32  COST  0.766350114528
    I16_32  BAL16_32  -1
    I16_32  BAL16_33  1
    S16_32  COST  -46.9385903214
    S16_32  BAL16_32  -1
    S16_32  DEM16_32  1
    I16_33  COST  0.766350114528
    I16_33  BAL16_33  -1
    I16_33  BAL16_34  1
    S16_33  COST  -56.948826566
    S16_33  BAL16_33  -1
    S16_33  DEM16_33  1
    I16_34  COST  0.766350114528
    I16_34  BAL16_34  -1
    I16_34  BAL16_35  1
    S16_34  COST  -37.8788771918
    S16_34  BAL16_34  -1
    S16_34  DEM16_34  1
    I16_35  COST  0.766350114528
    I16_35  BAL16_35  -1
    S16_35  COST  -60.414142957
    S16_35  BAL16_35  -1
    S16_35  DEM16_35  1
    I17_0  COST  2.04015009168
    I17_0  BAL17_0  -1
    I17_0  BAL17_1  1
    S17_0  COST  -70.6991665907
    S17_0  BAL17_0  -1
    S17_0  DEM17_0  1
    I17_1  COST  2.04015009168
    I17_1  BAL17_1  -1
    I17_1  BAL17_2  1
    S17_1  COST  -34.0534467142
    S17_1  BAL17_1  -1
    S17_1  DEM17_1  1
    I17_2  COST  2.04015009168
    I17_2  BAL17_2  -1
    I17_2  BAL17_3  1
    S17_2  COST  -37.6654604265
    S17_2  BAL17_2  -1
    S17_2  DEM17_2  1
    I17_3  COST  2.04015009168
    I17_3  BAL17_3  -1
    I17_3  BAL17_4  1
    S17_3  COST  -43.0728039836
    S17_3  BAL17_3  -1
    S17_3  DEM17_3  1
    I17_4  COST  2.04015009168
    I17_4  BAL17_4  -1
    I17_4  BAL17_5  1
    S17_4  COST  -36.4384492273
    S17_4  BAL17_4  -1
    S17_4  DEM17_4  1
    I17_5  COST  2.04015009168
    I17_5  BAL17_5  -1
    I17_5  BAL17_6  1
    S17_5  COST  -73.8800883808
    S17_5  BAL17_5  -1
    S17_5  DEM17_5  1
    I17_6  COST  2.04015009168
    I17_6  BAL17_6  -1
    I17_6  BAL17_7  1
    S17_6  COST  -34.8885694412
    S17_6  BAL17_6  -1
    S17_6  DEM17_6  1
    I17_7  COST  2.04015009168
    I17_7  BAL17_7  -1
    I17_7  BAL17_8  1
    S17_7  COST  -47.2224888172
    S17_7  BAL17_7  -1
    S17_7  DEM17_7  1
    I17_8  COST  2.04015009168
    I17_8  BAL17_8  -1
    I17_8  BAL17_9  1
    S17_8  COST  -65.4595787789
    S17_8  BAL17_8  -1
    S17_8  DEM17_8  1
    I17_9  COST  2.04015009168
    I17_9  BAL17_9  -1
    I17_9  BAL17_10  1
    S17_9  COST  -55.3660155245
    S17_9  BAL17_9  -1
    S17_9  DEM17_9  1
    I17_10  COST  2.04015009168
    I17_10  BAL17_10  -1
    I17_10  BAL17_11  1
    S17_10  COST  -49.3031984411
    S17_10  BAL17_10  -1
    S17_10  DEM17_10  1
    I17_11  COST  2.04015009168
    I17_11  BAL17_11  -1
    I17_11  BAL17_12  1
    S17_11  COST  -60.6460717435
    S17_11  BAL17_11  -1
    S17_11  DEM17_11  1
    I17_12  COST  2.04015009168
    I17_12  BAL17_12  -1
    I17_12  BAL17_13  1
    S17_12  COST  -37.6837980804
    S17_12  BAL17_12  -1
    S17_12  DEM17_12  1
    I17_13  COST  2.04015009168
    I17_13  BAL17_13  -1
    I17_13  BAL17_14  1
    S17_13  COST  -54.1388502423
    S17_13  BAL17_13  -1
    S17_13  DEM17_13  1
    I17_14  COST  2.04015009168
    I17_14  BAL17_14  -1
    I17_14  BAL17_15  1
    S17_14  COST  -49.6339664102
    S17_14  BAL17_14  -1
    S17_14  DEM17_14  1
    I17_15  COST  2.04015009168
    I17_15  BAL17_15  -1
    I17_15  BAL17_16  1
    S17_15  COST  -43.3813376209
    S17_15  BAL17_15  -1
    S17_15  DEM17_15  1
    I17_16  COST  2.04015009168
    I17_16  BAL17_16  -1
    I17_16  BAL17_17  1
    S17_16  COST  -34.2534207959
    S17_16  BAL17_16  -1
    S17_16  DEM17_16  1
    I17_17  COST  2.04015009168
    I17_17  BAL17_17  -1
    I17_17  BAL17_18  1
    S17_17  COST  -61.5633115906
    S17_17  BAL17_17  -1
    S17_17  DEM17_17  1
    I17_18  COST  2.04015009168
    I17_18  BAL17_18  -1
    I17_18  BAL17_19  1
    S17_18  COST  -36.4476672321
    S17_18  BAL17_18  -1
    S17_18  DEM17_18  1
    I17_19  COST  2.04015009168
    I17_19  BAL17_19  -1
    I17_19  BAL17_20  1
    S17_19  COST  -53.4976110638
    S17_19  BAL17_19  -1
    S17_19  DEM17_19  1
    I17_20  COST  2.04015009168
    I17_20  BAL17_20  -1
    I17_20  BAL17_21  1
    S17_20  COST  -42.862294922
    S17_20  BAL17_20  -1
    S17_20  DEM17_20  1
    I17_21  COST  2.04015009168
    I17_21  BAL17_21  -1
    I17_21  BAL17_22  1
    S17_21  COST  -48.1889039642
    S17_21  BAL17_21  -1
    S17_21  DEM17_21  1
    I17_22  COST  2.04015009168
    I17_22  BAL17_22  -1
    I17_22  BAL17_23  1
    S17_22  COST  -38.2942292761
    S17_22  BAL17_22  -1
    S17_22  DEM17_22  1
    I17_23  COST  2.04015009168
    I17_23  BAL17_23  -1
    I17_23  BAL17_24  1
    S17_23  COST  -47.8389473942
    S17_23  BAL17_23  -1
    S17_23  DEM17_23  1
    I17_24  COST  2.04015009168
    I17_24  BAL17_24  -1
    I17_24  BAL17_25  1
    S17_24  COST  -55.9696552484
    S17_24  BAL17_24  -1
    S17_24  DEM17_24  1
    I17_25  COST  2.04015009168
    I17_25  BAL17_25  -1
    I17_25  BAL17_26  1
    S17_25  COST  -48.6191994623
    S17_25  BAL17_25  -1
    S17_25  DEM17_25  1
    I17_26  COST  2.04015009168
    I17_26  BAL17_26  -1
    I17_26  BAL17_27  1
    S17_26  COST  -65.8180608307
    S17_26  BAL17_26  -1
    S17_26  DEM17_26  1
    I17_27  COST  2.04015009168
    I17_27  BAL17_27  -1
    I17_27  BAL17_28  1
    S17_27  COST  -50.9794258769
    S17_27  BAL17_27  -1
    S17_27  DEM17_27  1
    I17_28  COST  2.04015009168
    I17_28  BAL17_28  -1
    I17_28  BAL17_29  1
    S17_28  COST  -35.2255332354
    S17_28  BAL17_28  -1
    S17_28  DEM17_28  1
    I17_29  COST  2.04015009168
    I17_29  BAL17_29  -1
    I17_29  BAL17_30  1
    S17_29  COST  -45.9172901788
    S17_29  BAL17_29  -1
    S17_29  DEM17_29  1
    I17_30  COST  2.04015009168
    I17_30  BAL17_30  -1
    I17_30  BAL17_31  1
    S17_30  COST  -30.3735039767
    S17_30  BAL17_30  -1
    S17_30  DEM17_30  1
    I17_31  COST  2.04015009168
    I17_31  BAL17_31  -1
    I17_31  BAL17_32  1
    S17_31  COST  -63.7097513558
    S17_31  BAL17_31  -1
    S17_31  DEM17_31  1
    I17_32  COST  2.04015009168
    I17_32  BAL17_32  -1
    I17_32  BAL17_33  1
    S17_32  COST  -72.6261300354
    S17_32  BAL17_32  -1
    S17_32  DEM17_32  1
    I17_33  COST  2.04015009168
    I17_33  BAL17_33  -1
    I17_33  BAL17_34  1
    S17_33  COST  -71.6713455164
    S17_33  BAL17_33  -1
    S17_33  DEM17_33  1
    I17_34  COST  2.04015009168
    I17_34  BAL17_34  -1
    I17_34  BAL17_35  1
    S17_34  COST  -65.1352751269
    S17_34  BAL17_34  -1
    S17_34  DEM17_34  1
    I17_35  COST  2.04015009168
    I17_35  BAL17_35  -1
    S17_35  COST  -63.0126668994
    S17_35  BAL17_35  -1
    S17_35  DEM17_35  1
    I18_0  COST  1.3875888249
    I18_0  BAL18_0  -1
    I18_0  BAL18_1  1
    S18_0  COST  -73.6322826501
    S18_0  BAL18_0  -1
    S18_0  DEM18_0  1
    I18_1  COST  1.3875888249
    I18_1  BAL18_1  -1
    I18_1  BAL18_2  1
    S18_1  COST  -52.1946247743
    S18_1  BAL18_1  -1
    S18_1  DEM18_1  1
    I18_2  COST  1.3875888249
    I18_2  BAL18_2  -1
    I18_2  BAL18_3  1
    S18_2  COST  -63.0276704403
    S18_2  BAL18_2  -1
    S18_2  DEM18_2  1
    I18_3  COST  1.3875888249
    I18_3  BAL18_3  -1
    I18_3  BAL18_4  1
    S18_3  COST  -32.6572175227
    S18_3  BAL18_3  -1
    S18_3  DEM18_3  1
    I18_4  COST  1.3875888249
    I18_4  BAL18_4  -1
    I18_4  BAL18_5  1
    S18_4  COST  -61.2712731963
    S18_4  BAL18_4  -1
    S18_4  DEM18_4  1
    I18_5  COST  1.3875888249
    I18_5  BAL18_5  -1
    I18_5  BAL18_6  1
    S18_5  COST  -45.3614858641
    S18_5  BAL18_5  -1
    S18_5  DEM18_5  1
    I18_6  COST  1.3875888249
    I18_6  BAL18_6  -1
    I18_6  BAL18_7  1
    S18_6  COST  -58.2070001457
    S18_6  BAL18_6  -1
    S18_6  DEM18_6  1
    I18_7  COST  1.3875888249
    I18_7  BAL18_7  -1
    I18_7  BAL18_8  1
    S18_7  COST  -57.1354169736
    S18_7  BAL18_7  -1
    S18_7  DEM18_7  1
    I18_8  COST  1.3875888249
    I18_8  BAL18_8  -1
    I18_8  BAL18_9  1
    S18_8  COST  -41.9659321351
    S18_8  BAL18_8  -1
    S18_8  DEM18_8  1
    I18_9  COST  1.3875888249
    I18_9  BAL18_9  -1
    I18_9  BAL18_10  1
    S18_9  COST  -33.7699737024
    S18_9  BAL18_9  -1
    S18_9  DEM18_9  1
    I18_10  COST  1.3875888249
    I18_10  BAL18_10  -1
    I18_10  BAL18_11  1
    S18_10  COST  -43.1572907555
    S18_10  BAL18_10  -1
    S18_10  DEM18_10  1
    I18_11  COST  1.3875888249
    I18_11  BAL18_11  -1
    I18_11  BAL18_12  1
    S18_11  COST  -43.1280615109
    S18_11  BAL18_11  -1
    S18_11  DEM18_11  1
    I18_12  COST  1.3875888249
    I18_12  BAL18_12  -1
    I18_12  BAL18_13  1
    S18_12  COST  -48.0158176348
    S18_12  BAL18_12  -1
    S18_12  DEM18_12  1
    I18_13  COST  1.3875888249
    I18_13  BAL18_13  -1
    I18_13  BAL18_14  1
    S18_13  COST  -71.7649258942
    S18_13  BAL18_13  -1
    S18_13  DEM18_13  1
    I18_14  COST  1.3875888249
    I18_14  BAL18_14  -1
    I18_14  BAL18_15  1
    S18_14  COST  -60.1376752525
    S18_14  BAL18_14  -1
    S18_14  DEM18_14  1
    I18_15  COST  1.3875888249
    I18_15  BAL18_15  -1
    I18_15  BAL18_16  1
    S18_15  COST  -43.4852265403
    S18_15  BAL18_15  -1
    S18_15  DEM18_15  1
    I18_16  COST  1.3875888249
    I18_16  BAL18_16  -1
    I18_16  BAL18_17  1
    S18_16  COST  -66.3900534348
    S18_16  BAL18_16  -1
    S18_16  DEM18_16  1
    I18_17  COST  1.3875888249
    I18_17  BAL18_17  -1
    I18_17  BAL18_18  1
    S18_17  COST  -74.2620759232
    S18_17  BAL18_17  -1
    S18_17  DEM18_17  1
    I18_18  COST  1.3875888249
    I18_18  BAL18_18  -1
    I18_18  BAL18_19  1
    S18_18  COST  -65.9549181326
    S18_18  BAL18_18  -1
    S18_18  DEM18_18  1
    I18_19  COST  1.3875888249
    I18_19  BAL18_19  -1
    I18_19  BAL18_20  1
    S18_19  COST  -56.8264275767
    S18_19  BAL18_19  -1
    S18_19  DEM18_19  1
    I18_20  COST  1.3875888249
    I18_20  BAL18_20  -1
    I18_20  BAL18_21  1
    S18_20  COST  -59.4292140903
    S18_20  BAL18_20  -1
    S18_20  DEM18_20  1
    I18_21  COST  1.3875888249
    I18_21  BAL18_21  -1
    I18_21  BAL18_22  1
    S18_21  COST  -49.8200561984
    S18_21  BAL18_21  -1
    S18_21  DEM18_21  1
    I18_22  COST  1.3875888249
    I18_22  BAL18_22  -1
    I18_22  BAL18_23  1
    S18_22  COST  -67.2152348487
    S18_22  BAL18_22  -1
    S18_22  DEM18_22  1
    I18_23  COST  1.3875888249
    I18_23  BAL18_23  -1
    I18_23  BAL18_24  1
    S18_23  COST  -33.7074895201
    S18_23  BAL18_23  -1
    S18_23  DEM18_23  1
    I18_24  COST  1.3875888249
    I18_24  BAL18_24  -1
    I18_24  BAL18_25  1
    S18_24  COST  -36.7134785961
    S18_24  BAL18_24  -1
    S18_24  DEM18_24  1
    I18_25  COST  1.3875888249
    I18_25  BAL18_25  -1
    I18_25  BAL18_26  1
    S18_25  COST  -72.9102908427
    S18_25  BAL18_25  -1
    S18_25  DEM18_25  1
    I18_26  COST  1.3875888249
    I18_26  BAL18_26  -1
    I18_26  BAL18_27  1
    S18_26  COST  -67.9032299823
    S18_26  BAL18_26  -1
    S18_26  DEM18_26  1
    I18_27  COST  1.3875888249
    I18_27  BAL18_27  -1
    I18_27  BAL18_28  1
    S18_27  COST  -48.6488295952
    S18_27  BAL18_27  -1
    S18_27  DEM18_27  1
    I18_28  COST  1.3875888249
    I18_28  BAL18_28  -1
    I18_28  BAL18_29  1
    S18_28  COST  -41.6635417732
    S18_28  BAL18_28  -1
    S18_28  DEM18_28  1
    I18_29  COST  1.3875888249
    I18_29  BAL18_29  -1
    I18_29  BAL18_30  1
    S18_29  COST  -48.4188391195
    S18_29  BAL18_29  -1
    S18_29  DEM18_29  1
    I18_30  COST  1.3875888249
    I18_30  BAL18_30  -1
    I18_30  BAL18_31  1
    S18_30  COST  -31.3246365299
    S18_30  BAL18_30  -1
    S18_30  DEM18_30  1
    I18_31  COST  1.3875888249
    I18_31  BAL18_31  -1
    I18_31  BAL18_32  1
    S18_31  COST  -54.3697951736
    S18_31  BAL18_31  -1
    S18_31  DEM18_31  1
    I18_32  COST  1.3875888249
    I18_32  BAL18_32  -1
    I18_32  BAL18_33  1
    S18_32  COST  -63.1556979891
    S18_32  BAL18_32  -1
    S18_32  DEM18_32  1
    I18_33  COST  1.3875888249
    I18_33  BAL18_33  -1
    I18_33  BAL18_34  1
    S18_33  COST  -72.6523899341
    S18_33  BAL18_33  -1
    S18_33  DEM18_33  1
    I18_34  COST  1.3875888249
    I18_34  BAL18_34  -1
    I18_34  BAL18_35  1
    S18_34  COST  -60.880150468
    S18_34  BAL18_34  -1
    S18_34  DEM18_34  1
    I18_35  COST  1.3875888249
    I18_35  BAL18_35  -1
    S18_35  COST  -62.6672300254
    S18_35  BAL18_35  -1
    S18_35  DEM18_35  1
    I19_0  COST  0.900044789537
    I19_0  BAL19_0  -1
    I19_0  BAL19_1  1
    S19_0  COST  -56.3325813002
    S19_0  BAL19_0  -1
    S19_0  DEM19_0  1
    I19_1  COST  0.900044789537
    I19_1  BAL19_1  -1
    I19_1  BAL19_2  1
    S19_1  COST  -58.2090356279
    S19_1  BAL19_1  -1
    S19_1  DEM19_1  1
    I19_2  COST  0.900044789537
    I19_2  BAL19_2  -1
    I19_2  BAL19_3  1
    S19_2  COST  -50.6304602321
    S19_2  BAL19_2  -1
    S19_2  DEM19_2  1
    I19_3  COST  0.900044789537
    I19_3  BAL19_3  -1
    I19_3  BAL19_4  1
    S19_3  COST  -40.726811521
    S19_3  BAL19_3  -1
    S19_3  DEM19_3  1
    I19_4  COST  0.900044789537
    I19_4  BAL19_4  -1
    I19_4  BAL19_5  1
    S19_4  COST  -35.4946740499
    S19_4  BAL19_4  -1
    S19_4  DEM19_4  1
    I19_5  COST  0.900044789537
    I19_5  BAL19_5  -1
    I19_5  BAL19_6  1
    S19_5  COST  -71.515226294
    S19_5  BAL19_5  -1
    S19_5  DEM19_5  1
    I19_6  COST  0.900044789537
    I19_6  BAL19_6  -1
    I19_6  BAL19_7  1
    S19_6  COST  -62.3933004006
    S19_6  BAL19_6  -1
    S19_6  DEM19_6  1
    I19_7  COST  0.900044789537
    I19_7  BAL19_7  -1
    I19_7  BAL19_8  1
    S19_7  COST  -39.1854513119
    S19_7  BAL19_7  -1
    S19_7  DEM19_7  1
    I19_8  COST  0.900044789537
    I19_8  BAL19_8  -1
    I19_8  BAL19_9  1
    S19_8  COST  -36.2130389275
    S19_8  BAL19_8  -1
    S19_8  DEM19_8  1
    I19_9  COST  0.900044789537
    I19_9  BAL19_9  -1
    I19_9  BAL19_10  1
    S19_9  COST  -43.5766705689
    S19_9  BAL19_9  -1
    S19_9  DEM19_9  1
    I19_10  COST  0.900044789537
    I19_10  BAL19_10  -1
    I19_10  BAL19_11  1
    S19_10  COST  -32.129649577
    S19_10  BAL19_10  -1
    S19_10  DEM19_10  1
    I19_11  COST  0.900044789537
    I19_11  BAL19_11  -1
    I19_11  BAL19_12  1
    S19_11  COST  -34.2350836931
    S19_11  BAL19_11  -1
    S19_11  DEM19_11  1
    I19_12  COST  0.900044789537
    I19_12  BAL19_12  -1
    I19_12  BAL19_13  1
    S19_12  COST  -33.4624837543
    S19_12  BAL19_12  -1
    S19_12  DEM19_12  1
    I19_13  COST  0.900044789537
    I19_13  BAL19_13  -1
    I19_13  BAL19_14  1
    S19_13  COST  -33.1097100856
    S19_13  BAL19_13  -1
    S19_13  DEM19_13  1
    I19_14  COST  0.900044789537
    I19_14  BAL19_14  -1
    I19_14  BAL19_15  1
    S19_14  COST  -38.5647613017
    S19_14  BAL19_14  -1
    S19_14  DEM19_14  1
    I19_15  COST  0.900044789537
    I19_15  BAL19_15  -1
    I19_15  BAL19_16  1
    S19_15  COST  -50.2710892596
    S19_15  BAL19_15  -1
    S19_15  DEM19_15  1
    I19_16  COST  0.900044789537
    I19_16  BAL19_16  -1
    I19_16  BAL19_17  1
    S19_16  COST  -71.9461431752
    S19_16  BAL19_16  -1
    S19_16  DEM19_16  1
    I19_17  COST  0.900044789537
    I19_17  BAL19_17  -1
    I19_17  BAL19_18  1
    S19_17  COST  -48.5084818795
    S19_17  BAL19_17  -1
    S19_17  DEM19_17  1
    I19_18  COST  0.900044789537
    I19_18  BAL19_18  -1
    I19_18  BAL19_19  1
    S19_18  COST  -32.5961172977
    S19_18  BAL19_18  -1
    S19_18  DEM19_18  1
    I19_19  COST  0.900044789537
    I19_19  BAL19_19  -1
    I19_19  BAL19_20  1
    S19_19  COST  -49.3889721585
    S19_19  BAL19_19  -1
    S19_19  DEM19_19  1
    I19_20  COST  0.900044789537
    I19_20  BAL19_20  -1
    I19_20  BAL19_21  1
    S19_20  COST  -66.99124944
    S19_20  BAL19_20  -1
    S19_20  DEM19_20  1
    I19_21  COST  0.900044789537
    I19_21  BAL19_21  -1
    I19_21  BAL19_22  1
    S19_21  COST  -39.1276717212
    S19_21  BAL19_21  -1
    S19_21  DEM19_21  1
    I19_22  COST  0.900044789537
    I19_22  BAL19_22  -1
    I19_22  BAL19_23  1
    S19_22  COST  -41.0857241181
    S19_22  BAL19_22  -1
    S19_22  DEM19_22  1
    I19_23  COST  0.900044789537
    I19_23  BAL19_23  -1
    I19_23  BAL19_24  1
    S19_23  COST  -49.7617822129
    S19_23  BAL19_23  -1
    S19_23  DEM19_23  1
    I19_24  COST  0.900044789537
    I19_24  BAL19_24  -1
    I19_24  BAL19_25  1
    S19_24  COST  -49.4981499038
    S19_24  BAL19_24  -1
    S19_24  DEM19_24  1
    I19_25  COST  0.900044789537
    I19_25  BAL19_25  -1
    I19_25  BAL19_26  1
    S19_25  COST  -58.3696405456
    S19_25  BAL19_25  -1
    S19_25  DEM19_25  1
    I19_26  COST  0.900044789537
    I19_26  BAL19_26  -1
    I19_26  BAL19_27  1
    S19_26  COST  -67.9801163098
    S19_26  BAL19_26  -1
    S19_26  DEM19_26  1
    I19_27  COST  0.900044789537
    I19_27  BAL19_27  -1
    I19_27  BAL19_28  1
    S19_27  COST  -70.4455765704
    S19_27  BAL19_27  -1
    S19_27  DEM19_27  1
    I19_28  COST  0.900044789537
    I19_28  BAL19_28  -1
    I19_28  BAL19_29  1
    S19_28  COST  -53.5296540807
    S19_28  BAL19_28  -1
    S19_28  DEM19_28  1
    I19_29  COST  0.900044789537
    I19_29  BAL19_29  -1
    I19_29  BAL19_30  1
    S19_29  COST  -41.8098296033
    S19_29  BAL19_29  -1
    S19_29  DEM19_29  1
    I19_30  COST  0.900044789537
    I19_30  BAL19_30  -1
    I19_30  BAL19_31  1
    S19_30  COST  -43.1929155249
    S19_30  BAL19_30  -1
    S19_30  DEM19_30  1
    I19_31  COST  0.900044789537
    I19_31  BAL19_31  -1
    I19_31  BAL19_32  1
    S19_31  COST  -69.9214074556
    S19_31  BAL19_31  -1
    S19_31  DEM19_31  1
    I19_32  COST  0.900044789537
    I19_32  BAL19_32  -1
    I19_32  BAL19_33  1
    S19_32  COST  -68.7683545241
    S19_32  BAL19_32  -1
    S19_32  DEM19_32  1
    I19_33  COST  0.900044789537
    I19_33  BAL19_33  -1
    I19_33  BAL19_34  1
    S19_33  COST  -39.4252997949
    S19_33  BAL19_33  -1
    S19_33  DEM19_33  1
    I19_34  COST  0.900044789537
    I19_34  BAL19_34  -1
    I19_34  BAL19_35  1
    S19_34  COST  -50.3136900522
    S19_34  BAL19_34  -1
    S19_34  DEM19_34  1
    I19_35  COST  0.900044789537
    I19_35  BAL19_35  -1
    S19_35  COST  -30.7026803334
    S19_35  BAL19_35  -1
    S19_35  DEM19_35  1
    I20_0  COST  1.57427195771
    I20_0  BAL20_0  -1
    I20_0  BAL20_1  1
    S20_0  COST  -35.8520976319
    S20_0  BAL20_0  -1
    S20_0  DEM20_0  1
    I20_1  COST  1.57427195771
    I20_1  BAL20_1  -1
    I20_1  BAL20_2  1
    S20_1  COST  -55.3226175121
    S20_1  BAL20_1  -1
    S20_1  DEM20_1  1
    I20_2  COST  1.57427195771
    I20_2  BAL20_2  -1
    I20_2  BAL20_3  1
    S20_2  COST  -67.500688423
    S20_2  BAL20_2  -1
    S20_2  DEM20_2  1
    I20_3  COST  1.57427195771
    I20_3  BAL20_3  -1
    I20_3  BAL20_4  1
    S20_3  COST  -37.1627455822
    S20_3  BAL20_3  -1
    S20_3  DEM20_3  1
    I20_4  COST  1.57427195771
    I20_4  BAL20_4  -1
    I20_4  BAL20_5  1
    S20_4  COST  -69.7560722106
    S20_4  BAL20_4  -1
    S20_4  DEM20_4  1
    I20_5  COST  1.57427195771
    I20_5  BAL20_5  -1
    I20_5  BAL20_6  1
    S20_5  COST  -65.874576252
    S20_5  BAL20_5  -1
    S20_5  DEM20_5  1
    I20_6  COST  1.57427195771
    I20_6  BAL20_6  -1
    I20_6  BAL20_7  1
    S20_6  COST  -32.0989653062
    S20_6  BAL20_6  -1
    S20_6  DEM20_6  1
    I20_7  COST  1.57427195771
    I20_7  BAL20_7  -1
    I20_7  BAL20_8  1
    S20_7  COST  -49.9777772428
    S20_7  BAL20_7  -1
    S20_7  DEM20_7  1
    I20_8  COST  1.57427195771
    I20_8  BAL20_8  -1
    I20_8  BAL20_9  1
    S20_8  COST  -55.5847875386
    S20_8  BAL20_8  -1
    S20_8  DEM20_8  1
    I20_9  COST  1.57427195771
    I20_9  BAL20_9  -1
    I20_9  BAL20_10  1
    S20_9  COST  -68.1683926409
    S20_9  BAL20_9  -1
    S20_9  DEM20_9  1
    I20_10  COST  1.57427195771
    I20_10  BAL20_10  -1
    I20_10  BAL20_11  1
    S20_10  COST  -30.9701429314
    S20_10  BAL20_10  -1
    S20_10  DEM20_10  1
    I20_11  COST  1.57427195771
    I20_11  BAL20_11  -1
    I20_11  BAL20_12  1
    S20_11  COST  -37.796073285
    S20_11  BAL20_11  -1
    S20_11  DEM20_11  1
    I20_12  COST  1.57427195771
    I20_12  BAL20_12  -1
    I20_12  BAL20_13  1
    S20_12  COST  -35.563802644
    S20_12  BAL20_12  -1
    S20_12  DEM20_12  1
    I20_13  COST  1.57427195771
    I20_13  BAL20_13  -1
    I20_13  BAL20_14  1
    S20_13  COST  -58.4263533481
    S20_13  BAL20_13  -1
    S20_13  DEM20_13  1
    I20_14  COST  1.57427195771
    I20_14  BAL20_14  -1
    I20_14  BAL20_15  1
    S20_14  COST  -36.0106323338
    S20_14  BAL20_14  -1
    S20_14  DEM20_14  1
    I20_15  COST  1.57427195771
    I20_15  BAL20_15  -1
    I20_15  BAL20_16  1
    S20_15  COST  -71.3779021126
    S20_15  BAL20_15  -1
    S20_15  DEM20_15  1
    I20_16  COST  1.57427195771
    I20_16  BAL20_16  -1
    I20_16  BAL20_17  1
    S20_16  COST  -64.7106112465
    S20_16  BAL20_16  -1
    S20_16  DEM20_16  1
    I20_17  COST  1.57427195771
    I20_17  BAL20_17  -1
    I20_17  BAL20_18  1
    S20_17  COST  -40.190205132
    S20_17  BAL20_17  -1
    S20_17  DEM20_17  1
    I20_18  COST  1.57427195771
    I20_18  BAL20_18  -1
    I20_18  BAL20_19  1
    S20_18  COST  -66.2782030542
    S20_18  BAL20_18  -1
    S20_18  DEM20_18  1
    I20_19  COST  1.57427195771
    I20_19  BAL20_19  -1
    I20_19  BAL20_20  1
    S20_19  COST  -51.0497700448
    S20_19  BAL20_19  -1
    S20_19  DEM20_19  1
    I20_20  COST  1.57427195771
    I20_20  BAL20_20  -1
    I20_20  BAL20_21  1
    S20_20  COST  -63.0576403797
    S20_20  BAL20_20  -1
    S20_20  DEM20_20  1
    I20_21  COST  1.57427195771
    I20_21  BAL20_21  -1
    I20_21  BAL20_22  1
    S20_21  COST  -74.1621223026
    S20_21  BAL20_21  -1
    S20_21  DEM20_21  1
    I20_22  COST  1.57427195771
    I20_22  BAL20_22  -1
    I20_22  BAL20_23  1
    S20_22  COST  -67.4280026683
    S20_22  BAL20_22  -1
    S20_22  DEM20_22  1
    I20_23  COST  1.57427195771
    I20_23  BAL20_23  -1
    I20_23  BAL20_24  1
    S20_23  COST  -34.2587656976
    S20_23  BAL20_23  -1
    S20_23  DEM20_23  1
    I20_24  COST  1.57427195771
    I20_24  BAL20_24  -1
    I20_24  BAL20_25  1
    S20_24  COST  -39.709764424
    S20_24  BAL20_24  -1
    S20_24  DEM20_24  1
    I20_25  COST  1.57427195771
    I20_25  BAL20_25  -1
    I20_25  BAL20_26  1
    S20_25  COST  -50.5427446773
    S20_25  BAL20_25  -1
    S20_25  DEM20_25  1
    I20_26  COST  1.57427195771
    I20_26  BAL20_26  -1
    I20_26  BAL20_27  1
    S20_26  COST  -62.2996388767
    S20_26  BAL20_26  -1
    S20_26  DEM20_26  1
    I20_27  COST  1.57427195771
    I20_27  BAL20_27  -1
    I20_27  BAL20_28  1
    S20_27  COST  -43.0071439872
    S20_27  BAL20_27  -1
    S20_27  DEM20_27  1
    I20_28  COST  1.57427195771
    I20_28  BAL20_28  -1
    I20_28  BAL20_29  1
    S20_28  COST  -33.6301281922
    S20_28  BAL20_28  -1
    S20_28  DEM20_28  1
    I20_29  COST  1.57427195771
    I20_29  BAL20_29  -1
    I20_29  BAL20_30  1
    S20_29  COST  -41.7704726857
    S20_29  BAL20_29  -1
    S20_29  DEM20_29  1
    I20_30  COST  1.57427195771
    I20_30  BAL20_30  -1
    I20_30  BAL20_31  1
    S20_30  COST  -53.4335350148
    S20_30  BAL20_30  -1
    S20_30  DEM20_30  1
    I20_31  COST  1.57427195771
    I20_31  BAL20_31  -1
    I20_31  BAL20_32  1
    S20_31  COST  -40.6330258174
    S20_31  BAL20_31  -1
    S20_31  DEM20_31  1
    I20_32  COST  1.57427195771
    I20_32  BAL20_32  -1
    I20_32  BAL20_33  1
    S20_32  COST  -45.9665681886
    S20_32  BAL20_32  -1
    S20_32  DEM20_32  1
    I20_33  COST  1.57427195771
    I20_33  BAL20_33  -1
    I20_33  BAL20_34  1
    S20_33  COST  -32.66875223
    S20_33  BAL20_33  -1
    S20_33  DEM20_33  1
    I20_34  COST  1.57427195771
    I20_34  BAL20_34  -1
    I20_34  BAL20_35  1
    S20_34  COST  -66.0809623354
    S20_34  BAL20_34  -1
    S20_34  DEM20_34  1
    I20_35  COST  1.57427195771
    I20_35  BAL20_35  -1
    S20_35  COST  -42.6735221605
    S20_35  BAL20_35  -1
    S20_35  DEM20_35  1
    I21_0  COST  2.05459911043
    I21_0  BAL21_0  -1
    I21_0  BAL21_1  1
    S21_0  COST  -48.7328274848
    S21_0  BAL21_0  -1
    S21_0  DEM21_0  1
    I21_1  COST  2.05459911043
    I21_1  BAL21_1  -1
    I21_1  BAL21_2  1
    S21_1  COST  -67.3169431875
    S21_1  BAL21_1  -1
    S21_1  DEM21_1  1
    I21_2  COST  2.05459911043
    I21_2  BAL21_2  -1
    I21_2  BAL21_3  1
    S21_2  COST  -70.6488462804
    S21_2  BAL21_2  -1
    S21_2  DEM21_2  1
    I21_3  COST  2.05459911043
    I21_3  BAL21_3  -1
    I21_3  BAL21_4  1
    S21_3  COST  -30.8429428268
    S21_3  BAL21_3  -1
    S21_3  DEM21_3  1
    I21_4  COST  2.05459911043
    I21_4  BAL21_4  -1
    I21_4  BAL21_5  1
    S21_4  COST  -71.8604392541
    S21_4  BAL21_4  -1
    S21_4  DEM21_4  1
    I21_5  COST  2.05459911043
    I21_5  BAL21_5  -1
    I21_5  BAL21_6  1
    S21_5  COST  -66.9586422013
    S21_5  BAL21_5  -1
    S21_5  DEM21_5  1
    I21_6  COST  2.05459911043
    I21_6  BAL21_6  -1
    I21_6  BAL21_7  1
    S21_6  COST  -33.4777580073
    S21_6  BAL21_6  -1
    S21_6  DEM21_6  1
    I21_7  COST  2.05459911043
    I21_7  BAL21_7  -1
    I21_7  BAL21_8  1
    S21_7  COST  -59.8249267429
    S21_7  BAL21_7  -1
    S21_7  DEM21_7  1
    I21_8  COST  2.05459911043
    I21_8  BAL21_8  -1
    I21_8  BAL21_9  1
    S21_8  COST  -35.5112689606
    S21_8  BAL21_8  -1
    S21_8  DEM21_8  1
    I21_9  COST  2.05459911043
    I21_9  BAL21_9  -1
    I21_9  BAL21_10  1
    S21_9  COST  -45.1518450884
    S21_9  BAL21_9  -1
    S21_9  DEM21_9  1
    I21_10  COST  2.05459911043
    I21_10  BAL21_10  -1
    I21_10  BAL21_11  1
    S21_10  COST  -68.6302641611
    S21_10  BAL21_10  -1
    S21_10  DEM21_10  1
    I21_11  COST  2.05459911043
    I21_11  BAL21_11  -1
    I21_11  BAL21_12  1
    S21_11  COST  -58.068709793
    S21_11  BAL21_11  -1
    S21_11  DEM21_11  1
    I21_12  COST  2.05459911043
    I21_12  BAL21_12  -1
    I21_12  BAL21_13  1
    S21_12  COST  -69.8142694939
    S21_12  BAL21_12  -1
    S21_12  DEM21_12  1
    I21_13  COST  2.05459911043
    I21_13  BAL21_13  -1
    I21_13  BAL21_14  1
    S21_13  COST  -58.5442501904
    S21_13  BAL21_13  -1
    S21_13  DEM21_13  1
    I21_14  COST  2.05459911043
    I21_14  BAL21_14  -1
    I21_14  BAL21_15  1
    S21_14  COST  -45.1507790541
    S21_14  BAL21_14  -1
    S21_14  DEM21_14  1
    I21_15  COST  2.05459911043
    I21_15  BAL21_15  -1
    I21_15  BAL21_16  1
    S21_15  COST  -58.054864845
    S21_15  BAL21_15  -1
    S21_15  DEM21_15  1
    I21_16  COST  2.05459911043
    I21_16  BAL21_16  -1
    I21_16  BAL21_17  1
    S21_16  COST  -65.7312059486
    S21_16  BAL21_16  -1
    S21_16  DEM21_16  1
    I21_17  COST  2.05459911043
    I21_17  BAL21_17  -1
    I21_17  BAL21_18  1
    S21_17  COST  -71.7552747736
    S21_17  BAL21_17  -1
    S21_17  DEM21_17  1
    I21_18  COST  2.05459911043
    I21_18  BAL21_18  -1
    I21_18  BAL21_19  1
    S21_18  COST  -63.7776201364
    S21_18  BAL21_18  -1
    S21_18  DEM21_18  1
    I21_19  COST  2.05459911043
    I21_19  BAL21_19  -1
    I21_19  BAL21_20  1
    S21_19  COST  -44.9474631909
    S21_19  BAL21_19  -1
    S21_19  DEM21_19  1
    I21_20  COST  2.05459911043
    I21_20  BAL21_20  -1
    I21_20  BAL21_21  1
    S21_20  COST  -72.0765688133
    S21_20  BAL21_20  -1
    S21_20  DEM21_20  1
    I21_21  COST  2.05459911043
    I21_21  BAL21_21  -1
    I21_21  BAL21_22  1
    S21_21  COST  -32.50218691
    S21_21  BAL21_21  -1
    S21_21  DEM21_21  1
    I21_22  COST  2.05459911043
    I21_22  BAL21_22  -1
    I21_22  BAL21_23  1
    S21_22  COST  -34.601896796
    S21_22  BAL21_22  -1
    S21_22  DEM21_22  1
    I21_23  COST  2.05459911043
    I21_23  BAL21_23  -1
    I21_23  BAL21_24  1
    S21_23  COST  -71.9295028285
    S21_23  BAL21_23  -1
    S21_23  DEM21_23  1
    I21_24  COST  2.05459911043
    I21_24  BAL21_24  -1
    I21_24  BAL21_25  1
    S21_24  COST  -34.8968000022
    S21_24  BAL21_24  -1
    S21_24  DEM21_24  1
    I21_25  COST  2.05459911043
    I21_25  BAL21_25  -1
    I21_25  BAL21_26  1
    S21_25  COST  -52.7427204865
    S21_25  BAL21_25  -1
    S21_25  DEM21_25  1
    I21_26  COST  2.05459911043
    I21_26  BAL21_26  -1
    I21_26  BAL21_27  1
    S21_26  COST  -40.941964547
    S21_26  BAL21_26  -1
    S21_26  DEM21_26  1
    I21_27  COST  2.05459911043
    I21_27  BAL21_27  -1
    I21_27  BAL21_28  1
    S21_27  COST  -68.0414837128
    S21_27  BAL21_27  -1
    S21_27  DEM21_27  1
    I21_28  COST  2.05459911043
    I21_28  BAL21_28  -1
    I21_28  BAL21_29  1
    S21_28  COST  -66.5330019295
    S21_28  BAL21_28  -1
    S21_28  DEM21_28  1
    I21_29  COST  2.05459911043
    I21_29  BAL21_29  -1
    I21_29  BAL21_30  1
    S21_29  COST  -40.1413649889
    S21_29  BAL21_29  -1
    S21_29  DEM21_29  1
    I21_30  COST  2.05459911043
    I21_30  BAL21_30  -1
    I21_30  BAL21_31  1
    S21_30  COST  -59.2022985396
    S21_30  BAL21_30  -1
    S21_30  DEM21_30  1
    I21_31  COST  2.05459911043
    I21_31  BAL21_31  -1
    I21_31  BAL21_32  1
    S21_31  COST  -45.6336334904
    S21_31  BAL21_31  -1
    S21_31  DEM21_31  1
    I21_32  COST  2.05459911043
    I21_32  BAL21_32  -1
    I21_32  BAL21_33  1
    S21_32  COST  -54.9670705814
    S21_32  BAL21_32  -1
    S21_32  DEM21_32  1
    I21_33  COST  2.05459911043
    I21_33  BAL21_33  -1
    I21_33  BAL21_34  1
    S21_33  COST  -55.4534524932
    S21_33  BAL21_33  -1
    S21_33  DEM21_33  1
    I21_34  COST  2.05459911043
    I21_34  BAL21_34  -1
    I21_34  BAL21_35  1
    S21_34  COST  -41.742965147
    S21_34  BAL21_34  -1
    S21_34  DEM21_34  1
    I21_35  COST  2.05459911043
    I21_35  BAL21_35  -1
    S21_35  COST  -58.5327852092
    S21_35  BAL21_35  -1
    S21_35  DEM21_35  1
    I22_0  COST  2.15783870806
    I22_0  BAL22_0  -1
    I22_0  BAL22_1  1
    S22_0  COST  -50.7301443214
    S22_0  BAL22_0  -1
    S22_0  DEM22_0  1
    I22_1  COST  2.15783870806
    I22_1  BAL22_1  -1
    I22_1  BAL22_2  1
    S22_1  COST  -39.6756970838
    S22_1  BAL22_1  -1
    S22_1  DEM22_1  1
    I22_2  COST  2.15783870806
    I22_2  BAL22_2  -1
    I22_2  BAL22_3  1
    S22_2  COST  -66.2442889242
    S22_2  BAL22_2  -1
    S22_2  DEM22_2  1
    I22_3  COST  2.15783870806
    I22_3  BAL22_3  -1
    I22_3  BAL22_4  1
    S22_3  COST  -52.1845612659
    S22_3  BAL22_3  -1
    S22_3  DEM22_3  1
    I22_4  COST  2.15783870806
    I22_4  BAL22_4  -1
    I22_4  BAL22_5  1
    S22_4  COST  -56.4840654775
    S22_4  BAL22_4  -1
    S22_4  DEM22_4  1
    I22_5  COST  2.15783870806
    I22_5  BAL22_5  -1
    I22_5  BAL22_6  1
    S22_5  COST  -74.8014668988
    S22_5  BAL22_5  -1
    S22_5  DEM22_5  1
    I22_6  COST  2.15783870806
    I22_6  BAL22_6  -1
    I22_6  BAL22_7  1
    S22_6  COST  -70.2889354571
    S22_6  BAL22_6  -1
    S22_6  DEM22_6  1
    I22_7  COST  2.15783870806
    I22_7  BAL22_7  -1
    I22_7  BAL22_8  1
    S22_7  COST  -33.9795174087
    S22_7  BAL22_7  -1
    S22_7  DEM22_7  1
    I22_8  COST  2.15783870806
    I22_8  BAL22_8  -1
    I22_8  BAL22_9  1
    S22_8  COST  -39.8292773081
    S22_8  BAL22_8  -1
    S22_8  DEM22_8  1
    I22_9  COST  2.15783870806
    I22_9  BAL22_9  -1
    I22_9  BAL22_10  1
    S22_9  COST  -60.0260577416
    S22_9  BAL22_9  -1
    S22_9  DEM22_9  1
    I22_10  COST  2.15783870806
    I22_10  BAL22_10  -1
    I22_10  BAL22_11  1
    S22_10  COST  -31.7971772241
    S22_10  BAL22_10  -1
    S22_10  DEM22_10  1
    I22_11  COST  2.15783870806
    I22_11  BAL22_11  -1
    I22_11  BAL22_12  1
    S22_11  COST  -40.2276280108
    S22_11  BAL22_11  -1
    S22_11  DEM22_11  1
    I22_12  COST  2.15783870806
    I22_12  BAL22_12  -1
    I22_12  BAL22_13  1
    S22_12  COST  -63.2758605658
    S22_12  BAL22_12  -1
    S22_12  DEM22_12  1
    I22_13  COST  2.15783870806
    I22_13  BAL22_13  -1
    I22_13  BAL22_14  1
    S22_13  COST  -59.739048319
    S22_13  BAL22_13  -1
    S22_13  DEM22_13  1
    I22_14  COST  2.15783870806
    I22_14  BAL22_14  -1
    I22_14  BAL22_15  1
    S22_14  COST  -62.0870105353
    S22_14  BAL22_14  -1
    S22_14  DEM22_14  1
    I22_15  COST  2.15783870806
    I22_15  BAL22_15  -1
    I22_15  BAL22_16  1
    S22_15  COST  -56.6712863449
    S22_15  BAL22_15  -1
    S22_15  DEM22_15  1
    I22_16  COST  2.15783870806
    I22_16  BAL22_16  -1
    I22_16  BAL22_17  1
    S22_16  COST  -55.6925574013
    S22_16  BAL22_16  -1
    S22_16  DEM22_16  1
    I22_17  COST  2.15783870806
    I22_17  BAL22_17  -1
    I22_17  BAL22_18  1
    S22_17  COST  -30.8900625932
    S22_17  BAL22_17  -1
    S22_17  DEM22_17  1
    I22_18  COST  2.15783870806
    I22_18  BAL22_18  -1
    I22_18  BAL22_19  1
    S22_18  COST  -55.4568974327
    S22_18  BAL22_18  -1
    S22_18  DEM22_18  1
    I22_19  COST  2.15783870806
    I22_19  BAL22_19  -1
    I22_19  BAL22_20  1
    S22_19  COST  -69.1671117535
    S22_19  BAL22_19  -1
    S22_19  DEM22_19  1
    I22_20  COST  2.15783870806
    I22_20  BAL22_20  -1
    I22_20  BAL22_21  1
    S22_20  COST  -51.8321412101
    S22_20  BAL22_20  -1
    S22_20  DEM22_20  1
    I22_21  COST  2.15783870806
    I22_21  BAL22_21  -1
    I22_21  BAL22_22  1
    S22_21  COST  -66.6103308389
    S22_21  BAL22_21  -1
    S22_21  DEM22_21  1
    I22_22  COST  2.15783870806
    I22_22  BAL22_22  -1
    I22_22  BAL22_23  1
    S22_22  COST  -55.7014338317
    S22_22  BAL22_22  -1
    S22_22  DEM22_22  1
    I22_23  COST  2.15783870806
    I22_23  BAL22_23  -1
    I22_23  BAL22_24  1
    S22_23  COST  -31.425688788
    S22_23  BAL22_23  -1
    S22_23  DEM22_23  1
    I22_24  COST  2.15783870806
    I22_24  BAL22_24  -1
    I22_24  BAL22_25  1
    S22_24  COST  -41.8256391608
    S22_24  BAL22_24  -1
    S22_24  DEM22_24  1
    I22_25  COST  2.15783870806
    I22_25  BAL22_25  -1
    I22_25  BAL22_26  1
    S22_25  COST  -47.5559186794
    S22_25  BAL22_25  -1
    S22_25  DEM22_25  1
    I22_26  COST  2.15783870806
    I22_26  BAL22_26  -1
    I22_26  BAL22_27  1
    S22_26  COST  -56.1092712479
    S22_26  BAL22_26  -1
    S22_26  DEM22_26  1
    I22_27  COST  2.15783870806
    I22_27  BAL22_27  -1
    I22_27  BAL22_28  1
    S22_27  COST  -40.4582401297
    S22_27  BAL22_27  -1
    S22_27  DEM22_27  1
    I22_28  COST  2.15783870806
    I22_28  BAL22_28  -1
    I22_28  BAL22_29  1
    S22_28  COST  -71.6765745237
    S22_28  BAL22_28  -1
    S22_28  DEM22_28  1
    I22_29  COST  2.15783870806
    I22_29  BAL22_29  -1
    I22_29  BAL22_30  1
    S22_29  COST  -73.9082380741
    S22_29  BAL22_29  -1
    S22_29  DEM22_29  1
    I22_30  COST  2.15783870806
    I22_30  BAL22_30  -1
    I22_30  BAL22_31  1
    S22_30  COST  -74.3404223399
    S22_30  BAL22_30  -1
    S22_30  DEM22_30  1
    I22_31  COST  2.15783870806
    I22_31  BAL22_31  -1
    I22_31  BAL22_32  1
    S22_31  COST  -44.6351647481
    S22_31  BAL22_31  -1
    S22_31  DEM22_31  1
    I22_32  COST  2.15783870806
    I22_32  BAL22_32  -1
    I22_32  BAL22_33  1
    S22_32  COST  -56.6934275058
    S22_32  BAL22_32  -1
    S22_32  DEM22_32  1
    I22_33  COST  2.15783870806
    I22_33  BAL22_33  -1
    I22_33  BAL22_34  1
    S22_33  COST  -51.7792624398
    S22_33  BAL22_33  -1
    S22_33  DEM22_33  1
    I22_34  COST  2.15783870806
    I22_34  BAL22_34  -1
    I22_34  BAL22_35  1
    S22_34  COST  -66.7466322257
    S22_34  BAL22_34  -1
    S22_34  DEM22_34  1
    I22_35  COST  2.15783870806
    I22_35  BAL22_35  -1
    S22_35  COST  -72.3856296616
    S22_35  BAL22_35  -1
    S22_35  DEM22_35  1
    I23_0  COST  2.49471120894
    I23_0  BAL23_0  -1
    I23_0  BAL23_1  1
    S23_0  COST  -37.4940259475
    S23_0  BAL23_0  -1
    S23_0  DEM23_0  1
    I23_1  COST  2.49471120894
    I23_1  BAL23_1  -1
    I23_1  BAL23_2  1
    S23_1  COST  -54.1678749654
    S23_1  BAL23_1  -1
    S23_1  DEM23_1  1
    I23_2  COST  2.49471120894
    I23_2  BAL23_2  -1
    I23_2  BAL23_3  1
    S23_2  COST  -62.7125551649
    S23_2  BAL23_2  -1
    S23_2  DEM23_2  1
    I23_3  COST  2.49471120894
    I23_3  BAL23_3  -1
    I23_3  BAL23_4  1
    S23_3  COST  -38.1824008419
    S23_3  BAL23_3  -1
    S23_3  DEM23_3  1
    I23_4  COST  2.49471120894
    I23_4  BAL23_4  -1
    I23_4  BAL23_5  1
    S23_4  COST  -38.8764543456
    S23_4  BAL23_4  -1
    S23_4  DEM23_4  1
    I23_5  COST  2.49471120894
    I23_5  BAL23_5  -1
    I23_5  BAL23_6  1
    S23_5  COST  -48.4745211011
    S23_5  BAL23_5  -1
    S23_5  DEM23_5  1
    I23_6  COST  2.49471120894
    I23_6  BAL23_6  -1
    I23_6  BAL23_7  1
    S23_6  COST  -39.155312399
    S23_6  BAL23_6  -1
    S23_6  DEM23_6  1
    I23_7  COST  2.49471120894
    I23_7  BAL23_7  -1
    I23_7  BAL23_8  1
    S23_7  COST  -43.0859985061
    S23_7  BAL23_7  -1
    S23_7  DEM23_7  1
    I23_8  COST  2.49471120894
    I23_8  BAL23_8  -1
    I23_8  BAL23_9  1
    S23_8  COST  -48.9329314956
    S23_8  BAL23_8  -1
    S23_8  DEM23_8  1
    I23_9  COST  2.49471120894
    I23_9  BAL23_9  -1
    I23_9  BAL23_10  1
    S23_9  COST  -51.0288877148
    S23_9  BAL23_9  -1
    S23_9  DEM23_9  1
    I23_10  COST  2.49471120894
    I23_10  BAL23_10  -1
    I23_10  BAL23_11  1
    S23_10  COST  -63.8819047834
    S23_10  BAL23_10  -1
    S23_10  DEM23_10  1
    I23_11  COST  2.49471120894
    I23_11  BAL23_11  -1
    I23_11  BAL23_12  1
    S23_11  COST  -65.7628677176
    S23_11  BAL23_11  -1
    S23_11  DEM23_11  1
    I23_12  COST  2.49471120894
    I23_12  BAL23_12  -1
    I23_12  BAL23_13  1
    S23_12  COST  -48.8538468814
    S23_12  BAL23_12  -1
    S23_12  DEM23_12  1
    I23_13  COST  2.49471120894
    I23_13  BAL23_13  -1
    I23_13  BAL23_14  1
    S23_13  COST  -58.8007613027
    S23_13  BAL23_13  -1
    S23_13  DEM23_13  1
    I23_14  COST  2.49471120894
    I23_14  BAL23_14  -1
    I23_14  BAL23_15  1
    S23_14  COST  -35.9304503227
    S23_14  BAL23_14  -1
    S23_14  DEM23_14  1
    I23_15  COST  2.49471120894
    I23_15  BAL23_15  -1
    I23_15  BAL23_16  1
    S23_15  COST  -44.3762415036
    S23_15  BAL23_15  -1
    S23_15  DEM23_15  1
    I23_16  COST  2.49471120894
    I23_16  BAL23_16  -1
    I23_16  BAL23_17  1
    S23_16  COST  -42.9605579966
    S23_16  BAL23_16  -1
    S23_16  DEM23_16  1
    I23_17  COST  2.49471120894
    I23_17  BAL23_17  -1
    I23_17  BAL23_18  1
    S23_17  COST  -58.544771001
    S23_17  BAL23_17  -1
    S23_17  DEM23_17  1
    I23_18  COST  2.49471120894
    I23_18  BAL23_18  -1
    I23_18  BAL23_19  1
    S23_18  COST  -43.788848939
    S23_18  BAL23_18  -1
    S23_18  DEM23_18  1
    I23_19  COST  2.49471120894
    I23_19  BAL23_19  -1
    I23_19  BAL23_20  1
    S23_19  COST  -35.4444160156
    S23_19  BAL23_19  -1
    S23_19  DEM23_19  1
    I23_20  COST  2.49471120894
    I23_20  BAL23_20  -1
    I23_20  BAL23_21  1
    S23_20  COST  -49.174398561
    S23_20  BAL23_20  -1
    S23_20  DEM23_20  1
    I23_21  COST  2.49471120894
    I23_21  BAL23_21  -1
    I23_21  BAL23_22  1
    S23_21  COST  -70.8542984638
    S23_21  BAL23_21  -1
    S23_21  DEM23_21  1
    I23_22  COST  2.49471120894
    I23_22  BAL23_22  -1
    I23_22  BAL23_23  1
    S23_22  COST  -67.7905120252
    S23_22  BAL23_22  -1
    S23_22  DEM23_22  1
    I23_23  COST  2.49471120894
    I23_23  BAL23_23  -1
    I23_23  BAL23_24  1
    S23_23  COST  -50.8745386089
    S23_23  BAL23_23  -1
    S23_23  DEM23_23  1
    I23_24  COST  2.49471120894
    I23_24  BAL23_24  -1
    I23_24  BAL23_25  1
    S23_24  COST  -39.6297414933
    S23_24  BAL23_24  -1
    S23_24  DEM23_24  1
    I23_25  COST  2.49471120894
    I23_25  BAL23_25  -1
    I23_25  BAL23_26  1
    S23_25  COST  -66.7807101086
    S23_25  BAL23_25  -1
    S23_25  DEM23_25  1
    I23_26  COST  2.49471120894
    I23_26  BAL23_26  -1
    I23_26  BAL23_27  1
    S23_26  COST  -38.294433419
    S23_26  BAL23_26  -1
    S23_26  DEM23_26  1
    I23_27  COST  2.49471120894
    I23_27  BAL23_27  -1
    I23_27  BAL23_28  1
    S23_27  COST  -66.639856059
    S23_27  BAL23_27  -1
    S23_27  DEM23_27  1
    I23_28  COST  2.49471120894
    I23_28  BAL23_28  -1
    I23_28  BAL23_29  1
    S23_28  COST  -41.9081561647
    S23_28  BAL23_28  -1
    S23_28  DEM23_28  1
    I23_29  COST  2.49471120894
    I23_29  BAL23_29  -1
    I23_29  BAL23_30  1
    S23_29  COST  -32.3361593456
    S23_29  BAL23_29  -1
    S23_29  DEM23_29  1
    I23_30  COST  2.49471120894
    I23_30  BAL23_30  -1
    I23_30  BAL23_31  1
    S23_30  COST  -33.8972410714
    S23_30  BAL23_30  -1
    S23_30  DEM23_30  1
    I23_31  COST  2.49471120894
    I23_31  BAL23_31  -1
    I23_31  BAL23_32  1
    S23_31  COST  -38.3086194191
    S23_31  BAL23_31  -1
    S23_31  DEM23_31  1
    I23_32  COST  2.49471120894
    I23_32  BAL23_32  -1
    I23_32  BAL23_33  1
    S23_32  COST  -34.6364779886
    S23_32  BAL23_32  -1
    S23_32  DEM23_32  1
    I23_33  COST  2.49471120894
    I23_33  BAL23_33  -1
    I23_33  BAL23_34  1
    S23_33  COST  -70.4938562832
    S23_33  BAL23_33  -1
    S23_33  DEM23_33  1
    I23_34  COST  2.49471120894
    I23_34  BAL23_34  -1
    I23_34  BAL23_35  1
    S23_34  COST  -53.6822892208
    S23_34  BAL23_34  -1
    S23_34  DEM23_34  1
    I23_35  COST  2.49471120894
    I23_35  BAL23_35  -1
    S23_35  COST  -67.4304003069
    S23_35  BAL23_35  -1
    S23_35  DEM23_35  1
    I24_0  COST  1.97793101855
    I24_0  BAL24_0  -1
    I24_0  BAL24_1  1
    S24_0  COST  -37.8704703558
    S24_0  BAL24_0  -1
    S24_0  DEM24_0  1
    I24_1  COST  1.97793101855
    I24_1  BAL24_1  -1
    I24_1  BAL24_2  1
    S24_1  COST  -74.4390939976
    S24_1  BAL24_1  -1
    S24_1  DEM24_1  1
    I24_2  COST  1.97793101855
    I24_2  BAL24_2  -1
    I24_2  BAL24_3  1
    S24_2  COST  -46.5579762759
    S24_2  BAL24_2  -1
    S24_2  DEM24_2  1
    I24_3  COST  1.97793101855
    I24_3  BAL24_3  -1
    I24_3  BAL24_4  1
    S24_3  COST  -45.7774684698
    S24_3  BAL24_3  -1
    S24_3  DEM24_3  1
    I24_4  COST  1.97793101855
    I24_4  BAL24_4  -1
    I24_4  BAL24_5  1
    S24_4  COST  -41.5013380976
    S24_4  BAL24_4  -1
    S24_4  DEM24_4  1
    I24_5  COST  1.97793101855
    I24_5  BAL24_5  -1
    I24_5  BAL24_6  1
    S24_5  COST  -64.9606921316
    S24_5  BAL24_5  -1
    S24_5  DEM24_5  1
    I24_6  COST  1.97793101855
    I24_6  BAL24_6  -1
    I24_6  BAL24_7  1
    S24_6  COST  -44.1623081307
    S24_6  BAL24_6  -1
    S24_6  DEM24_6  1
    I24_7  COST  1.97793101855
    I24_7  BAL24_7  -1
    I24_7  BAL24_8  1
    S24_7  COST  -74.3466979204
    S24_7  BAL24_7  -1
    S24_7  DEM24_7  1
    I24_8  COST  1.97793101855
    I24_8  BAL24_8  -1
    I24_8  BAL24_9  1
    S24_8  COST  -65.4493908683
    S24_8  BAL24_8  -1
    S24_8  DEM24_8  1
    I24_9  COST  1.97793101855
    I24_9  BAL24_9  -1
    I24_9  BAL24_10  1
    S24_9  COST  -39.3227538386
    S24_9  BAL24_9  -1
    S24_9  DEM24_9  1
    I24_10  COST  1.97793101855
    I24_10  BAL24_10  -1
    I24_10  BAL24_11  1
    S24_10  COST  -59.4627006702
    S24_10  BAL24_10  -1
    S24_10  DEM24_10  1
    I24_11  COST  1.97793101855
    I24_11  BAL24_11  -1
    I24_11  BAL24_12  1
    S24_11  COST  -49.2691911867
    S24_11  BAL24_11  -1
    S24_11  DEM24_11  1
    I24_12  COST  1.97793101855
    I24_12  BAL24_12  -1
    I24_12  BAL24_13  1
    S24_12  COST  -69.3158468985
    S24_12  BAL24_12  -1
    S24_12  DEM24_12  1
    I24_13  COST  1.97793101855
    I24_13  BAL24_13  -1
    I24_13  BAL24_14  1
    S24_13  COST  -32.2825331804
    S24_13  BAL24_13  -1
    S24_13  DEM24_13  1
    I24_14  COST  1.97793101855
    I24_14  BAL24_14  -1
    I24_14  BAL24_15  1
    S24_14  COST  -59.0346499474
    S24_14  BAL24_14  -1
    S24_14  DEM24_14  1
    I24_15  COST  1.97793101855
    I24_15  BAL24_15  -1
    I24_15  BAL24_16  1
    S24_15  COST  -50.7294552593
    S24_15  BAL24_15  -1
    S24_15  DEM24_15  1
    I24_16  COST  1.97793101855
    I24_16  BAL24_16  -1
    I24_16  BAL24_17  1
    S24_16  COST  -52.156759909
    S24_16  BAL24_16  -1
    S24_16  DEM24_16  1
    I24_17  COST  1.97793101855
    I24_17  BAL24_17  -1
    I24_17  BAL24_18  1
    S24_17  COST  -44.0588216114
    S24_17  BAL24_17  -1
    S24_17  DEM24_17  1
    I24_18  COST  1.97793101855
    I24_18  BAL24_18  -1
    I24_18  BAL24_19  1
    S24_18  COST  -72.8880734499
    S24_18  BAL24_18  -1
    S24_18  DEM24_18  1
    I24_19  COST  1.97793101855
    I24_19  BAL24_19  -1
    I24_19  BAL24_20  1
    S24_19  COST  -71.758323982
    S24_19  BAL24_19  -1
    S24_19  DEM24_19  1
    I24_20  COST  1.97793101855
    I24_20  BAL24_20  -1
    I24_20  BAL24_21  1
    S24_20  COST  -30.5191351743
    S24_20  BAL24_20  -1
    S24_20  DEM24_20  1
    I24_21  COST  1.97793101855
    I24_21  BAL24_21  -1
    I24_21  BAL24_22  1
    S24_21  COST  -49.7734133009
    S24_21  BAL24_21  -1
    S24_21  DEM24_21  1
    I24_22  COST  1.97793101855
    I24_22  BAL24_22  -1
    I24_22  BAL24_23  1
    S24_22  COST  -39.209896396
    S24_22  BAL24_22  -1
    S24_22  DEM24_22  1
    I24_23  COST  1.97793101855
    I24_23  BAL24_23  -1
    I24_23  BAL24_24  1
    S24_23  COST  -48.8830552047
    S24_23  BAL24_23  -1
    S24_23  DEM24_23  1
    I24_24  COST  1.97793101855
    I24_24  BAL24_24  -1
    I24_24  BAL24_25  1
    S24_24  COST  -64.8798837584
    S24_24  BAL24_24  -1
    S24_24  DEM24_24  1
    I24_25  COST  1.97793101855
    I24_25  BAL24_25  -1
    I24_25  BAL24_26  1
    S24_25  COST  -72.953117704
    S24_25  BAL24_25  -1
    S24_25  DEM24_25  1
    I24_26  COST  1.97793101855
    I24_26  BAL24_26  -1
    I24_26  BAL24_27  1
    S24_26  COST  -74.4528431658
    S24_26  BAL24_26  -1
    S24_26  DEM24_26  1
    I24_27  COST  1.97793101855
    I24_27  BAL24_27  -1
    I24_27  BAL24_28  1
    S24_27  COST  -33.715806295
    S24_27  BAL24_27  -1
    S24_27  DEM24_27  1
    I24_28  COST  1.97793101855
    I24_28  BAL24_28  -1
    I24_28  BAL24_29  1
    S24_28  COST  -72.5222370415
    S24_28  BAL24_28  -1
    S24_28  DEM24_28  1
    I24_29  COST  1.97793101855
    I24_29  BAL24_29  -1
    I24_29  BAL24_30  1
    S24_29  COST  -54.7807869549
    S24_29  BAL24_29  -1
    S24_29  DEM24_29  1
    I24_30  COST  1.97793101855
    I24_30  BAL24_30  -1
    I24_30  BAL24_31  1
    S24_30  COST  -62.3000314074
    S24_30  BAL24_30  -1
    S24_30  DEM24_30  1
    I24_31  COST  1.97793101855
    I24_31  BAL24_31  -1
    I24_31  BAL24_32  1
    S24_31  COST  -62.100504778
    S24_31  BAL24_31  -1
    S24_31  DEM24_31  1
    I24_32  COST  1.97793101855
    I24_32  BAL24_32  -1
    I24_32  BAL24_33  1
    S24_32  COST  -43.4338384486
    S24_32  BAL24_32  -1
    S24_32  DEM24_32  1
    I24_33  COST  1.97793101855
    I24_33  BAL24_33  -1
    I24_33  BAL24_34  1
    S24_33  COST  -48.4646358203
    S24_33  BAL24_33  -1
    S24_33  DEM24_33  1
    I24_34  COST  1.97793101855
    I24_34  BAL24_34  -1
    I24_34  BAL24_35  1
    S24_34  COST  -35.2223093622
    S24_34  BAL24_34  -1
    S24_34  DEM24_34  1
    I24_35  COST  1.97793101855
    I24_35  BAL24_35  -1
    S24_35  COST  -38.0671064327
    S24_35  BAL24_35  -1
    S24_35  DEM24_35  1
    I25_0  COST  0.883984969077
    I25_0  BAL25_0  -1
    I25_0  BAL25_1  1
    S25_0  COST  -44.4931441099
    S25_0  BAL25_0  -1
    S25_0  DEM25_0  1
    I25_1  COST  0.883984969077
    I25_1  BAL25_1  -1
    I25_1  BAL25_2  1
    S25_1  COST  -40.5088965468
    S25_1  BAL25_1  -1
    S25_1  DEM25_1  1
    I25_2  COST  0.883984969077
    I25_2  BAL25_2  -1
    I25_2  BAL25_3  1
    S25_2  COST  -34.8765234345
    S25_2  BAL25_2  -1
    S25_2  DEM25_2  1
    I25_3  COST  0.883984969077
    I25_3  BAL25_3  -1
    I25_3  BAL25_4  1
    S25_3  COST  -65.5700426255
    S25_3  BAL25_3  -1
    S25_3  DEM25_3  1
    I25_4  COST  0.883984969077
    I25_4  BAL25_4  -1
    I25_4  BAL25_5  1
    S25_4  COST  -69.7130280599
    S25_4  BAL25_4  -1
    S25_4  DEM25_4  1
    I25_5  COST  0.883984969077
    I25_5  BAL25_5  -1
    I25_5  BAL25_6  1
    S25_5  COST  -49.8682182704
    S25_5  BAL25_5  -1
    S25_5  DEM25_5  1
    I25_6  COST  0.883984969077
    I25_6  BAL25_6  -1
    I25_6  BAL25_7  1
    S25_6  COST  -62.3090383659
    S25_6  BAL25_6  -1
    S25_6  DEM25_6  1
    I25_7  COST  0.883984969077
    I25_7  BAL25_7  -1
    I25_7  BAL25_8  1
    S25_7  COST  -72.2862913672
    S25_7  BAL25_7  -1
    S25_7  DEM25_7  1
    I25_8  COST  0.883984969077
    I25_8  BAL25_8  -1
    I25_8  BAL25_9  1
    S25_8  COST  -42.7574481558
    S25_8  BAL25_8  -1
    S25_8  DEM25_8  1
    I25_9  COST  0.883984969077
    I25_9  BAL25_9  -1
    I25_9  BAL25_10  1
    S25_9  COST  -66.7377818456
    S25_9  BAL25_9  -1
    S25_9  DEM25_9  1
    I25_10  COST  0.883984969077
    I25_10  BAL25_10  -1
    I25_10  BAL25_11  1
    S25_10  COST  -67.4741528866
    S25_10  BAL25_10  -1
    S25_10  DEM25_10  1
    I25_11  COST  0.883984969077
    I25_11  BAL25_11  -1
    I25_11  BAL25_12  1
    S25_11  COST  -60.8904121403
    S25_11  BAL25_11  -1
    S25_11  DEM25_11  1
    I25_12  COST  0.883984969077
    I25_12  BAL25_12  -1
    I25_12  BAL25_13  1
    S25_12  COST  -68.6802075334
    S25_12  BAL25_12  -1
    S25_12  DEM25_12  1
    I25_13  COST  0.883984969077
    I25_13  BAL25_13  -1
    I25_13  BAL25_14  1
    S25_13  COST  -68.3803490742
    S25_13  BAL25_13  -1
    S25_13  DEM25_13  1
    I25_14  COST  0.883984969077
    I25_14  BAL25_14  -1
    I25_14  BAL25_15  1
    S25_14  COST  -33.8167825103
    S25_14  BAL25_14  -1
    S25_14  DEM25_14  1
    I25_15  COST  0.883984969077
    I25_15  BAL25_15  -1
    I25_15  BAL25_16  1
    S25_15  COST  -66.7770631463
    S25_15  BAL25_15  -1
    S25_15  DEM25_15  1
    I25_16  COST  0.883984969077
    I25_16  BAL25_16  -1
    I25_16  BAL25_17  1
    S25_16  COST  -47.0731380574
    S25_16  BAL25_16  -1
    S25_16  DEM25_16  1
    I25_17  COST  0.883984969077
    I25_17  BAL25_17  -1
    I25_17  BAL25_18  1
    S25_17  COST  -52.22547424
    S25_17  BAL25_17  -1
    S25_17  DEM25_17  1
    I25_18  COST  0.883984969077
    I25_18  BAL25_18  -1
    I25_18  BAL25_19  1
    S25_18  COST  -33.7444237858
    S25_18  BAL25_18  -1
    S25_18  DEM25_18  1
    I25_19  COST  0.883984969077
    I25_19  BAL25_19  -1
    I25_19  BAL25_20  1
    S25_19  COST  -56.213201723
    S25_19  BAL25_19  -1
    S25_19  DEM25_19  1
    I25_20  COST  0.883984969077
    I25_20  BAL25_20  -1
    I25_20  BAL25_21  1
    S25_20  COST  -50.8579435124
    S25_20  BAL25_20  -1
    S25_20  DEM25_20  1
    I25_21  COST  0.883984969077
    I25_21  BAL25_21  -1
    I25_21  BAL25_22  1
    S25_21  COST  -69.9106372608
    S25_21  BAL25_21  -1
    S25_21  DEM25_21  1
    I25_22  COST  0.883984969077
    I25_22  BAL25_22  -1
    I25_22  BAL25_23  1
    S25_22  COST  -36.4403190894
    S25_22  BAL25_22  -1
    S25_22  DEM25_22  1
    I25_23  COST  0.883984969077
    I25_23  BAL25_23  -1
    I25_23  BAL25_24  1
    S25_23  COST  -73.2289777871
    S25_23  BAL25_23  -1
    S25_23  DEM25_23  1
    I25_24  COST  0.883984969077
    I25_24  BAL25_24  -1
    I25_24  BAL25_25  1
    S25_24  COST  -41.7639598075
    S25_24  BAL25_24  -1
    S25_24  DEM25_24  1
    I25_25  COST  0.883984969077
    I25_25  BAL25_25  -1
    I25_25  BAL25_26  1
    S25_25  COST  -66.5963697341
    S25_25  BAL25_25  -1
    S25_25  DEM25_25  1
    I25_26  COST  0.883984969077
    I25_26  BAL25_26  -1
    I25_26  BAL25_27  1
    S25_26  COST  -32.7688807501
    S25_26  BAL25_26  -1
    S25_26  DEM25_26  1
    I25_27  COST  0.883984969077
    I25_27  BAL25_27  -1
    I25_27  BAL25_28  1
    S25_27  COST  -69.5072149706
    S25_27  BAL25_27  -1
    S25_27  DEM25_27  1
    I25_28  COST  0.883984969077
    I25_28  BAL25_28  -1
    I25_28  BAL25_29  1
    S25_28  COST  -52.5710734274
    S25_28  BAL25_28  -1
    S25_28  DEM25_28  1
    I25_29  COST  0.883984969077
    I25_29  BAL25_29  -1
    I25_29  BAL25_30  1
    S25_29  COST  -48.5125665022
    S25_29  BAL25_29  -1
    S25_29  DEM25_29  1
    I25_30  COST  0.883984969077
    I25_30  BAL25_30  -1
    I25_30  BAL25_31  1
    S25_30  COST  -45.8061059837
    S25_30  BAL25_30  -1
    S25_30  DEM25_30  1
    I25_31  COST  0.883984969077
    I25_31  BAL25_31  -1
    I25_31  BAL25_32  1
    S25_31  COST  -30.6917737583
    S25_31  BAL25_31  -1
    S25_31  DEM25_31  1
    I25_32  COST  0.883984969077
    I25_32  BAL25_32  -1
    I25_32  BAL25_33  1
    S25_32  COST  -67.8797946873
    S25_32  BAL25_32  -1
    S25_32  DEM25_32  1
    I25_33  COST  0.883984969077
    I25_33  BAL25_33  -1
    I25_33  BAL25_34  1
    S25_33  COST  -47.6398982731
    S25_33  BAL25_33  -1
    S25_33  DEM25_33  1
    I25_34  COST  0.883984969077
    I25_34  BAL25_34  -1
    I25_34  BAL25_35  1
    S25_34  COST  -34.5262355275
    S25_34  BAL25_34  -1
    S25_34  DEM25_34  1
    I25_35  COST  0.883984969077
    I25_35  BAL25_35  -1
    S25_35  COST  -31.1424152086
    S25_35  BAL25_35  -1
    S25_35  DEM25_35  1
    I26_0  COST  1.38974874569
    I26_0  BAL26_0  -1
    I26_0  BAL26_1  1
    S26_0  COST  -56.7916626081
    S26_0  BAL26_0  -1
    S26_0  DEM26_0  1
    I26_1  COST  1.38974874569
    I26_1  BAL26_1  -1
    I26_1  BAL26_2  1
    S26_1  COST  -33.0807781265
    S26_1  BAL26_1  -1
    S26_1  DEM26_1  1
    I26_2  COST  1.38974874569
    I26_2  BAL26_2  -1
    I26_2  BAL26_3  1
    S26_2  COST  -73.6955404959
    S26_2  BAL26_2  -1
    S26_2  DEM26_2  1
    I26_3  COST  1.38974874569
    I26_3  BAL26_3  -1
    I26_3  BAL26_4  1
    S26_3  COST  -49.5308254577
    S26_3  BAL26_3  -1
    S26_3  DEM26_3  1
    I26_4  COST  1.38974874569
    I26_4  BAL26_4  -1
    I26_4  BAL26_5  1
    S26_4  COST  -74.9296685328
    S26_4  BAL26_4  -1
    S26_4  DEM26_4  1
    I26_5  COST  1.38974874569
    I26_5  BAL26_5  -1
    I26_5  BAL26_6  1
    S26_5  COST  -56.2044283991
    S26_5  BAL26_5  -1
    S26_5  DEM26_5  1
    I26_6  COST  1.38974874569
    I26_6  BAL26_6  -1
    I26_6  BAL26_7  1
    S26_6  COST  -41.218505906
    S26_6  BAL26_6  -1
    S26_6  DEM26_6  1
    I26_7  COST  1.38974874569
    I26_7  BAL26_7  -1
    I26_7  BAL26_8  1
    S26_7  COST  -45.6508851446
    S26_7  BAL26_7  -1
    S26_7  DEM26_7  1
    I26_8  COST  1.38974874569
    I26_8  BAL26_8  -1
    I26_8  BAL26_9  1
    S26_8  COST  -74.1251066623
    S26_8  BAL26_8  -1
    S26_8  DEM26_8  1
    I26_9  COST  1.38974874569
    I26_9  BAL26_9  -1
    I26_9  BAL26_10  1
    S26_9  COST  -68.0277537556
    S26_9  BAL26_9  -1
    S26_9  DEM26_9  1
    I26_10  COST  1.38974874569
    I26_10  BAL26_10  -1
    I26_10  BAL26_11  1
    S26_10  COST  -71.9361586139
    S26_10  BAL26_10  -1
    S26_10  DEM26_10  1
    I26_11  COST  1.38974874569
    I26_11  BAL26_11  -1
    I26_11  BAL26_12  1
    S26_11  COST  -39.879406511
    S26_11  BAL26_11  -1
    S26_11  DEM26_11  1
    I26_12  COST  1.38974874569
    I26_12  BAL26_12  -1
    I26_12  BAL26_13  1
    S26_12  COST  -51.8047998368
    S26_12  BAL26_12  -1
    S26_12  DEM26_12  1
    I26_13  COST  1.38974874569
    I26_13  BAL26_13  -1
    I26_13  BAL26_14  1
    S26_13  COST  -74.6925113008
    S26_13  BAL26_13  -1
    S26_13  DEM26_13  1
    I26_14  COST  1.38974874569
    I26_14  BAL26_14  -1
    I26_14  BAL26_15  1
    S26_14  COST  -34.4728070264
    S26_14  BAL26_14  -1
    S26_14  DEM26_14  1
    I26_15  COST  1.38974874569
    I26_15  BAL26_15  -1
    I26_15  BAL26_16  1
    S26_15  COST  -39.7540315189
    S26_15  BAL26_15  -1
    S26_15  DEM26_15  1
    I26_16  COST  1.38974874569
    I26_16  BAL26_16  -1
    I26_16  BAL26_17  1
    S26_16  COST  -66.3987665158
    S26_16  BAL26_16  -1
    S26_16  DEM26_16  1
    I26_17  COST  1.38974874569
    I26_17  BAL26_17  -1
    I26_17  BAL26_18  1
    S26_17  COST  -44.5820803978
    S26_17  BAL26_17  -1
    S26_17  DEM26_17  1
    I26_18  COST  1.38974874569
    I26_18  BAL26_18  -1
    I26_18  BAL26_19  1
    S26_18  COST  -41.9892316179
    S26_18  BAL26_18  -1
    S26_18  DEM26_18  1
    I26_19  COST  1.38974874569
    I26_19  BAL26_19  -1
    I26_19  BAL26_20  1
    S26_19  COST  -44.3351659258
    S26_19  BAL26_19  -1
    S26_19  DEM26_19  1
    I26_20  COST  1.38974874569
    I26_20  BAL26_20  -1
    I26_20  BAL26_21  1
    S26_20  COST  -41.1238073294
    S26_20  BAL26_20  -1
    S26_20  DEM26_20  1
    I26_21  COST  1.38974874569
    I26_21  BAL26_21  -1
    I26_21  BAL26_22  1
    S26_21  COST  -53.4700058718
    S26_21  BAL26_21  -1
    S26_21  DEM26_21  1
    I26_22  COST  1.38974874569
    I26_22  BAL26_22  -1
    I26_22  BAL26_23  1
    S26_22  COST  -67.5164108417
    S26_22  BAL26_22  -1
    S26_22  DEM26_22  1
    I26_23  COST  1.38974874569
    I26_23  BAL26_23  -1
    I26_23  BAL26_24  1
    S26_23  COST  -58.6124479637
    S26_23  BAL26_23  -1
    S26_23  DEM26_23  1
    I26_24  COST  1.38974874569
    I26_24  BAL26_24  -1
    I26_24  BAL26_25  1
    S26_24  COST  -60.5563213096
    S26_24  BAL26_24  -1
    S26_24  DEM26_24  1
    I26_25  COST  1.38974874569
    I26_25  BAL26_25  -1
    I26_25  BAL26_26  1
    S26_25  COST  -52.4868889142
    S26_25  BAL26_25  -1
    S26_25  DEM26_25  1
    I26_26  COST  1.38974874569
    I26_26  BAL26_26  -1
    I26_26  BAL26_27  1
    S26_26  COST  -38.5578807881
    S26_26  BAL26_26  -1
    S26_26  DEM26_26  1
    I26_27  COST  1.38974874569
    I26_27  BAL26_27  -1
    I26_27  BAL26_28  1
    S26_27  COST  -71.6545589483
    S26_27  BAL26_27  -1
    S26_27  DEM26_27  1
    I26_28  COST  1.38974874569
    I26_28  BAL26_28  -1
    I26_28  BAL26_29  1
    S26_28  COST  -37.3584122282
    S26_28  BAL26_28  -1
    S26_28  DEM26_28  1
    I26_29  COST  1.38974874569
    I26_29  BAL26_29  -1
    I26_29  BAL26_30  1
    S26_29  COST  -48.9032333811
    S26_29  BAL26_29  -1
    S26_29  DEM26_29  1
    I26_30  COST  1.38974874569
    I26_30  BAL26_30  -1
    I26_30  BAL26_31  1
    S26_30  COST  -53.084009308
    S26_30  BAL26_30  -1
    S26_30  DEM26_30  1
    I26_31  COST  1.38974874569
    I26_31  BAL26_31  -1
    I26_31  BAL26_32  1
    S26_31  COST  -72.1454102945
    S26_31  BAL26_31  -1
    S26_31  DEM26_31  1
    I26_32  COST  1.38974874569
    I26_32  BAL26_32  -1
    I26_32  BAL26_33  1
    S26_32  COST  -49.3465678196
    S26_32  BAL26_32  -1
    S26_32  DEM26_32  1
    I26_33  COST  1.38974874569
    I26_33  BAL26_33  -1
    I26_33  BAL26_34  1
    S26_33  COST  -46.5701318293
    S26_33  BAL26_33  -1
    S26_33  DEM26_33  1
    I26_34  COST  1.38974874569
    I26_34  BAL26_34  -1
    I26_34  BAL26_35  1
    S26_34  COST  -67.1038888498
    S26_34  BAL26_34  -1
    S26_34  DEM26_34  1
    I26_35  COST  1.38974874569
    I26_35  BAL26_35  -1
    S26_35  COST  -53.7278613695
    S26_35  BAL26_35  -1
    S26_35  DEM26_35  1
    I27_0  COST  1.58207658203
    I27_0  BAL27_0  -1
    I27_0  BAL27_1  1
    S27_0  COST  -63.66541413
    S27_0  BAL27_0  -1
    S27_0  DEM27_0  1
    I27_1  COST  1.58207658203
    I27_1  BAL27_1  -1
    I27_1  BAL27_2  1
    S27_1  COST  -52.0878565726
    S27_1  BAL27_1  -1
    S27_1  DEM27_1  1
    I27_2  COST  1.58207658203
    I27_2  BAL27_2  -1
    I27_2  BAL27_3  1
    S27_2  COST  -47.4101182265
    S27_2  BAL27_2  -1
    S27_2  DEM27_2  1
    I27_3  COST  1.58207658203
    I27_3  BAL27_3  -1
    I27_3  BAL27_4  1
    S27_3  COST  -53.0950199544
    S27_3  BAL27_3  -1
    S27_3  DEM27_3  1
    I27_4  COST  1.58207658203
    I27_4  BAL27_4  -1
    I27_4  BAL27_5  1
    S27_4  COST  -69.7037748276
    S27_4  BAL27_4  -1
    S27_4  DEM27_4  1
    I27_5  COST  1.58207658203
    I27_5  BAL27_5  -1
    I27_5  BAL27_6  1
    S27_5  COST  -40.9259322542
    S27_5  BAL27_5  -1
    S27_5  DEM27_5  1
    I27_6  COST  1.58207658203
    I27_6  BAL27_6  -1
    I27_6  BAL27_7  1
    S27_6  COST  -47.4737570581
    S27_6  BAL27_6  -1
    S27_6  DEM27_6  1
    I27_7  COST  1.58207658203
    I27_7  BAL27_7  -1
    I27_7  BAL27_8  1
    S27_7  COST  -31.1143717728
    S27_7  BAL27_7  -1
    S27_7  DEM27_7  1
    I27_8  COST  1.58207658203
    I27_8  BAL27_8  -1
    I27_8  BAL27_9  1
    S27_8  COST  -38.4353782981
    S27_8  BAL27_8  -1
    S27_8  DEM27_8  1
    I27_9  COST  1.58207658203
    I27_9  BAL27_9  -1
    I27_9  BAL27_10  1
    S27_9  COST  -52.2688199617
    S27_9  BAL27_9  -1
    S27_9  DEM27_9  1
    I27_10  COST  1.58207658203
    I27_10  BAL27_10  -1
    I27_10  BAL27_11  1
    S27_10  COST  -41.6866341542
    S27_10  BAL27_10  -1
    S27_10  DEM27_10  1
    I27_11  COST  1.58207658203
    I27_11  BAL27_11  -1
    I27_11  BAL27_12  1
    S27_11  COST  -57.8136632227
    S27_11  BAL27_11  -1
    S27_11  DEM27_11  1
    I27_12  COST  1.58207658203
    I27_12  BAL27_12  -1
    I27_12  BAL27_13  1
    S27_12  COST  -33.0561901624
    S27_12  BAL27_12  -1
    S27_12  DEM27_12  1
    I27_13  COST  1.58207658203
    I27_13  BAL27_13  -1
    I27_13  BAL27_14  1
    S27_13  COST  -55.1710023951
    S27_13  BAL27_13  -1
    S27_13  DEM27_13  1
    I27_14  COST  1.58207658203
    I27_14  BAL27_14  -1
    I27_14  BAL27_15  1
    S27_14  COST  -34.8109847698
    S27_14  BAL27_14  -1
    S27_14  DEM27_14  1
    I27_15  COST  1.58207658203
    I27_15  BAL27_15  -1
    I27_15  BAL27_16  1
    S27_15  COST  -35.7394188605
    S27_15  BAL27_15  -1
    S27_15  DEM27_15  1
    I27_16  COST  1.58207658203
    I27_16  BAL27_16  -1
    I27_16  BAL27_17  1
    S27_16  COST  -53.9466091892
    S27_16  BAL27_16  -1
    S27_16  DEM27_16  1
    I27_17  COST  1.58207658203
    I27_17  BAL27_17  -1
    I27_17  BAL27_18  1
    S27_17  COST  -63.4691688153
    S27_17  BAL27_17  -1
    S27_17  DEM27_17  1
    I27_18  COST  1.58207658203
    I27_18  BAL27_18  -1
    I27_18  BAL27_19  1
    S27_18  COST  -52.2358000196
    S27_18  BAL27_18  -1
    S27_18  DEM27_18  1
    I27_19  COST  1.58207658203
    I27_19  BAL27_19  -1
    I27_19  BAL27_20  1
    S27_19  COST  -49.2939599852
    S27_19  BAL27_19  -1
    S27_19  DEM27_19  1
    I27_20  COST  1.58207658203
    I27_20  BAL27_20  -1
    I27_20  BAL27_21  1
    S27_20  COST  -69.3021165293
    S27_20  BAL27_20  -1
    S27_20  DEM27_20  1
    I27_21  COST  1.58207658203
    I27_21  BAL27_21  -1
    I27_21  BAL27_22  1
    S27_21  COST  -53.0399534856
    S27_21  BAL27_21  -1
    S27_21  DEM27_21  1
    I27_22  COST  1.58207658203
    I27_22  BAL27_22  -1
    I27_22  BAL27_23  1
    S27_22  COST  -57.5974866673
    S27_22  BAL27_22  -1
    S27_22  DEM27_22  1
    I27_23  COST  1.58207658203
    I27_23  BAL27_23  -1
    I27_23  BAL27_24  1
    S27_23  COST  -46.462932722
    S27_23  BAL27_23  -1
    S27_23  DEM27_23  1
    I27_24  COST  1.58207658203
    I27_24  BAL27_24  -1
    I27_24  BAL27_25  1
    S27_24  COST  -31.7274338062
    S27_24  BAL27_24  -1
    S27_24  DEM27_24  1
    I27_25  COST  1.58207658203
    I27_25  BAL27_25  -1
    I27_25  BAL27_26  1
    S27_25  COST  -54.4362229153
    S27_25  BAL27_25  -1
    S27_25  DEM27_25  1
    I27_26  COST  1.58207658203
    I27_26  BAL27_26  -1
    I27_26  BAL27_27  1
    S27_26  COST  -62.500022881
    S27_26  BAL27_26  -1
    S27_26  DEM27_26  1
    I27_27  COST  1.58207658203
    I27_27  BAL27_27  -1
    I27_27  BAL27_28  1
    S27_27  COST  -42.3376557602
    S27_27  BAL27_27  -1
    S27_27  DEM27_27  1
    I27_28  COST  1.58207658203
    I27_28  BAL27_28  -1
    I27_28  BAL27_29  1
    S27_28  COST  -61.4610328896
    S27_28  BAL27_28  -1
    S27_28  DEM27_28  1
    I27_29  COST  1.58207658203
    I27_29  BAL27_29  -1
    I27_29  BAL27_30  1
    S27_29  COST  -48.5023713909
    S27_29  BAL27_29  -1
    S27_29  DEM27_29  1
    I27_30  COST  1.58207658203
    I27_30  BAL27_30  -1
    I27_30  BAL27_31  1
    S27_30  COST  -69.1061741984
    S27_30  BAL27_30  -1
    S27_30  DEM27_30  1
    I27_31  COST  1.58207658203
    I27_31  BAL27_31  -1
    I27_31  BAL27_32  1
    S27_31  COST  -33.2124306029
    S27_31  BAL27_31  -1
    S27_31  DEM27_31  1
    I27_32  COST  1.58207658203
    I27_32  BAL27_32  -1
    I27_32  BAL27_33  1
    S27_32  COST  -74.540729236
    S27_32  BAL27_32  -1
    S27_32  DEM27_32  1
    I27_33  COST  1.58207658203
    I27_33  BAL27_33  -1
    I27_33  BAL27_34  1
    S27_33  COST  -71.286619854
    S27_33  BAL27_33  -1
    S27_33  DEM27_33  1
    I27_34  COST  1.58207658203
    I27_34  BAL27_34  -1
    I27_34  BAL27_35  1
    S27_34  COST  -52.4535032751
    S27_34  BAL27_34  -1
    S27_34  DEM27_34  1
    I27_35  COST  1.58207658203
    I27_35  BAL27_35  -1
    S27_35  COST  -54.3060598488
    S27_35  BAL27_35  -1
    S27_35  DEM27_35  1
    I28_0  COST  0.68737051367
    I28_0  BAL28_0  -1
    I28_0  BAL28_1  1
    S28_0  COST  -38.8097839152
    S28_0  BAL28_0  -1
    S28_0  DEM28_0  1
    I28_1  COST  0.68737051367
    I28_1  BAL28_1  -1
    I28_1  BAL28_2  1
    S28_1  COST  -48.6842952725
    S28_1  BAL28_1  -1
    S28_1  DEM28_1  1
    I28_2  COST  0.68737051367
    I28_2  BAL28_2  -1
    I28_2  BAL28_3  1
    S28_2  COST  -36.1713786279
    S28_2  BAL28_2  -1
    S28_2  DEM28_2  1
    I28_3  COST  0.68737051367
    I28_3  BAL28_3  -1
    I28_3  BAL28_4  1
    S28_3  COST  -53.7685850548
    S28_3  BAL28_3  -1
    S28_3  DEM28_3  1
    I28_4  COST  0.68737051367
    I28_4  BAL28_4  -1
    I28_4  BAL28_5  1
    S28_4  COST  -61.3769545106
    S28_4  BAL28_4  -1
    S28_4  DEM28_4  1
    I28_5  COST  0.68737051367
    I28_5  BAL28_5  -1
    I28_5  BAL28_6  1
    S28_5  COST  -72.3112687919
    S28_5  BAL28_5  -1
    S28_5  DEM28_5  1
    I28_6  COST  0.68737051367
    I28_6  BAL28_6  -1
    I28_6  BAL28_7  1
    S28_6  COST  -60.7933455169
    S28_6  BAL28_6  -1
    S28_6  DEM28_6  1
    I28_7  COST  0.68737051367
    I28_7  BAL28_7  -1
    I28_7  BAL28_8  1
    S28_7  COST  -71.6759443281
    S28_7  BAL28_7  -1
    S28_7  DEM28_7  1
    I28_8  COST  0.68737051367
    I28_8  BAL28_8  -1
    I28_8  BAL28_9  1
    S28_8  COST  -60.3356724019
    S28_8  BAL28_8  -1
    S28_8  DEM28_8  1
    I28_9  COST  0.68737051367
    I28_9  BAL28_9  -1
    I28_9  BAL28_10  1
    S28_9  COST  -41.7318662394
    S28_9  BAL28_9  -1
    S28_9  DEM28_9  1
    I28_10  COST  0.68737051367
    I28_10  BAL28_10  -1
    I28_10  BAL28_11  1
    S28_10  COST  -44.7906239569
    S28_10  BAL28_10  -1
    S28_10  DEM28_10  1
    I28_11  COST  0.68737051367
    I28_11  BAL28_11  -1
    I28_11  BAL28_12  1
    S28_11  COST  -53.2489590944
    S28_11  BAL28_11  -1
    S28_11  DEM28_11  1
    I28_12  COST  0.68737051367
    I28_12  BAL28_12  -1
    I28_12  BAL28_13  1
    S28_12  COST  -35.8348740039
    S28_12  BAL28_12  -1
    S28_12  DEM28_12  1
    I28_13  COST  0.68737051367
    I28_13  BAL28_13  -1
    I28_13  BAL28_14  1
    S28_13  COST  -63.7877159697
    S28_13  BAL28_13  -1
    S28_13  DEM28_13  1
    I28_14  COST  0.68737051367
    I28_14  BAL28_14  -1
    I28_14  BAL28_15  1
    S28_14  COST  -67.4921468364
    S28_14  BAL28_14  -1
    S28_14  DEM28_14  1
    I28_15  COST  0.68737051367
    I28_15  BAL28_15  -1
    I28_15  BAL28_16  1
    S28_15  COST  -71.0546521967
    S28_15  BAL28_15  -1
    S28_15  DEM28_15  1
    I28_16  COST  0.68737051367
    I28_16  BAL28_16  -1
    I28_16  BAL28_17  1
    S28_16  COST  -49.2552300429
    S28_16  BAL28_16  -1
    S28_16  DEM28_16  1
    I28_17  COST  0.68737051367
    I28_17  BAL28_17  -1
    I28_17  BAL28_18  1
    S28_17  COST  -40.3358948935
    S28_17  BAL28_17  -1
    S28_17  DEM28_17  1
    I28_18  COST  0.68737051367
    I28_18  BAL28_18  -1
    I28_18  BAL28_19  1
    S28_18  COST  -54.7209749472
    S28_18  BAL28_18  -1
    S28_18  DEM28_18  1
    I28_19  COST  0.68737051367
    I28_19  BAL28_19  -1
    I28_19  BAL28_20  1
    S28_19  COST  -44.5544414501
    S28_19  BAL28_19  -1
    S28_19  DEM28_19  1
    I28_20  COST  0.68737051367
    I28_20  BAL28_20  -1
    I28_20  BAL28_21  1
    S28_20  COST  -56.521110994
    S28_20  BAL28_20  -1
    S28_20  DEM28_20  1
    I28_21  COST  0.68737051367
    I28_21  BAL28_21  -1
    I28_21  BAL28_22  1
    S28_21  COST  -72.844248613
    S28_21  BAL28_21  -1
    S28_21  DEM28_21  1
    I28_22  COST  0.68737051367
    I28_22  BAL28_22  -1
    I28_22  BAL28_23  1
    S28_22  COST  -54.4887966706
    S28_22  BAL28_22  -1
    S28_22  DEM28_22  1
    I28_23  COST  0.68737051367
    I28_23  BAL28_23  -1
    I28_23  BAL28_24  1
    S28_23  COST  -36.0134003159
    S28_23  BAL28_23  -1
    S28_23  DEM28_23  1
    I28_24  COST  0.68737051367
    I28_24  BAL28_24  -1
    I28_24  BAL28_25  1
    S28_24  COST  -47.6391125494
    S28_24  BAL28_24  -1
    S28_24  DEM28_24  1
    I28_25  COST  0.68737051367
    I28_25  BAL28_25  -1
    I28_25  BAL28_26  1
    S28_25  COST  -45.3003268063
    S28_25  BAL28_25  -1
    S28_25  DEM28_25  1
    I28_26  COST  0.68737051367
    I28_26  BAL28_26  -1
    I28_26  BAL28_27  1
    S28_26  COST  -65.2012495024
    S28_26  BAL28_26  -1
    S28_26  DEM28_26  1
    I28_27  COST  0.68737051367
    I28_27  BAL28_27  -1
    I28_27  BAL28_28  1
    S28_27  COST  -62.2768638564
    S28_27  BAL28_27  -1
    S28_27  DEM28_27  1
    I28_28  COST  0.68737051367
    I28_28  BAL28_28  -1
    I28_28  BAL28_29  1
    S28_28  COST  -51.5166099747
    S28_28  BAL28_28  -1
    S28_28  DEM28_28  1
    I28_29  COST  0.68737051367
    I28_29  BAL28_29  -1
    I28_29  BAL28_30  1
    S28_29  COST  -50.0179805349
    S28_29  BAL28_29  -1
    S28_29  DEM28_29  1
    I28_30  COST  0.68737051367
    I28_30  BAL28_30  -1
    I28_30  BAL28_31  1
    S28_30  COST  -74.3639622225
    S28_30  BAL28_30  -1
    S28_30  DEM28_30  1
    I28_31  COST  0.68737051367
    I28_31  BAL28_31  -1
    I28_31  BAL28_32  1
    S28_31  COST  -40.9702436022
    S28_31  BAL28_31  -1
    S28_31  DEM28_31  1
    I28_32  COST  0.68737051367
    I28_32  BAL28_32  -1
    I28_32  BAL28_33  1
    S28_32  COST  -64.7324436949
    S28_32  BAL28_32  -1
    S28_32  DEM28_32  1
    I28_33  COST  0.68737051367
    I28_33  BAL28_33  -1
    I28_33  BAL28_34  1
    S28_33  COST  -71.3088107616
    S28_33  BAL28_33  -1
    S28_33  DEM28_33  1
    I28_34  COST  0.68737051367
    I28_34  BAL28_34  -1
    I28_34  BAL28_35  1
    S28_34  COST  -62.9977992123
    S28_34  BAL28_34  -1
    S28_34  DEM28_34  1
    I28_35  COST  0.68737051367
    I28_35  BAL28_35  -1
    S28_35  COST  -56.6093548438
    S28_35  BAL28_35  -1
    S28_35  DEM28_35  1
    I29_0  COST  2.37759541614
    I29_0  BAL29_0  -1
    I29_0  BAL29_1  1
    S29_0  COST  -70.1246652705
    S29_0  BAL29_0  -1
    S29_0  DEM29_0  1
    I29_1  COST  2.37759541614
    I29_1  BAL29_1  -1
    I29_1  BAL29_2  1
    S29_1  COST  -40.923777157
    S29_1  BAL29_1  -1
    S29_1  DEM29_1  1
    I29_2  COST  2.37759541614
    I29_2  BAL29_2  -1
    I29_2  BAL29_3  1
    S29_2  COST  -50.2351865519
    S29_2  BAL29_2  -1
    S29_2  DEM29_2  1
    I29_3  COST  2.37759541614
    I29_3  BAL29_3  -1
    I29_3  BAL29_4  1
    S29_3  COST  -53.454311525
    S29_3  BAL29_3  -1
    S29_3  DEM29_3  1
    I29_4  COST  2.37759541614
    I29_4  BAL29_4  -1
    I29_4  BAL29_5  1
    S29_4  COST  -54.4607679626
    S29_4  BAL29_4  -1
    S29_4  DEM29_4  1
    I29_5  COST  2.37759541614
    I29_5  BAL29_5  -1
    I29_5  BAL29_6  1
    S29_5  COST  -30.7462719685
    S29_5  BAL29_5  -1
    S29_5  DEM29_5  1
    I29_6  COST  2.37759541614
    I29_6  BAL29_6  -1
    I29_6  BAL29_7  1
    S29_6  COST  -36.1085229983
    S29_6  BAL29_6  -1
    S29_6  DEM29_6  1
    I29_7  COST  2.37759541614
    I29_7  BAL29_7  -1
    I29_7  BAL29_8  1
    S29_7  COST  -60.1837405373
    S29_7  BAL29_7  -1
    S29_7  DEM29_7  1
    I29_8  COST  2.37759541614
    I29_8  BAL29_8  -1
    I29_8  BAL29_9  1
    S29_8  COST  -57.3229446562
    S29_8  BAL29_8  -1
    S29_8  DEM29_8  1
    I29_9  COST  2.37759541614
    I29_9  BAL29_9  -1
    I29_9  BAL29_10  1
    S29_9  COST  -68.9691147318
    S29_9  BAL29_9  -1
    S29_9  DEM29_9  1
    I29_10  COST  2.37759541614
    I29_10  BAL29_10  -1
    I29_10  BAL29_11  1
    S29_10  COST  -70.5894860825
    S29_10  BAL29_10  -1
    S29_10  DEM29_10  1
    I29_11  COST  2.37759541614
    I29_11  BAL29_11  -1
    I29_11  BAL29_12  1
    S29_11  COST  -73.9569667117
    S29_11  BAL29_11  -1
    S29_11  DEM29_11  1
    I29_12  COST  2.37759541614
    I29_12  BAL29_12  -1
    I29_12  BAL29_13  1
    S29_12  COST  -61.5283541145
    S29_12  BAL29_12  -1
    S29_12  DEM29_12  1
    I29_13  COST  2.37759541614
    I29_13  BAL29_13  -1
    I29_13  BAL29_14  1
    S29_13  COST  -50.4276988351
    S29_13  BAL29_13  -1
    S29_13  DEM29_13  1
    I29_14  COST  2.37759541614
    I29_14  BAL29_14  -1
    I29_14  BAL29_15  1
    S29_14  COST  -52.6801963486
    S29_14  BAL29_14  -1
    S29_14  DEM29_14  1
    I29_15  COST  2.37759541614
    I29_15  BAL29_15  -1
    I29_15  BAL29_16  1
    S29_15  COST  -54.6467399748
    S29_15  BAL29_15  -1
    S29_15  DEM29_15  1
    I29_16  COST  2.37759541614
    I29_16  BAL29_16  -1
    I29_16  BAL29_17  1
    S29_16  COST  -48.5691534284
    S29_16  BAL29_16  -1
    S29_16  DEM29_16  1
    I29_17  COST  2.37759541614
    I29_17  BAL29_17  -1
    I29_17  BAL29_18  1
    S29_17  COST  -66.6853651364
    S29_17  BAL29_17  -1
    S29_17  DEM29_17  1
    I29_18  COST  2.37759541614
    I29_18  BAL29_18  -1
    I29_18  BAL29_19  1
    S29_18  COST  -49.8872407843
    S29_18  BAL29_18  -1
    S29_18  DEM29_18  1
    I29_19  COST  2.37759541614
    I29_19  BAL29_19  -1
    I29_19  BAL29_20  1
    S29_19  COST  -54.2542808233
    S29_19  BAL29_19  -1
    S29_19  DEM29_19  1
    I29_20  COST  2.37759541614
    I29_20  BAL29_20  -1
    I29_20  BAL29_21  1
    S29_20  COST  -65.3054301146
    S29_20  BAL29_20  -1
    S29_20  DEM29_20  1
    I29_21  COST  2.37759541614
    I29_21  BAL29_21  -1
    I29_21  BAL29_22  1
    S29_21  COST  -68.2390115256
    S29_21  BAL29_21  -1
    S29_21  DEM29_21  1
    I29_22  COST  2.37759541614
    I29_22  BAL29_22  -1
    I29_22  BAL29_23  1
    S29_22  COST  -59.4468929067
    S29_22  BAL29_22  -1
    S29_22  DEM29_22  1
    I29_23  COST  2.37759541614
    I29_23  BAL29_23  -1
    I29_23  BAL29_24  1
    S29_23  COST  -48.5544133598
    S29_23  BAL29_23  -1
    S29_23  DEM29_23  1
    I29_24  COST  2.37759541614
    I29_24  BAL29_24  -1
    I29_24  BAL29_25  1
    S29_24  COST  -65.2119572216
    S29_24  BAL29_24  -1
    S29_24  DEM29_24  1
    I29_25  COST  2.37759541614
    I29_25  BAL29_25  -1
    I29_25  BAL29_26  1
    S29_25  COST  -50.9876046112
    S29_25  BAL29_25  -1
    S29_25  DEM29_25  1
    I29_26  COST  2.37759541614
    I29_26  BAL29_26  -1
    I29_26  BAL29_27  1
    S29_26  COST  -35.0165649683
    S29_26  BAL29_26  -1
    S29_26  DEM29_26  1
    I29_27  COST  2.37759541614
    I29_27  BAL29_27  -1
    I29_27  BAL29_28  1
    S29_27  COST  -50.3499181143
    S29_27  BAL29_27  -1
    S29_27  DEM29_27  1
    I29_28  COST  2.37759541614
    I29_28  BAL29_28  -1
    I29_28  BAL29_29  1
    S29_28  COST  -30.5623426209
    S29_28  BAL29_28  -1
    S29_28  DEM29_28  1
    I29_29  COST  2.37759541614
    I29_29  BAL29_29  -1
    I29_29  BAL29_30  1
    S29_29  COST  -43.6489586854
    S29_29  BAL29_29  -1
    S29_29  DEM29_29  1
    I29_30  COST  2.37759541614
    I29_30  BAL29_30  -1
    I29_30  BAL29_31  1
    S29_30  COST  -46.0365578066
    S29_30  BAL29_30  -1
    S29_30  DEM29_30  1
    I29_31  COST  2.37759541614
    I29_31  BAL29_31  -1
    I29_31  BAL29_32  1
    S29_31  COST  -72.8451115312
    S29_31  BAL29_31  -1
    S29_31  DEM29_31  1
    I29_32  COST  2.37759541614
    I29_32  BAL29_32  -1
    I29_32  BAL29_33  1
    S29_32  COST  -34.5735502285
    S29_32  BAL29_32  -1
    S29_32  DEM29_32  1
    I29_33  COST  2.37759541614
    I29_33  BAL29_33  -1
    I29_33  BAL29_34  1
    S29_33  COST  -48.037190216
    S29_33  BAL29_33  -1
    S29_33  DEM29_33  1
    I29_34  COST  2.37759541614
    I29_34  BAL29_34  -1
    I29_34  BAL29_35  1
    S29_34  COST  -69.3666649735
    S29_34  BAL29_34  -1
    S29_34  DEM29_34  1
    I29_35  COST  2.37759541614
    I29_35  BAL29_35  -1
    S29_35  COST  -48.8206929715
    S29_35  BAL29_35  -1
    S29_35  DEM29_35  1
RHS
    RHS  BAL0_0  0
    RHS  BAL0_1  0
    RHS  BAL0_2  0
    RHS  BAL0_3  0
    RHS  BAL0_4  0
    RHS  BAL0_5  0
    RHS  BAL0_6  0
    RHS  BAL0_7  0
    RHS  BAL0_8  0
    RHS  BAL0_9  0
    RHS  BAL0_10  0
    RHS  BAL0_11  0
    RHS  BAL0_12  0
    RHS  BAL0_13  0
    RHS  BAL0_14  0
    RHS  BAL0_15  0
    RHS  BAL0_16  0
    RHS  BAL0_17  0
    RHS  BAL0_18  0
    RHS  BAL0_19  0
    RHS  BAL0_20  0
    RHS  BAL0_21  0
    RHS  BAL0_22  0
    RHS  BAL0_23  0
    RHS  BAL0_24  0
    RHS  BAL0_25  0
    RHS  BAL0_26  0
    RHS  BAL0_27  0
    RHS  BAL0_28  0
    RHS  BAL0_29  0
    RHS  BAL0_30  0
    RHS  BAL0_31  0
    RHS  BAL0_32  0
    RHS  BAL0_33  0
    RHS  BAL0_34  0
    RHS  BAL0_35  0
    RHS  DEM0_0  21.9311524254
    RHS  DEM0_1  13.2747479861
    RHS  DEM0_2  18.7301922317
    RHS  DEM0_3  14.5017449422
    RHS  DEM0_4  19.391603728
    RHS  DEM0_5  12.8307879335
    RHS  DEM0_6  19.5967542057
    RHS  DEM0_7  58.7967492192
    RHS  DEM0_8  10.4225750699
    RHS  DEM0_9  15.237640251
    RHS  DEM0_10  57.9823492325
    RHS  DEM0_11  54.6421852568
    RHS  DEM0_12  15.8482643482
    RHS  DEM0_13  20.5231477992
    RHS  DEM0_14  57.1840932495
    RHS  DEM0_15  56.0117433996
    RHS  DEM0_16  40.6587050349
    RHS  DEM0_17  10.6831659142
    RHS  DEM0_18  26.9105255513
    RHS  DEM0_19  39.0058105665
    RHS  DEM0_20  31.0999814925
    RHS  DEM0_21  11.5232068816
    RHS  DEM0_22  54.0719184682
    RHS  DEM0_23  50.7929637485
    RHS  DEM0_24  50.9159978135
    RHS  DEM0_25  22.4324218443
    RHS  DEM0_26  11.4258014696
    RHS  DEM0_27  54.2061834337
    RHS  DEM0_28  56.5085932711
    RHS  DEM0_29  23.1798854009
    RHS  DEM0_30  8.74936206159
    RHS  DEM0_31  38.8560748394
    RHS  DEM0_32  29.0740176075
    RHS  DEM0_33  52.9622263898
    RHS  DEM0_34  15.6924635514
    RHS  DEM0_35  42.5833679544
    RHS  BAL1_0  0
    RHS  BAL1_1  0
    RHS  BAL1_2  0
    RHS  BAL1_3  0
    RHS  BAL1_4  0
    RHS  BAL1_5  0
    RHS  BAL1_6  0
    RHS  BAL1_7  0
    RHS  BAL1_8  0
    RHS  BAL1_9  0
    RHS  BAL1_10  0
    RHS  BAL1_11  0
    RHS  BAL1_12  0
    RHS  BAL1_13  0
    RHS  BAL1_14  0
    RHS  BAL1_15  0
    RHS  BAL1_16  0
    RHS  BAL1_17  0
    RHS  BAL1_18  0
    RHS  BAL1_19  0
    RHS  BAL1_20  0
    RHS  BAL1_21  0
    RHS  BAL1_22  0
    RHS  BAL1_23  0
    RHS  BAL1_24  0
    RHS  BAL1_25  0
    RHS  BAL1_26  0
    RHS  BAL1_27  0
    RHS  BAL1_28  0
    RHS  BAL1_29  0
    RHS  BAL1_30  0
    RHS  BAL1_31  0
    RHS  BAL1_32  0
    RHS  BAL1_33  0
    RHS  BAL1_34  0
    RHS  BAL1_35  0
    RHS  DEM1_0  26.3930026381
    RHS  DEM1_1  46.1040386978
    RHS  DEM1_2  35.2920786329
    RHS  DEM1_3  33.9641579777
    RHS  DEM1_4  11.9231673076
    RHS  DEM1_5  49.6134613206
    RHS  DEM1_6  45.4953239639
    RHS  DEM1_7  27.3557251822
    RHS  DEM1_8  40.1541930809
    RHS  DEM1_9  45.395238796
    RHS  DEM1_10  18.110557893
    RHS  DEM1_11  44.5897953276
    RHS  DEM1_12  54.8734564838
    RHS  DEM1_13  32.791268693
    RHS  DEM1_14  53.4094790769
    RHS  DEM1_15  24.1109351276
    RHS  DEM1_16  18.5321719315
    RHS  DEM1_17  16.319307612
    RHS  DEM1_18  31.7020950392
    RHS  DEM1_19  53.5835102033
    RHS  DEM1_20  38.5606819379
    RHS  DEM1_21  37.5472527868
    RHS  DEM1_22  18.0440692292
    RHS  DEM1_23  14.1865821031
    RHS  DEM1_24  27.1723756072
    RHS  DEM1_25  23.2708214141
    RHS  DEM1_26  9.8368410725
    RHS  DEM1_27  51.3063677847
    RHS  DEM1_28  17.1985530689
    RHS  DEM1_29  35.2049519969
    RHS  DEM1_30  10.9015653299
    RHS  DEM1_31  45.1004278201
    RHS  DEM1_32  40.1746660777
    RHS  DEM1_33  16.740652174
    RHS  DEM1_34  56.8968622882
    RHS  DEM1_35  58.8278554469
    RHS  BAL2_0  0
    RHS  BAL2_1  0
    RHS  BAL2_2  0
    RHS  BAL2_3  0
    RHS  BAL2_4  0
    RHS  BAL2_5  0
    RHS  BAL2_6  0
    RHS  BAL2_7  0
    RHS  BAL2_8  0
    RHS  BAL2_9  0
    RHS  BAL2_10  0
    RHS  BAL2_11  0
    RHS  BAL2_12  0
    RHS  BAL2_13  0
    RHS  BAL2_14  0
    RHS  BAL2_15  0
    RHS  BAL2_16  0
    RHS  BAL2_17  0
    RHS  BAL2_18  0
    RHS  BAL2_19  0
    RHS  BAL2_20  0
    RHS  BAL2_21  0
    RHS  BAL2_22  0
    RHS  BAL2_23  0
    RHS  BAL2_24  0
    RHS  BAL2_25  0
    RHS  BAL2_26  0
    RHS  BAL2_27  0
    RHS  BAL2_28  0
    RHS  BAL2_29  0
    RHS  BAL2_30  0
    RHS  BAL2_31  0
    RHS  BAL2_32  0
    RHS  BAL2_33  0
    RHS  BAL2_34  0
    RHS  BAL2_35  0
    RHS  DEM2_0  29.4392523972
    RHS  DEM2_1  34.3337074353
    RHS  DEM2_2  34.3028731984
    RHS  DEM2_3  25.1893616203
    RHS  DEM2_4  47.5791525496
    RHS  DEM2_5  33.6509069482
    RHS  DEM2_6  34.8325850609
    RHS  DEM2_7  53.1542320396
    RHS  DEM2_8  39.4145474246
    RHS  DEM2_9  57.9559889371
    RHS  DEM2_10  41.9455781373
    RHS  DEM2_11  47.6177047154
    RHS  DEM2_12  11.9748779558
    RHS  DEM2_13  16.9779586722
    RHS  DEM2_14  19.7702096534
    RHS  DEM2_15  35.0582427401
    RHS  DEM2_16  25.0059116669
    RHS  DEM2_17  40.9604050116
    RHS  DEM2_18  11.7607861711
    RHS  DEM2_19  54.5876940185
    RHS  DEM2_20  54.4323930336
    RHS  DEM2_21  20.3399868216
    RHS  DEM2_22  46.7594250387
    RHS  DEM2_23  13.5439522937
    RHS  DEM2_24  8.95130083406
    RHS  DEM2_25  20.7011485612
    RHS  DEM2_26  11.1587948955
    RHS  DEM2_27  24.0444176739
    RHS  DEM2_28  49.1266043967
    RHS  DEM2_29  35.2088001978
    RHS  DEM2_30  33.4696262505
    RHS  DEM2_31  56.5183111548
    RHS  DEM2_32  21.3701923416
    RHS  DEM2_33  14.753822334
    RHS  DEM2_34  52.3459101823
    RHS  DEM2_35  23.2027886471
    RHS  BAL3_0  0
    RHS  BAL3_1  0
    RHS  BAL3_2  0
    RHS  BAL3_3  0
    RHS  BAL3_4  0
    RHS  BAL3_5  0
    RHS  BAL3_6  0
    RHS  BAL3_7  0
    RHS  BAL3_8  0
    RHS  BAL3_9  0
    RHS  BAL3_10  0
    RHS  BAL3_11  0
    RHS  BAL3_12  0
    RHS  BAL3_13  0
    RHS  BAL3_14  0
    RHS  BAL3_15  0
    RHS  BAL3_16  0
    RHS  BAL3_17  0
    RHS  BAL3_18  0
    RHS  BAL3_19  0
    RHS  BAL3_20  0
    RHS  BAL3_21  0
    RHS  BAL3_22  0
    RHS  BAL3_23  0
    RHS  BAL3_24  0
    RHS  BAL3_25  0
    RHS  BAL3_26  0
    RHS  BAL3_27  0
    RHS  BAL3_28  0
    RHS  BAL3_29  0
    RHS  BAL3_30  0
    RHS  BAL3_31  0
    RHS  BAL3_32  0
    RHS  BAL3_33  0
    RHS  BAL3_34  0
    RHS  BAL3_35  0
    RHS  DEM3_0  59.3232698
    RHS  DEM3_1  53.2272127289
    RHS  DEM3_2  27.243916768
    RHS  DEM3_3  46.3566310155
    RHS  DEM3_4  49.7966050641
    RHS  DEM3_5  53.3570702273
    RHS  DEM3_6  15.497576381
    RHS  DEM3_7  12.3409943875
    RHS  DEM3_8  15.487957667
    RHS  DEM3_9  44.4938749679
    RHS  DEM3_10  41.0718845655
    RHS  DEM3_11  29.4152089493
    RHS  DEM3_12  27.7818003732
    RHS  DEM3_13  42.6450718209
    RHS  DEM3_14  19.5776905656
    RHS  DEM3_15  22.2925508442
    RHS  DEM3_16  46.4318156108
    RHS  DEM3_17  8.79767506687
    RHS  DEM3_18  20.1053582124
    RHS  DEM3_19  30.8006902297
    RHS  DEM3_20  13.8980035718
    RHS  DEM3_21  14.2001737307
    RHS  DEM3_22  48.0689710297
    RHS  DEM3_23  40.2645507865
    RHS  DEM3_24  47.3872255989
    RHS  DEM3_25  31.3960415342
    RHS  DEM3_26  31.5260921048
    RHS  DEM3_27  55.4400850157
    RHS  DEM3_28  8.13327421194
    RHS  DEM3_29  47.8274524476
    RHS  DEM3_30  32.5465440206
    RHS  DEM3_31  31.45468152
    RHS  DEM3_32  29.8977792053
    RHS  DEM3_33  18.7588062937
    RHS  DEM3_34  30.8534879842
    RHS  DEM3_35  59.6293018955
    RHS  BAL4_0  0
    RHS  BAL4_1  0
    RHS  BAL4_2  0
    RHS  BAL4_3  0
    RHS  BAL4_4  0
    RHS  BAL4_5  0
    RHS  BAL4_6  0
    RHS  BAL4_7  0
    RHS  BAL4_8  0
    RHS  BAL4_9  0
    RHS  BAL4_10  0
    RHS  BAL4_11  0
    RHS  BAL4_12  0
    RHS  BAL4_13  0
    RHS  BAL4_14  0
    RHS  BAL4_15  0
    RHS  BAL4_16  0
    RHS  BAL4_17  0
    RHS  BAL4_18  0
    RHS  BAL4_19  0
    RHS  BAL4_20  0
    RHS  BAL4_21  0
    RHS  BAL4_22  0
    RHS  BAL4_23  0
    RHS  BAL4_24  0
    RHS  BAL4_25  0
    RHS  BAL4_26  0
    RHS  BAL4_27  0
    RHS  BAL4_28  0
    RHS  BAL4_29  0
    RHS  BAL4_30  0
    RHS  BAL4_31  0
    RHS  BAL4_32  0
    RHS  BAL4_33  0
    RHS  BAL4_34  0
    RHS  BAL4_35  0
    RHS  DEM4_0  55.7593505397
    RHS  DEM4_1  45.1889446677
    RHS  DEM4_2  56.7501729758
    RHS  DEM4_3  43.9737913023
    RHS  DEM4_4  14.3742177015
    RHS  DEM4_5  53.6804717083
    RHS  DEM4_6  59.7758243805
    RHS  DEM4_7  59.3431298266
    RHS  DEM4_8  40.6215329627
    RHS  DEM4_9  28.2307727303
    RHS  DEM4_10  17.4454144844
    RHS  DEM4_11  35.5841621424
    RHS  DEM4_12  24.1190794146
    RHS  DEM4_13  36.3400594484
    RHS  DEM4_14  42.8578700279
    RHS  DEM4_15  37.6875455871
    RHS  DEM4_16  37.7844039186
    RHS  DEM4_17  40.1530093562
    RHS  DEM4_18  13.256385994
    RHS  DEM4_19  37.138891871
    RHS  DEM4_20  54.7367488443
    RHS  DEM4_21  35.3435540663
    RHS  DEM4_22  47.8589219612
    RHS  DEM4_23  19.509456591
    RHS  DEM4_24  52.0392923114
    RHS  DEM4_25  10.9061661668
    RHS  DEM4_26  18.5577984837
    RHS  DEM4_27  28.6880241443
    RHS  DEM4_28  53.3631445282
    RHS  DEM4_29  39.6424533247
    RHS  DEM4_30  9.12737047133
    RHS  DEM4_31  34.2961057712
    RHS  DEM4_32  16.7620337033
    RHS  DEM4_33  13.2734446942
    RHS  DEM4_34  17.246214147
    RHS  DEM4_35  35.823193117
    RHS  BAL5_0  0
    RHS  BAL5_1  0
    RHS  BAL5_2  0
    RHS  BAL5_3  0
    RHS  BAL5_4  0
    RHS  BAL5_5  0
    RHS  BAL5_6  0
    RHS  BAL5_7  0
    RHS  BAL5_8  0
    RHS  BAL5_9  0
    RHS  BAL5_10  0
    RHS  BAL5_11  0
    RHS  BAL5_12  0
    RHS  BAL5_13  0
    RHS  BAL5_14  0
    RHS  BAL5_15  0
    RHS  BAL5_16  0
    RHS  BAL5_17  0
    RHS  BAL5_18  0
    RHS  BAL5_19  0
    RHS  BAL5_20  0
    RHS  BAL5_21  0
    RHS  BAL5_22  0
    RHS  BAL5_23  0
    RHS  BAL5_24  0
    RHS  BAL5_25  0
    RHS  BAL5_26  0
    RHS  BAL5_27  0
    RHS  BAL5_28  0
    RHS  BAL5_29  0
    RHS  BAL5_30  0
    RHS  BAL5_31  0
    RHS  BAL5_32  0
    RHS  BAL5_33  0
    RHS  BAL5_34  0
    RHS  BAL5_35  0
    RHS  DEM5_0  21.1665302693
    RHS  DEM5_1  21.1666215128
    RHS  DEM5_2  42.0492564273
    RHS  DEM5_3  58.966447434
    RHS  DEM5_4  39.1888555214
    RHS  DEM5_5  57.6742006233
    RHS  DEM5_6  44.8333357564
    RHS  DEM5_7  18.9090606231
    RHS  DEM5_8  46.0374915476
    RHS  DEM5_9  11.2660691868
    RHS  DEM5_10  43.3337224899
    RHS  DEM5_11  19.5726220925
    RHS  DEM5_12  19.4100422723
    RHS  DEM5_13  21.0617665474
    RHS  DEM5_14  36.9828951143
    RHS  DEM5_15  59.1845706319
    RHS  DEM5_16  12.8710258724
    RHS  DEM5_17  24.6980858495
    RHS  DEM5_18  9.02648594963
    RHS  DEM5_19  45.2324553031
    RHS  DEM5_20  10.7635775922
    RHS  DEM5_21  20.5327860701
    RHS  DEM5_22  10.026488624
    RHS  DEM5_23  14.8993053145
    RHS  DEM5_24  14.0341325152
    RHS  DEM5_25  21.7201083965
    RHS  DEM5_26  19.3534502154
    RHS  DEM5_27  18.5872859435
    RHS  DEM5_28  29.8762803542
    RHS  DEM5_29  20.6104293465
    RHS  DEM5_30  58.4249754688
    RHS  DEM5_31  18.6902261296
    RHS  DEM5_32  48.4273850985
    RHS  DEM5_33  46.5834167666
    RHS  DEM5_34  55.7519845769
    RHS  DEM5_35  53.1347350406
    RHS  BAL6_0  0
    RHS  BAL6_1  0
    RHS  BAL6_2  0
    RHS  BAL6_3  0
    RHS  BAL6_4  0
    RHS  BAL6_5  0
    RHS  BAL6_6  0
    RHS  BAL6_7  0
    RHS  BAL6_8  0
    RHS  BAL6_9  0
    RHS  BAL6_10  0
    RHS  BAL6_11  0
    RHS  BAL6_12  0
    RHS  BAL6_13  0
    RHS  BAL6_14  0
    RHS  BAL6_15  0
    RHS  BAL6_16  0
    RHS  BAL6_17  0
    RHS  BAL6_18  0
    RHS  BAL6_19  0
    RHS  BAL6_20  0
    RHS  BAL6_21  0
    RHS  BAL6_22  0
    RHS  BAL6_23  0
    RHS  BAL6_24  0
    RHS  BAL6_25  0
    RHS  BAL6_26  0
    RHS  BAL6_27  0
    RHS  BAL6_28  0
    RHS  BAL6_29  0
    RHS  BAL6_30  0
    RHS  BAL6_31  0
    RHS  BAL6_32  0
    RHS  BAL6_33  0
    RHS  BAL6_34  0
    RHS  BAL6_35  0
    RHS  DEM6_0  23.8395556274
    RHS  DEM6_1  24.0581118789
    RHS  DEM6_2  34.6916685609
    RHS  DEM6_3  48.1285925209
    RHS  DEM6_4  40.6730277898
    RHS  DEM6_5  36.2225837972
    RHS  DEM6_6  13.8966168
    RHS  DEM6_7  37.475178839
    RHS  DEM6_8  12.9194236098
    RHS  DEM6_9  17.5530284479
    RHS  DEM6_10  35.3480098221
    RHS  DEM6_11  56.5267555834
    RHS  DEM6_12  23.2287775037
    RHS  DEM6_13  53.0113878896
    RHS  DEM6_14  22.8174190083
    RHS  DEM6_15  29.2475544724
    RHS  DEM6_16  21.7639470346
    RHS  DEM6_17  45.1616556656
    RHS  DEM6_18  26.7965784864
    RHS  DEM6_19  38.5117676998
    RHS  DEM6_20  15.3794100307
    RHS  DEM6_21  18.9290406769
    RHS  DEM6_22  45.7324853439
    RHS  DEM6_23  18.3748889116
    RHS  DEM6_24  32.3255356167
    RHS  DEM6_25  49.768277163
    RHS  DEM6_26  15.9270252912
    RHS  DEM6_27  58.6233952725
    RHS  DEM6_28  31.2329625526
    RHS  DEM6_29  36.6046426687
    RHS  DEM6_30  58.1346164881
    RHS  DEM6_31  48.2391535743
    RHS  DEM6_32  33.5809260969
    RHS  DEM6_33  17.086765757
    RHS  DEM6_34  44.1422895249
    RHS  DEM6_35  36.5875549422
    RHS  BAL7_0  0
    RHS  BAL7_1  0
    RHS  BAL7_2  0
    RHS  BAL7_3  0
    RHS  BAL7_4  0
    RHS  BAL7_5  0
    RHS  BAL7_6  0
    RHS  BAL7_7  0
    RHS  BAL7_8  0
    RHS  BAL7_9  0
    RHS  BAL7_10  0
    RHS  BAL7_11  0
    RHS  BAL7_12  0
    RHS  BAL7_13  0
    RHS  BAL7_14  0
    RHS  BAL7_15  0
    RHS  BAL7_16  0
    RHS  BAL7_17  0
    RHS  BAL7_18  0
    RHS  BAL7_19  0
    RHS  BAL7_20  0
    RHS  BAL7_21  0
    RHS  BAL7_22  0
    RHS  BAL7_23  0
    RHS  BAL7_24  0
    RHS  BAL7_25  0
    RHS  BAL7_26  0
    RHS  BAL7_27  0
    RHS  BAL7_28  0
    RHS  BAL7_29  0
    RHS  BAL7_30  0
    RHS  BAL7_31  0
    RHS  BAL7_32  0
    RHS  BAL7_33  0
    RHS  BAL7_34  0
    RHS  BAL7_35  0
    RHS  DEM7_0  24.6275706241
    RHS  DEM7_1  11.3933762766
    RHS  DEM7_2  25.1980044747
    RHS  DEM7_3  51.288966443
    RHS  DEM7_4  14.2064645792
    RHS  DEM7_5  18.095361495
    RHS  DEM7_6  35.8030379649
    RHS  DEM7_7  32.0909344208
    RHS  DEM7_8  56.1298351216
    RHS  DEM7_9  49.2993584983
    RHS  DEM7_10  41.6246154182
    RHS  DEM7_11  35.1412444039
    RHS  DEM7_12  40.8294184238
    RHS  DEM7_13  54.8387138079
    RHS  DEM7_14  28.692025487
    RHS  DEM7_15  44.6281164588
    RHS  DEM7_16  8.64571263712
    RHS  DEM7_17  51.3462028668
    RHS  DEM7_18  46.4648188984
    RHS  DEM7_19  54.1020423215
    RHS  DEM7_20  51.0092031901
    RHS  DEM7_21  10.5134638162
    RHS  DEM7_22  46.6964148397
    RHS  DEM7_23  23.8925358105
    RHS  DEM7_24  21.9312836608
    RHS  DEM7_25  36.9136963352
    RHS  DEM7_26  13.1860777255
    RHS  DEM7_27  50.3257585649
    RHS  DEM7_28  10.5647677388
    RHS  DEM7_29  24.2007448817
    RHS  DEM7_30  58.3449783401
    RHS  DEM7_31  53.3312922687
    RHS  DEM7_32  29.6526520292
    RHS  DEM7_33  10.1961751642
    RHS  DEM7_34  18.2962902334
    RHS  DEM7_35  46.722746436
    RHS  BAL8_0  0
    RHS  BAL8_1  0
    RHS  BAL8_2  0
    RHS  BAL8_3  0
    RHS  BAL8_4  0
    RHS  BAL8_5  0
    RHS  BAL8_6  0
    RHS  BAL8_7  0
    RHS  BAL8_8  0
    RHS  BAL8_9  0
    RHS  BAL8_10  0
    RHS  BAL8_11  0
    RHS  BAL8_12  0
    RHS  BAL8_13  0
    RHS  BAL8_14  0
    RHS  BAL8_15  0
    RHS  BAL8_16  0
    RHS  BAL8_17  0
    RHS  BAL8_18  0
    RHS  BAL8_19  0
    RHS  BAL8_20  0
    RHS  BAL8_21  0
    RHS  BAL8_22  0
    RHS  BAL8_23  0
    RHS  BAL8_24  0
    RHS  BAL8_25  0
    RHS  BAL8_26  0
    RHS  BAL8_27  0
    RHS  BAL8_28  0
    RHS  BAL8_29  0
    RHS  BAL8_30  0
    RHS  BAL8_31  0
    RHS  BAL8_32  0
    RHS  BAL8_33  0
    RHS  BAL8_34  0
    RHS  BAL8_35  0
    RHS  DEM8_0  59.0244968644
    RHS  DEM8_1  9.1134452771
    RHS  DEM8_2  58.00170074
    RHS  DEM8_3  31.8057845597
    RHS  DEM8_4  21.2942899912
    RHS  DEM8_5  41.8499649279
    RHS  DEM8_6  29.368144198
    RHS  DEM8_7  58.5502487817
    RHS  DEM8_8  58.0126892891
    RHS  DEM8_9  27.5325022349
    RHS  DEM8_10  58.9906091611
    RHS  DEM8_11  18.8594750313
    RHS  DEM8_12  42.4814433556
    RHS  DEM8_13  42.3085919556
    RHS  DEM8_14  9.06581814207
    RHS  DEM8_15  16.2582529704
    RHS  DEM8_16  30.6756094451
    RHS  DEM8_17  54.1234426768
    RHS  DEM8_18  58.4433851795
    RHS  DEM8_19  38.374276042
    RHS  DEM8_20  39.1541105186
    RHS  DEM8_21  18.7181977947
    RHS  DEM8_22  38.7735789701
    RHS  DEM8_23  15.84103584
    RHS  DEM8_24  52.166670853
    RHS  DEM8_25  21.5989556309
    RHS  DEM8_26  19.0704322482
    RHS  DEM8_27  23.8600918925
    RHS  DEM8_28  55.8850031458
    RHS  DEM8_29  13.9120875149
    RHS  DEM8_30  17.7992450811
    RHS  DEM8_31  40.47903898
    RHS  DEM8_32  48.3396878639
    RHS  DEM8_33  46.9864582877
    RHS  DEM8_34  18.916480816
    RHS  DEM8_35  40.7485538313
    RHS  BAL9_0  0
    RHS  BAL9_1  0
    RHS  BAL9_2  0
    RHS  BAL9_3  0
    RHS  BAL9_4  0
    RHS  BAL9_5  0
    RHS  BAL9_6  0
    RHS  BAL9_7  0
    RHS  BAL9_8  0
    RHS  BAL9_9  0
    RHS  BAL9_10  0
    RHS  BAL9_11  0
    RHS  BAL9_12  0
    RHS  BAL9_13  0
    RHS  BAL9_14  0
    RHS  BAL9_15  0
    RHS  BAL9_16  0
    RHS  BAL9_17  0
    RHS  BAL9_18  0
    RHS  BAL9_19  0
    RHS  BAL9_20  0
    RHS  BAL9_21  0
    RHS  BAL9_22  0
    RHS  BAL9_23  0
    RHS  BAL9_24  0
    RHS  BAL9_25  0
    RHS  BAL9_26  0
    RHS  BAL9_27  0
    RHS  BAL9_28  0
    RHS  BAL9_29  0
    RHS  BAL9_30  0
    RHS  BAL9_31  0
    RHS  BAL9_32  0
    RHS  BAL9_33  0
    RHS  BAL9_34  0
    RHS  BAL9_35  0
    RHS  DEM9_0  19.3763536193
    RHS  DEM9_1  56.2510792352
    RHS  DEM9_2  56.9662447575
    RHS  DEM9_3  53.1832828138
    RHS  DEM9_4  23.2263762952
    RHS  DEM9_5  50.8445065036
    RHS  DEM9_6  20.0890069044
    RHS  DEM9_7  41.7669311313
    RHS  DEM9_8  54.0075544992
    RHS  DEM9_9  16.8328252759
    RHS  DEM9_10  41.3393270371
    RHS  DEM9_11  8.23370725615
    RHS  DEM9_12  22.3188361732
    RHS  DEM9_13  47.8729435807
    RHS  DEM9_14  54.2727938985
    RHS  DEM9_15  50.2859746546
    RHS  DEM9_16  33.7354246878
    RHS  DEM9_17  52.2629417146
    RHS  DEM9_18  38.1531581182
    RHS  DEM9_19  17.7258995759
    RHS  DEM9_20  8.65542680058
    RHS  DEM9_21  26.1199591961
    RHS  DEM9_22  13.1204522116
    RHS  DEM9_23  10.3921428765
    RHS  DEM9_24  47.9071196278
    RHS  DEM9_25  17.1819736637
    RHS  DEM9_26  18.963463375
    RHS  DEM9_27  15.3929157582
    RHS  DEM9_28  47.8554117754
    RHS  DEM9_29  17.8290055312
    RHS  DEM9_30  52.3848996865
    RHS  DEM9_31  41.9361799616
    RHS  DEM9_32  29.7428751425
    RHS  DEM9_33  9.97885964989
    RHS  DEM9_34  24.3451338038
    RHS  DEM9_35  50.4783614509
    RHS  BAL10_0  0
    RHS  BAL10_1  0
    RHS  BAL10_2  0
    RHS  BAL10_3  0
    RHS  BAL10_4  0
    RHS  BAL10_5  0
    RHS  BAL10_6  0
    RHS  BAL10_7  0
    RHS  BAL10_8  0
    RHS  BAL10_9  0
    RHS  BAL10_10  0
    RHS  BAL10_11  0
    RHS  BAL10_12  0
    RHS  BAL10_13  0
    RHS  BAL10_14  0
    RHS  BAL10_15  0
    RHS  BAL10_16  0
    RHS  BAL10_17  0
    RHS  BAL10_18  0
    RHS  BAL10_19  0
    RHS  BAL10_20  0
    RHS  BAL10_21  0
    RHS  BAL10_22  0
    RHS  BAL10_23  0
    RHS  BAL10_24  0
    RHS  BAL10_25  0
    RHS  BAL10_26  0
    RHS  BAL10_27  0
    RHS  BAL10_28  0
    RHS  BAL10_29  0
    RHS  BAL10_30  0
    RHS  BAL10_31  0
    RHS  BAL10_32  0
    RHS  BAL10_33  0
    RHS  BAL10_34  0
    RHS  BAL10_35  0
    RHS  DEM10_0  27.065961639
    RHS  DEM10_1  20.5396555138
    RHS  DEM10_2  24.9934406681
    RHS  DEM10_3  58.1587551491
    RHS  DEM10_4  35.9477141581
    RHS  DEM10_5  30.3993660814
    RHS  DEM10_6  27.6219533692
    RHS  DEM10_7  48.5632632179
    RHS  DEM10_8  59.4201450974
    RHS  DEM10_9  33.8599242096
    RHS  DEM10_10  15.1261714167
    RHS  DEM10_11  15.4310494547
    RHS  DEM10_12  33.3621623725
    RHS  DEM10_13  30.7295236895
    RHS  DEM10_14  37.1125606244
    RHS  DEM10_15  40.2034624777
    RHS  DEM10_16  35.0422021271
    RHS  DEM10_17  58.5462114091
    RHS  DEM10_18  46.5226911495
    RHS  DEM10_19  56.9164851612
    RHS  DEM10_20  13.2333030783
    RHS  DEM10_21  35.484337351
    RHS  DEM10_22  10.7628474745
    RHS  DEM10_23  20.2713953658
    RHS  DEM10_24  35.6782459464
    RHS  DEM10_25  57.8177088991
    RHS  DEM10_26  13.4606462893
    RHS  DEM10_27  15.0260412233
    RHS  DEM10_28  11.7129543887
    RHS  DEM10_29  23.9790380488
    RHS  DEM10_30  38.1384951528
    RHS  DEM10_31  58.4629817482
    RHS  DEM10_32  48.6422167523
    RHS  DEM10_33  37.6479244656
    RHS  DEM10_34  51.8784487061
    RHS  DEM10_35  9.69023370965
    RHS  BAL11_0  0
    RHS  BAL11_1  0
    RHS  BAL11_2  0
    RHS  BAL11_3  0
    RHS  BAL11_4  0
    RHS  BAL11_5  0
    RHS  BAL11_6  0
    RHS  BAL11_7  0
    RHS  BAL11_8  0
    RHS  BAL11_9  0
    RHS  BAL11_10  0
    RHS  BAL11_11  0
    RHS  BAL11_12  0
    RHS  BAL11_13  0
    RHS  BAL11_14  0
    RHS  BAL11_15  0
    RHS  BAL11_16  0
    RHS  BAL11_17  0
    RHS  BAL11_18  0
    RHS  BAL11_19  0
    RHS  BAL11_20  0
    RHS  BAL11_21  0
    RHS  BAL11_22  0
    RHS  BAL11_23  0
    RHS  BAL11_24  0
    RHS  BAL11_25  0
    RHS  BAL11_26  0
    RHS  BAL11_27  0
    RHS  BAL11_28  0
    RHS  BAL11_29  0
    RHS  BAL11_30  0
    RHS  BAL11_31  0
    RHS  BAL11_32  0
    RHS  BAL11_33  0
    RHS  BAL11_34  0
    RHS  BAL11_35  0
    RHS  DEM11_0  44.662117729
    RHS  DEM11_1  38.559107393
    RHS  DEM11_2  37.5640433916
    RHS  DEM11_3  34.3762814522
    RHS  DEM11_4  30.638321639
    RHS  DEM11_5  9.46707064745
    RHS  DEM11_6  28.9556193195
    RHS  DEM11_7  8.04622243132
    RHS  DEM11_8  45.0602000464
    RHS  DEM11_9  10.2021141582
    RHS  DEM11_10  29.7274450421
    RHS  DEM11_11  34.3833610583
    RHS  DEM11_12  26.2432175357
    RHS  DEM11_13  20.827605255
    RHS  DEM11_14  44.1444049556
    RHS  DEM11_15  37.6749879796
    RHS  DEM11_16  42.0591744779
    RHS  DEM11_17  42.8132159563
    RHS  DEM11_18  40.3736381762
    RHS  DEM11_19  14.9431463903
    RHS  DEM11_20  30.1725968566
    RHS  DEM11_21  51.2620178468
    RHS  DEM11_22  55.74039502
    RHS  DEM11_23  41.6386753438
    RHS  DEM11_24  37.7908618674
    RHS  DEM11_25  36.6138605593
    RHS  DEM11_26  27.420622226
    RHS  DEM11_27  30.7139886245
    RHS  DEM11_28  56.2140067104
    RHS  DEM11_29  24.9915960006
    RHS  DEM11_30  52.3812249684
    RHS  DEM11_31  54.3371766381
    RHS  DEM11_32  39.0711877777
    RHS  DEM11_33  10.5566478846
    RHS  DEM11_34  23.9313331898
    RHS  DEM11_35  18.4588713088
    RHS  BAL12_0  0
    RHS  BAL12_1  0
    RHS  BAL12_2  0
    RHS  BAL12_3  0
    RHS  BAL12_4  0
    RHS  BAL12_5  0
    RHS  BAL12_6  0
    RHS  BAL12_7  0
    RHS  BAL12_8  0
    RHS  BAL12_9  0
    RHS  BAL12_10  0
    RHS  BAL12_11  0
    RHS  BAL12_12  0
    RHS  BAL12_13  0
    RHS  BAL12_14  0
    RHS  BAL12_15  0
    RHS  BAL12_16  0
    RHS  BAL12_17  0
    RHS  BAL12_18  0
    RHS  BAL12_19  0
    RHS  BAL12_20  0
    RHS  BAL12_21  0
    RHS  BAL12_22  0
    RHS  BAL12_23  0
    RHS  BAL12_24  0
    RHS  BAL12_25  0
    RHS  BAL12_26  0
    RHS  BAL12_27  0
    RHS  BAL12_28  0
    RHS  BAL12_29  0
    RHS  BAL12_30  0
    RHS  BAL12_31  0
    RHS  BAL12_32  0
    RHS  BAL12_33  0
    RHS  BAL12_34  0
    RHS  BAL12_35  0
    RHS  DEM12_0  25.364383106
    RHS  DEM12_1  36.4688401929
    RHS  DEM12_2  19.1965501856
    RHS  DEM12_3  45.7111533624
    RHS  DEM12_4  14.496979993
    RHS  DEM12_5  23.1323806589
    RHS  DEM12_6  33.8077264164
    RHS  DEM12_7  59.6008490159
    RHS  DEM12_8  50.4262144577
    RHS  DEM12_9  31.5425878356
    RHS  DEM12_10  22.5991981044
    RHS  DEM12_11  46.4792818106
    RHS  DEM12_12  40.2394846163
    RHS  DEM12_13  22.6310644905
    RHS  DEM12_14  15.4375088411
    RHS  DEM12_15  51.409028193
    RHS  DEM12_16  36.6411301523
    RHS  DEM12_17  58.4559304489
    RHS  DEM12_18  17.7602543378
    RHS  DEM12_19  44.3184344598
    RHS  DEM12_20  9.79731402747
    RHS  DEM12_21  40.3905122595
    RHS  DEM12_22  19.2718894773
    RHS  DEM12_23  47.6494390054
    RHS  DEM12_24  10.5531649638
    RHS  DEM12_25  10.9617462848
    RHS  DEM12_26  55.7517736908
    RHS  DEM12_27  54.3604353265
    RHS  DEM12_28  15.6606886502
    RHS  DEM12_29  50.6020983703
    RHS  DEM12_30  21.0726827865
    RHS  DEM12_31  56.8447791068
    RHS  DEM12_32  10.0574238032
    RHS  DEM12_33  28.1089305759
    RHS  DEM12_34  22.6032414264
    RHS  DEM12_35  46.2056462136
    RHS  BAL13_0  0
    RHS  BAL13_1  0
    RHS  BAL13_2  0
    RHS  BAL13_3  0
    RHS  BAL13_4  0
    RHS  BAL13_5  0
    RHS  BAL13_6  0
    RHS  BAL13_7  0
    RHS  BAL13_8  0
    RHS  BAL13_9  0
    RHS  BAL13_10  0
    RHS  BAL13_11  0
    RHS  BAL13_12  0
    RHS  BAL13_13  0
    RHS  BAL13_14  0
    RHS  BAL13_15  0
    RHS  BAL13_16  0
    RHS  BAL13_17  0
    RHS  BAL13_18  0
    RHS  BAL13_19  0
    RHS  BAL13_20  0
    RHS  BAL13_21  0
    RHS  BAL13_22  0
    RHS  BAL13_23  0
    RHS  BAL13_24  0
    RHS  BAL13_25  0
    RHS  BAL13_26  0
    RHS  BAL13_27  0
    RHS  BAL13_28  0
    RHS  BAL13_29  0
    RHS  BAL13_30  0
    RHS  BAL13_31  0
    RHS  BAL13_32  0
    RHS  BAL13_33  0
    RHS  BAL13_34  0
    RHS  BAL13_35  0
    RHS  DEM13_0  48.3468844387
    RHS  DEM13_1  57.3801029517
    RHS  DEM13_2  29.5206931313
    RHS  DEM13_3  15.3290158836
    RHS  DEM13_4  22.1861272696
    RHS  DEM13_5  8.1867191583
    RHS  DEM13_6  17.0823620988
    RHS  DEM13_7  24.1841597931
    RHS  DEM13_8  10.9084068281
    RHS  DEM13_9  54.8717283049
    RHS  DEM13_10  27.2186367381
    RHS  DEM13_11  34.6326507278
    RHS  DEM13_12  57.4369980911
    RHS  DEM13_13  33.7787305748
    RHS  DEM13_14  14.588621519
    RHS  DEM13_15  51.3038918176
    RHS  DEM13_16  38.5500733281
    RHS  DEM13_17  33.3764810743
    RHS  DEM13_18  50.1565327999
    RHS  DEM13_19  24.1770685735
    RHS  DEM13_20  21.9987573043
    RHS  DEM13_21  14.8481998341
    RHS  DEM13_22  49.1663582651
    RHS  DEM13_23  18.9283824666
    RHS  DEM13_24  38.080493627
    RHS  DEM13_25  16.9645086816
    RHS  DEM13_26  51.2736169956
    RHS  DEM13_27  23.4224084377
    RHS  DEM13_28  44.385320527
    RHS  DEM13_29  18.1112787934
    RHS  DEM13_30  39.1909889845
    RHS  DEM13_31  20.0073962187
    RHS  DEM13_32  41.3952039189
    RHS  DEM13_33  20.2370548133
    RHS  DEM13_34  44.0589421024
    RHS  DEM13_35  51.9721730832
    RHS  BAL14_0  0
    RHS  BAL14_1  0
    RHS  BAL14_2  0
    RHS  BAL14_3  0
    RHS  BAL14_4  0
    RHS  BAL14_5  0
    RHS  BAL14_6  0
    RHS  BAL14_7  0
    RHS  BAL14_8  0
    RHS  BAL14_9  0
    RHS  BAL14_10  0
    RHS  BAL14_11  0
    RHS  BAL14_12  0
    RHS  BAL14_13  0
    RHS  BAL14_14  0
    RHS  BAL14_15  0
    RHS  BAL14_16  0
    RHS  BAL14_17  0
    RHS  BAL14_18  0
    RHS  BAL14_19  0
    RHS  BAL14_20  0
    RHS  BAL14_21  0
    RHS  BAL14_22  0
    RHS  BAL14_23  0
    RHS  BAL14_24  0
    RHS  BAL14_25  0
    RHS  BAL14_26  0
    RHS  BAL14_27  0
    RHS  BAL14_28  0
    RHS  BAL14_29  0
    RHS  BAL14_30  0
    RHS  BAL14_31  0
    RHS  BAL14_32  0
    RHS  BAL14_33  0
    RHS  BAL14_34  0
    RHS  BAL14_35  0
    RHS  DEM14_0  31.8693492394
    RHS  DEM14_1  53.7224234569
    RHS  DEM14_2  47.2043587569
    RHS  DEM14_3  14.2952792952
    RHS  DEM14_4  20.198789037
    RHS  DEM14_5  9.84395717454
    RHS  DEM14_6  40.8391676994
    RHS  DEM14_7  17.5514342743
    RHS  DEM14_8  49.0685988379
    RHS  DEM14_9  42.6116425253
    RHS  DEM14_10  13.2104303187
    RHS  DEM14_11  12.8170369309
    RHS  DEM14_12  21.433400218
    RHS  DEM14_13  16.8662072604
    RHS  DEM14_14  23.2350219008
    RHS  DEM14_15  46.3844371232
    RHS  DEM14_16  41.1141337051
    RHS  DEM14_17  17.2663560072
    RHS  DEM14_18  44.4780124355
    RHS  DEM14_19  46.5926184473
    RHS  DEM14_20  49.2994998876
    RHS  DEM14_21  59.4722875321
    RHS  DEM14_22  55.7584447995
    RHS  DEM14_23  22.6037697166
    RHS  DEM14_24  27.3296465369
    RHS  DEM14_25  30.5128016487
    RHS  DEM14_26  31.325088573
    RHS  DEM14_27  34.5288379491
    RHS  DEM14_28  34.215446059
    RHS  DEM14_29  34.8317359367
    RHS  DEM14_30  38.6870180296
    RHS  DEM14_31  47.2467892351
    RHS  DEM14_32  10.5857238584
    RHS  DEM14_33  30.7583391783
    RHS  DEM14_34  56.9330832639
    RHS  DEM14_35  53.1454028127
    RHS  BAL15_0  0
    RHS  BAL15_1  0
    RHS  BAL15_2  0
    RHS  BAL15_3  0
    RHS  BAL15_4  0
    RHS  BAL15_5  0
    RHS  BAL15_6  0
    RHS  BAL15_7  0
    RHS  BAL15_8  0
    RHS  BAL15_9  0
    RHS  BAL15_10  0
    RHS  BAL15_11  0
    RHS  BAL15_12  0
    RHS  BAL15_13  0
    RHS  BAL15_14  0
    RHS  BAL15_15  0
    RHS  BAL15_16  0
    RHS  BAL15_17  0
    RHS  BAL15_18  0
    RHS  BAL15_19  0
    RHS  BAL15_20  0
    RHS  BAL15_21  0
    RHS  BAL15_22  0
    RHS  BAL15_23  0
    RHS  BAL15_24  0
    RHS  BAL15_25  0
    RHS  BAL15_26  0
    RHS  BAL15_27  0
    RHS  BAL15_28  0
    RHS  BAL15_29  0
    RHS  BAL15_30  0
    RHS  BAL15_31  0
    RHS  BAL15_32  0
    RHS  BAL15_33  0
    RHS  BAL15_34  0
    RHS  BAL15_35  0
    RHS  DEM15_0  52.764654927
    RHS  DEM15_1  13.8317443112
    RHS  DEM15_2  50.3899593375
    RHS  DEM15_3  12.0629471163
    RHS  DEM15_4  47.9708708844
    RHS  DEM15_5  23.7083512452
    RHS  DEM15_6  11.2210714832
    RHS  DEM15_7  42.5205057866
    RHS  DEM15_8  20.8628697177
    RHS  DEM15_9  31.0228247137
    RHS  DEM15_10  47.001165498
    RHS  DEM15_11  57.0968456167
    RHS  DEM15_12  45.3333364474
    RHS  DEM15_13  57.5347963971
    RHS  DEM15_14  40.7637484394
    RHS  DEM15_15  22.3041592738
    RHS  DEM15_16  40.1473364524
    RHS  DEM15_17  42.9638718376
    RHS  DEM15_18  51.701286982
    RHS  DEM15_19  34.2300509145
    RHS  DEM15_20  40.0066016865
    RHS  DEM15_21  20.552171494
    RHS  DEM15_22  19.1863049986
    RHS  DEM15_23  48.711951703
    RHS  DEM15_24  29.8233873072
    RHS  DEM15_25  58.5064676581
    RHS  DEM15_26  19.5037164369
    RHS  DEM15_27  17.9801847196
    RHS  DEM15_28  49.0192758785
    RHS  DEM15_29  49.4160647399
    RHS  DEM15_30  34.4419053472
    RHS  DEM15_31  18.0465830625
    RHS  DEM15_32  51.058181039
    RHS  DEM15_33  40.3690219703
    RHS  DEM15_34  37.8016284612
    RHS  DEM15_35  55.610287408
    RHS  BAL16_0  0
    RHS  BAL16_1  0
    RHS  BAL16_2  0
    RHS  BAL16_3  0
    RHS  BAL16_4  0
    RHS  BAL16_5  0
    RHS  BAL16_6  0
    RHS  BAL16_7  0
    RHS  BAL16_8  0
    RHS  BAL16_9  0
    RHS  BAL16_10  0
    RHS  BAL16_11  0
    RHS  BAL16_12  0
    RHS  BAL16_13  0
    RHS  BAL16_14  0
    RHS  BAL16_15  0
    RHS  BAL16_16  0
    RHS  BAL16_17  0
    RHS  BAL16_18  0
    RHS  BAL16_19  0
    RHS  BAL16_20  0
    RHS  BAL16_21  0
    RHS  BAL16_22  0
    RHS  BAL16_23  0
    RHS  BAL16_24  0
    RHS  BAL16_25  0
    RHS  BAL16_26  0
    RHS  BAL16_27  0
    RHS  BAL16_28  0
    RHS  BAL16_29  0
    RHS  BAL16_30  0
    RHS  BAL16_31  0
    RHS  BAL16_32  0
    RHS  BAL16_33  0
    RHS  BAL16_34  0
    RHS  BAL16_35  0
    RHS  DEM16_0  40.1084854627
    RHS  DEM16_1  54.3657938704
    RHS  DEM16_2  56.8485196315
    RHS  DEM16_3  28.9499994528
    RHS  DEM16_4  28.1535634324
    RHS  DEM16_5  37.4499369566
    RHS  DEM16_6  16.8463084077
    RHS  DEM16_7  38.2425666653
    RHS  DEM16_8  41.6672775518
    RHS  DEM16_9  43.9100139507
    RHS  DEM16_10  51.8159797009
    RHS  DEM16_11  15.5373982786
    RHS  DEM16_12  12.3521228478
    RHS  DEM16_13  35.4250603533
    RHS  DEM16_14  47.7919746078
    RHS  DEM16_15  21.4149631057
    RHS  DEM16_16  16.2876033257
    RHS  DEM16_17  18.6849038358
    RHS  DEM16_18  57.7220727514
    RHS  DEM16_19  26.9584251644
    RHS  DEM16_20  53.6179602322
    RHS  DEM16_21  38.4024171203
    RHS  DEM16_22  54.2789927022
    RHS  DEM16_23  32.0271105965
    RHS  DEM16_24  12.4493868873
    RHS  DEM16_25  10.3981099716
    RHS  DEM16_26  37.6528704523
    RHS  DEM16_27  11.5206628791
    RHS  DEM16_28  23.3979414587
    RHS  DEM16_29  44.1253214012
    RHS  DEM16_30  12.0880155589
    RHS  DEM16_31  54.897878474
    RHS  DEM16_32  24.5097227712
    RHS  DEM16_33  56.481071168
    RHS  DEM16_34  14.6455611199
    RHS  DEM16_35  53.3061482264
    RHS  BAL17_0  0
    RHS  BAL17_1  0
    RHS  BAL17_2  0
    RHS  BAL17_3  0
    RHS  BAL17_4  0
    RHS  BAL17_5  0
    RHS  BAL17_6  0
    RHS  BAL17_7  0
    RHS  BAL17_8  0
    RHS  BAL17_9  0
    RHS  BAL17_10  0
    RHS  BAL17_11  0
    RHS  BAL17_12  0
    RHS  BAL17_13  0
    RHS  BAL17_14  0
    RHS  BAL17_15  0
    RHS  BAL17_16  0
    RHS  BAL17_17  0
    RHS  BAL17_18  0
    RHS  BAL17_19  0
    RHS  BAL17_20  0
    RHS  BAL17_21  0
    RHS  BAL17_22  0
    RHS  BAL17_23  0
    RHS  BAL17_24  0
    RHS  BAL17_25  0
    RHS  BAL17_26  0
    RHS  BAL17_27  0
    RHS  BAL17_28  0
    RHS  BAL17_29  0
    RHS  BAL17_30  0
    RHS  BAL17_31  0
    RHS  BAL17_32  0
    RHS  BAL17_33  0
    RHS  BAL17_34  0
    RHS  BAL17_35  0
    RHS  DEM17_0  11.9683772385
    RHS  DEM17_1  44.6392475181
    RHS  DEM17_2  10.2223020853
    RHS  DEM17_3  42.4583421979
    RHS  DEM17_4  19.4730305416
    RHS  DEM17_5  46.0420726048
    RHS  DEM17_6  10.2540301768
    RHS  DEM17_7  39.8362817117
    RHS  DEM17_8  49.3859448682
    RHS  DEM17_9  9.34726355933
    RHS  DEM17_10  51.3018473917
    RHS  DEM17_11  50.1917292985
    RHS  DEM17_12  43.4707483119
    RHS  DEM17_13  24.8302507246
    RHS  DEM17_14  12.1697751985
    RHS  DEM17_15  55.9153620521
    RHS  DEM17_16  45.8879159853
    RHS  DEM17_17  38.1909079183
    RHS  DEM17_18  15.2633705367
    RHS  DEM17_19  14.9440661498
    RHS  DEM17_20  55.2174404559
    RHS  DEM17_21  10.2148598606
    RHS  DEM17_22  32.1408537635
    RHS  DEM17_23  17.6566904889
    RHS  DEM17_24  23.4212674544
    RHS  DEM17_25  35.7132744838
    RHS  DEM17_26  27.9912850435
    RHS  DEM17_27  44.7289378839
    RHS  DEM17_28  40.6428379232
    RHS  DEM17_29  33.8628546829
    RHS  DEM17_30  51.4239467602
    RHS  DEM17_31  58.9866552965
    RHS  DEM17_32  48.2325414927
    RHS  DEM17_33  8.5354920994
    RHS  DEM17_34  30.8473577576
    RHS  DEM17_35  14.0073816744
    RHS  BAL18_0  0
    RHS  BAL18_1  0
    RHS  BAL18_2  0
    RHS  BAL18_3  0
    RHS  BAL18_4  0
    RHS  BAL18_5  0
    RHS  BAL18_6  0
    RHS  BAL18_7  0
    RHS  BAL18_8  0
    RHS  BAL18_9  0
    RHS  BAL18_10  0
    RHS  BAL18_11  0
    RHS  BAL18_12  0
    RHS  BAL18_13  0
    RHS  BAL18_14  0
    RHS  BAL18_15  0
    RHS  BAL18_16  0
    RHS  BAL18_17  0
    RHS  BAL18_18  0
    RHS  BAL18_19  0
    RHS  BAL18_20  0
    RHS  BAL18_21  0
    RHS  BAL18_22  0
    RHS  BAL18_23  0
    RHS  BAL18_24  0
    RHS  BAL18_25  0
    RHS  BAL18_26  0
    RHS  BAL18_27  0
    RHS  BAL18_28  0
    RHS  BAL18_29  0
    RHS  BAL18_30  0
    RHS  BAL18_31  0
    RHS  BAL18_32  0
    RHS  BAL18_33  0
    RHS  BAL18_34  0
    RHS  BAL18_35  0
    RHS  DEM18_0  44.4844737866
    RHS  DEM18_1  36.5932720874
    RHS  DEM18_2  42.1021819354
    RHS  DEM18_3  26.0883767562
    RHS  DEM18_4  15.2316759929
    RHS  DEM18_5  59.5423522091
    RHS  DEM18_6  25.3343307681
    RHS  DEM18_7  41.6120056408
    RHS  DEM18_8  32.3179501804
    RHS  DEM18_9  46.4115042757
    RHS  DEM18_10  16.661441381
    RHS  DEM18_11  28.9258649364
    RHS  DEM18_12  23.1702288075
    RHS  DEM18_13  50.6444189132
    RHS  DEM18_14  54.0774793436
    RHS  DEM18_15  26.1880683109
    RHS  DEM18_16  41.065374514
    RHS  DEM18_17  15.0539198202
    RHS  DEM18_18  56.4972745861
    RHS  DEM18_19  21.1408760909
    RHS  DEM18_20  46.223766547
    RHS  DEM18_21  43.2974191482
    RHS  DEM18_22  29.4652067348
    RHS  DEM18_23  33.159353515
    RHS  DEM18_24  26.257102128
    RHS  DEM18_25  23.8172664747
    RHS  DEM18_26  49.3951174058
    RHS  DEM18_27  37.4943948204
    RHS  DEM18_28  37.8599519738
    RHS  DEM18_29  33.6717254559
    RHS  DEM18_30  59.9100452179
    RHS  DEM18_31  21.3786293912
    RHS  DEM18_32  21.5233654624
    RHS  DEM18_33  45.4692383648
    RHS  DEM18_34  28.8858908134
    RHS  DEM18_35  10.9709734561
    RHS  BAL19_0  0
    RHS  BAL19_1  0
    RHS  BAL19_2  0
    RHS  BAL19_3  0
    RHS  BAL19_4  0
    RHS  BAL19_5  0
    RHS  BAL19_6  0
    RHS  BAL19_7  0
    RHS  BAL19_8  0
    RHS  BAL19_9  0
    RHS  BAL19_10  0
    RHS  BAL19_11  0
    RHS  BAL19_12  0
    RHS  BAL19_13  0
    RHS  BAL19_14  0
    RHS  BAL19_15  0
    RHS  BAL19_16  0
    RHS  BAL19_17  0
    RHS  BAL19_18  0
    RHS  BAL19_19  0
    RHS  BAL19_20  0
    RHS  BAL19_21  0
    RHS  BAL19_22  0
    RHS  BAL19_23  0
    RHS  BAL19_24  0
    RHS  BAL19_25  0
    RHS  BAL19_26  0
    RHS  BAL19_27  0
    RHS  BAL19_28  0
    RHS  BAL19_29  0
    RHS  BAL19_30  0
    RHS  BAL19_31  0
    RHS  BAL19_32  0
    RHS  BAL19_33  0
    RHS  BAL19_34  0
    RHS  BAL19_35  0
    RHS  DEM19_0  50.5781696079
    RHS  DEM19_1  30.9448165643
    RHS  DEM19_2  29.7861821737
    RHS  DEM19_3  28.4145160105
    RHS  DEM19_4  17.6069993417
    RHS  DEM19_5  20.1224527187
    RHS  DEM19_6  26.4586665135
    RHS  DEM19_7  34.3564301868
    RHS  DEM19_8  20.9530741842
    RHS  DEM19_9  24.75339925
    RHS  DEM19_10  47.0914006911
    RHS  DEM19_11  13.0150707014
    RHS  DEM19_12  41.3809055192
    RHS  DEM19_13  29.6134291948
    RHS  DEM19_14  22.9927442343
    RHS  DEM19_15  42.5282392184
    RHS  DEM19_16  40.7602232856
    RHS  DEM19_17  49.8685624639
    RHS  DEM19_18  40.4783703386
    RHS  DEM19_19  19.9174830921
    RHS  DEM19_20  39.4315342541
    RHS  DEM19_21  42.7561329934
    RHS  DEM19_22  32.7593904073
    RHS  DEM19_23  49.4734722456
    RHS  DEM19_24  57.0450191641
    RHS  DEM19_25  50.630891803
    RHS  DEM19_26  59.5594701843
    RHS  DEM19_27  39.0928867126
    RHS  DEM19_28  46.035986883
    RHS  DEM19_29  39.6797912195
    RHS  DEM19_30  50.5054317379
    RHS  DEM19_31  30.4988071436
    RHS  DEM19_32  45.6833289223
    RHS  DEM19_33  42.6373547422
    RHS  DEM19_34  24.2481068341
    RHS  DEM19_35  29.5296280223
    RHS  BAL20_0  0
    RHS  BAL20_1  0
    RHS  BAL20_2  0
    RHS  BAL20_3  0
    RHS  BAL20_4  0
    RHS  BAL20_5  0
    RHS  BAL20_6  0
    RHS  BAL20_7  0
    RHS  BAL20_8  0
    RHS  BAL20_9  0
    RHS  BAL20_10  0
    RHS  BAL20_11  0
    RHS  BAL20_12  0
    RHS  BAL20_13  0
    RHS  BAL20_14  0
    RHS  BAL20_15  0
    RHS  BAL20_16  0
    RHS  BAL20_17  0
    RHS  BAL20_18  0
    RHS  BAL20_19  0
    RHS  BAL20_20  0
    RHS  BAL20_21  0
    RHS  BAL20_22  0
    RHS  BAL20_23  0
    RHS  BAL20_24  0
    RHS  BAL20_25  0
    RHS  BAL20_26  0
    RHS  BAL20_27  0
    RHS  BAL20_28  0
    RHS  BAL20_29  0
    RHS  BAL20_30  0
    RHS  BAL20_31  0
    RHS  BAL20_32  0
    RHS  BAL20_33  0
    RHS  BAL20_34  0
    RHS  BAL20_35  0
    RHS  DEM20_0  47.1339755381
    RHS  DEM20_1  10.5890115486
    RHS  DEM20_2  33.2207892396
    RHS  DEM20_3  17.9400124132
    RHS  DEM20_4  54.184658211
    RHS  DEM20_5  22.286232797
    RHS  DEM20_6  19.3850629469
    RHS  DEM20_7  47.2928652872
    RHS  DEM20_8  10.1471415754
    RHS  DEM20_9  42.9173357066
    RHS  DEM20_10  57.6218473018
    RHS  DEM20_11  23.7232596028
    RHS  DEM20_12  31.4179776871
    RHS  DEM20_13  37.2612791329
    RHS  DEM20_14  30.7074325885
    RHS  DEM20_15  38.4547529094
    RHS  DEM20_16  14.9434028252
    RHS  DEM20_17  56.6856641657
    RHS  DEM20_18  28.6971596638
    RHS  DEM20_19  22.4492359109
    RHS  DEM20_20  47.865104977
    RHS  DEM20_21  43.9161738009
    RHS  DEM20_22  50.752297344
    RHS  DEM20_23  14.7932579256
    RHS  DEM20_24  12.0590411628
    RHS  DEM20_25  20.4353162028
    RHS  DEM20_26  9.0608622675
    RHS  DEM20_27  20.7418428732
    RHS  DEM20_28  44.1181454502
    RHS  DEM20_29  35.0320559489
    RHS  DEM20_30  51.6416032524
    RHS  DEM20_31  45.380018427
    RHS  DEM20_32  46.8111926412
    RHS  DEM20_33  18.6284865311
    RHS  DEM20_34  24.8238699774
    RHS  DEM20_35  21.7141301572
    RHS  BAL21_0  0
    RHS  BAL21_1  0
    RHS  BAL21_2  0
    RHS  BAL21_3  0
    RHS  BAL21_4  0
    RHS  BAL21_5  0
    RHS  BAL21_6  0
    RHS  BAL21_7  0
    RHS  BAL21_8  0
    RHS  BAL21_9  0
    RHS  BAL21_10  0
    RHS  BAL21_11  0
    RHS  BAL21_12  0
    RHS  BAL21_13  0
    RHS  BAL21_14  0
    RHS  BAL21_15  0
    RHS  BAL21_16  0
    RHS  BAL21_17  0
    RHS  BAL21_18  0
    RHS  BAL21_19  0
    RHS  BAL21_20  0
    RHS  BAL21_21  0
    RHS  BAL21_22  0
    RHS  BAL21_23  0
    RHS  BAL21_24  0
    RHS  BAL21_25  0
    RHS  BAL21_26  0
    RHS  BAL21_27  0
    RHS  BAL21_28  0
    RHS  BAL21_29  0
    RHS  BAL21_30  0
    RHS  BAL21_31  0
    RHS  BAL21_32  0
    RHS  BAL21_33  0
    RHS  BAL21_34  0
    RHS  BAL21_35  0
    RHS  DEM21_0  29.896287205
    RHS  DEM21_1  46.9026555382
    RHS  DEM21_2  41.9972664008
    RHS  DEM21_3  43.1821267558
    RHS  DEM21_4  19.2089057655
    RHS  DEM21_5  32.0082062233
    RHS  DEM21_6  28.4352122991
    RHS  DEM21_7  48.8612709219
    RHS  DEM21_8  34.9968119821
    RHS  DEM21_9  11.8362223485
    RHS  DEM21_10  14.4940476195
    RHS  DEM21_11  9.77487601517
    RHS  DEM21_12  23.2375098528
    RHS  DEM21_13  9.28803249891
    RHS  DEM21_14  18.7746740961
    RHS  DEM21_15  37.2550295899
    RHS  DEM21_16  44.1446198538
    RHS  DEM21_17  49.8420242488
    RHS  DEM21_18  27.4296179763
    RHS  DEM21_19  51.0199692225
    RHS  DEM21_20  11.4179425213
    RHS  DEM21_21  39.7170956418
    RHS  DEM21_22  22.1614818741
    RHS  DEM21_23  29.1209419488
    RHS  DEM21_24  56.1261563063
    RHS  DEM21_25  23.6867659875
    RHS  DEM21_26  54.3257110458
    RHS  DEM21_27  54.7989404528
    RHS  DEM21_28  44.9507641084
    RHS  DEM21_29  32.3671602412
    RHS  DEM21_30  27.8272482093
    RHS  DEM21_31  55.7032510401
    RHS  DEM21_32  59.2540180155
    RHS  DEM21_33  22.6772292592
    RHS  DEM21_34  15.4314670481
    RHS  DEM21_35  58.2639920179
    RHS  BAL22_0  0
    RHS  BAL22_1  0
    RHS  BAL22_2  0
    RHS  BAL22_3  0
    RHS  BAL22_4  0
    RHS  BAL22_5  0
    RHS  BAL22_6  0
    RHS  BAL22_7  0
    RHS  BAL22_8  0
    RHS  BAL22_9  0
    RHS  BAL22_10  0
    RHS  BAL22_11  0
    RHS  BAL22_12  0
    RHS  BAL22_13  0
    RHS  BAL22_14  0
    RHS  BAL22_15  0
    RHS  BAL22_16  0
    RHS  BAL22_17  0
    RHS  BAL22_18  0
    RHS  BAL22_19  0
    RHS  BAL22_20  0
    RHS  BAL22_21  0
    RHS  BAL22_22  0
    RHS  BAL22_23  0
    RHS  BAL22_24  0
    RHS  BAL22_25  0
    RHS  BAL22_26  0
    RHS  BAL22_27  0
    RHS  BAL22_28  0
    RHS  BAL22_29  0
    RHS  BAL22_30  0
    RHS  BAL22_31  0
    RHS  BAL22_32  0
    RHS  BAL22_33  0
    RHS  BAL22_34  0
    RHS  BAL22_35  0
    RHS  DEM22_0  58.6935822671
    RHS  DEM22_1  44.8995970146
    RHS  DEM22_2  28.9930554525
    RHS  DEM22_3  56.5084005855
    RHS  DEM22_4  58.1157073266
    RHS  DEM22_5  32.9667444136
    RHS  DEM22_6  20.8870405734
    RHS  DEM22_7  34.5292413037
    RHS  DEM22_8  53.9666270372
    RHS  DEM22_9  39.356054674
    RHS  DEM22_10  16.0920679238
    RHS  DEM22_11  57.4816673579
    RHS  DEM22_12  49.7370419378
    RHS  DEM22_13  30.3843473438
    RHS  DEM22_14  37.0919154523
    RHS  DEM22_15  54.1438988219
    RHS  DEM22_16  39.3324037245
    RHS  DEM22_17  44.0672810413
    RHS  DEM22_18  26.393993114
    RHS  DEM22_19  23.7054337158
    RHS  DEM22_20  19.8768322207
    RHS  DEM22_21  52.3497746311
    RHS  DEM22_22  38.9224795904
    RHS  DEM22_23  14.9563405918
    RHS  DEM22_24  59.7345392882
    RHS  DEM22_25  43.2151945037
    RHS  DEM22_26  32.4407421692
    RHS  DEM22_27  53.367394496
    RHS  DEM22_28  51.7036121189
    RHS  DEM22_29  8.38609052661
    RHS  DEM22_30  22.0705657836
    RHS  DEM22_31  36.5722245285
    RHS  DEM22_32  57.6268046116
    RHS  DEM22_33  59.9344820208
    RHS  DEM22_34  41.7887961997
    RHS  DEM22_35  46.6559401559
    RHS  BAL23_0  0
    RHS  BAL23_1  0
    RHS  BAL23_2  0
    RHS  BAL23_3  0
    RHS  BAL23_4  0
    RHS  BAL23_5  0
    RHS  BAL23_6  0
    RHS  BAL23_7  0
    RHS  BAL23_8  0
    RHS  BAL23_9  0
    RHS  BAL23_10  0
    RHS  BAL23_11  0
    RHS  BAL23_12  0
    RHS  BAL23_13  0
    RHS  BAL23_14  0
    RHS  BAL23_15  0
    RHS  BAL23_16  0
    RHS  BAL23_17  0
    RHS  BAL23_18  0
    RHS  BAL23_19  0
    RHS  BAL23_20  0
    RHS  BAL23_21  0
    RHS  BAL23_22  0
    RHS  BAL23_23  0
    RHS  BAL23_24  0
    RHS  BAL23_25  0
    RHS  BAL23_26  0
    RHS  BAL23_27  0
    RHS  BAL23_28  0
    RHS  BAL23_29  0
    RHS  BAL23_30  0
    RHS  BAL23_31  0
    RHS  BAL23_32  0
    RHS  BAL23_33  0
    RHS  BAL23_34  0
    RHS  BAL23_35  0
    RHS  DEM23_0  17.5399517046
    RHS  DEM23_1  26.1478586017
    RHS  DEM23_2  10.6948964927
    RHS  DEM23_3  36.5082156941
    RHS  DEM23_4  36.1813656291
    RHS  DEM23_5  44.2790445978
    RHS  DEM23_6  47.3991361334
    RHS  DEM23_7  20.2475248102
    RHS  DEM23_8  56.7401530564
    RHS  DEM23_9  54.9592266291
    RHS  DEM23_10  52.750716679
    RHS  DEM23_11  43.4789072923
    RHS  DEM23_12  58.345746179
    RHS  DEM23_13  45.3741051074
    RHS  DEM23_14  18.363816497
    RHS  DEM23_15  46.5364057144
    RHS  DEM23_16  46.1934387604
    RHS  DEM23_17  33.3175037055
    RHS  DEM23_18  25.9240400841
    RHS  DEM23_19  50.7391614937
    RHS  DEM23_20  51.7210660142
    RHS  DEM23_21  58.7168158617
    RHS  DEM23_22  56.7005862734
    RHS  DEM23_23  22.7244515722
    RHS  DEM23_24  29.1154111052
    RHS  DEM23_25  43.5524997085
    RHS  DEM23_26  10.7357338138
    RHS  DEM23_27  30.4170898743
    RHS  DEM23_28  36.9729135906
    RHS  DEM23_29  48.5393698589
    RHS  DEM23_30  44.2124729911
    RHS  DEM23_31  17.3378816489
    RHS  DEM23_32  29.9733494999
    RHS  DEM23_33  50.9070523088
    RHS  DEM23_34  32.9652721786
    RHS  DEM23_35  54.1131018308
    RHS  BAL24_0  0
    RHS  BAL24_1  0
    RHS  BAL24_2  0
    RHS  BAL24_3  0
    RHS  BAL24_4  0
    RHS  BAL24_5  0
    RHS  BAL24_6  0
    RHS  BAL24_7  0
    RHS  BAL24_8  0
    RHS  BAL24_9  0
    RHS  BAL24_10  0
    RHS  BAL24_11  0
    RHS  BAL24_12  0
    RHS  BAL24_13  0
    RHS  BAL24_14  0
    RHS  BAL24_15  0
    RHS  BAL24_16  0
    RHS  BAL24_17  0
    RHS  BAL24_18  0
    RHS  BAL24_19  0
    RHS  BAL24_20  0
    RHS  BAL24_21  0
    RHS  BAL24_22  0
    RHS  BAL24_23  0
    RHS  BAL24_24  0
    RHS  BAL24_25  0
    RHS  BAL24_26  0
    RHS  BAL24_27  0
    RHS  BAL24_28  0
    RHS  BAL24_29  0
    RHS  BAL24_30  0
    RHS  BAL24_31  0
    RHS  BAL24_32  0
    RHS  BAL24_33  0
    RHS  BAL24_34  0
    RHS  BAL24_35  0
    RHS  DEM24_0  8.59164915278
    RHS  DEM24_1  36.5589385839
    RHS  DEM24_2  23.4460354845
    RHS  DEM24_3  46.5088706613
    RHS  DEM24_4  57.2341323188
    RHS  DEM24_5  54.5165296473
    RHS  DEM24_6  11.9550742529
    RHS  DEM24_7  42.3298976161
    RHS  DEM24_8  36.260201766
    RHS  DEM24_9  17.0803291071
    RHS  DEM24_10  42.197665985
    RHS  DEM24_11  16.271588176
    RHS  DEM24_12  17.9998945129
    RHS  DEM24_13  29.9216372943
    RHS  DEM24_14  23.6100096298
    RHS  DEM24_15  17.6695501645
    RHS  DEM24_16  14.8765971201
    RHS  DEM24_17  54.4115404599
    RHS  DEM24_18  20.08906153
    RHS  DEM24_19  41.768611869
    RHS  DEM24_20  22.7179909634
    RHS  DEM24_21  40.245760783
    RHS  DEM24_22  53.340098827
    RHS  DEM24_23  17.4007798155
    RHS  DEM24_24  18.5522986008
    RHS  DEM24_25  37.4473709356
    RHS  DEM24_26  12.1058663503
    RHS  DEM24_27  31.52714604
    RHS  DEM24_28  56.6433994121
    RHS  DEM24_29  21.5438164414
    RHS  DEM24_30  41.5550922101
    RHS  DEM24_31  9.32355571745
    RHS  DEM24_32  58.8789423509
    RHS  DEM24_33  35.87953452
    RHS  DEM24_34  58.4890811072
    RHS  DEM24_35  43.9976340982
    RHS  BAL25_0  0
    RHS  BAL25_1  0
    RHS  BAL25_2  0
    RHS  BAL25_3  0
    RHS  BAL25_4  0
    RHS  BAL25_5  0
    RHS  BAL25_6  0
    RHS  BAL25_7  0
    RHS  BAL25_8  0
    RHS  BAL25_9  0
    RHS  BAL25_10  0
    RHS  BAL25_11  0
    RHS  BAL25_12  0
    RHS  BAL25_13  0
    RHS  BAL25_14  0
    RHS  BAL25_15  0
    RHS  BAL25_16  0
    RHS  BAL25_17  0
    RHS  BAL25_18  0
    RHS  BAL25_19  0
    RHS  BAL25_20  0
    RHS  BAL25_21  0
    RHS  BAL25_22  0
    RHS  BAL25_23  0
    RHS  BAL25_24  0
    RHS  BAL25_25  0
    RHS  BAL25_26  0
    RHS  BAL25_27  0
    RHS  BAL25_28  0
    RHS  BAL25_29  0
    RHS  BAL25_30  0
    RHS  BAL25_31  0
    RHS  BAL25_32  0
    RHS  BAL25_33  0
    RHS  BAL25_34  0
    RHS  BAL25_35  0
    RHS  DEM25_0  44.2777630602
    RHS  DEM25_1  12.2145639851
    RHS  DEM25_2  8.78052766182
    RHS  DEM25_3  39.4891681517
    RHS  DEM25_4  25.9933033519
    RHS  DEM25_5  55.6128487887
    RHS  DEM25_6  16.175272509
    RHS  DEM25_7  28.2660971419
    RHS  DEM25_8  47.1435276605
    RHS  DEM25_9  18.5402169811
    RHS  DEM25_10  32.7424582887
    RHS  DEM25_11  36.778180686
    RHS  DEM25_12  18.7588866058
    RHS  DEM25_13  38.1991688299
    RHS  DEM25_14  13.7416830618
    RHS  DEM25_15  28.8233083605
    RHS  DEM25_16  42.4405388493
    RHS  DEM25_17  42.880462807
    RHS  DEM25_18  10.3303193888
    RHS  DEM25_19  35.745027527
    RHS  DEM25_20  49.47631622
    RHS  DEM25_21  34.3750702137
    RHS  DEM25_22  57.7897759649
    RHS  DEM25_23  17.1394442703
    RHS  DEM25_24  19.4774830306
    RHS  DEM25_25  53.0970219541
    RHS  DEM25_26  46.1230360719
    RHS  DEM25_27  19.8811711115
    RHS  DEM25_28  23.2959115454
    RHS  DEM25_29  35.8885593665
    RHS  DEM25_30  20.3976787893
    RHS  DEM25_31  47.6831733242
    RHS  DEM25_32  34.3568834017
    RHS  DEM25_33  39.3653749918
    RHS  DEM25_34  34.7331798568
    RHS  DEM25_35  49.3514349322
    RHS  BAL26_0  0
    RHS  BAL26_1  0
    RHS  BAL26_2  0
    RHS  BAL26_3  0
    RHS  BAL26_4  0
    RHS  BAL26_5  0
    RHS  BAL26_6  0
    RHS  BAL26_7  0
    RHS  BAL26_8  0
    RHS  BAL26_9  0
    RHS  BAL26_10  0
    RHS  BAL26_11  0
    RHS  BAL26_12  0
    RHS  BAL26_13  0
    RHS  BAL26_14  0
    RHS  BAL26_15  0
    RHS  BAL26_16  0
    RHS  BAL26_17  0
    RHS  BAL26_18  0
    RHS  BAL26_19  0
    RHS  BAL26_20  0
    RHS  BAL26_21  0
    RHS  BAL26_22  0
    RHS  BAL26_23  0
    RHS  BAL26_24  0
    RHS  BAL26_25  0
    RHS  BAL26_26  0
    RHS  BAL26_27  0
    RHS  BAL26_28  0
    RHS  BAL26_29  0
    RHS  BAL26_30  0
    RHS  BAL26_31  0
    RHS  BAL26_32  0
    RHS  BAL26_33  0
    RHS  BAL26_34  0
    RHS  BAL26_35  0
    RHS  DEM26_0  15.134954918
    RHS  DEM26_1  12.3791887001
    RHS  DEM26_2  44.2857093275
    RHS  DEM26_3  40.8823189633
    RHS  DEM26_4  28.491770212
    RHS  DEM26_5  46.5837624567
    RHS  DEM26_6  56.0871706448
    RHS  DEM26_7  27.4033375247
    RHS  DEM26_8  37.8281310466
    RHS  DEM26_9  11.0637491479
    RHS  DEM26_10  58.4214587392
    RHS  DEM26_11  8.55478154287
    RHS  DEM26_12  18.7090093032
    RHS  DEM26_13  31.5493872864
    RHS  DEM26_14  11.361568375
    RHS  DEM26_15  55.1782539997
    RHS  DEM26_16  48.2463092361
    RHS  DEM26_17  32.0969828952
    RHS  DEM26_18  12.0261303557
    RHS  DEM26_19  54.3600240942
    RHS  DEM26_20  26.1626614852
    RHS  DEM26_21  31.7777476043
    RHS  DEM26_22  20.0363571939
    RHS  DEM26_23  18.1995749591
    RHS  DEM26_24  28.3968678866
    RHS  DEM26_25  9.5661767015
    RHS  DEM26_26  35.0985922607
    RHS  DEM26_27  52.5734419922
    RHS  DEM26_28  39.372468236
    RHS  DEM26_29  39.4411055648
    RHS  DEM26_30  25.8353066925
    RHS  DEM26_31  43.3407972821
    RHS  DEM26_32  35.4416919636
    RHS  DEM26_33  43.9006973071
    RHS  DEM26_34  22.4609442795
    RHS  DEM26_35  53.48384218
    RHS  BAL27_0  0
    RHS  BAL27_1  0
    RHS  BAL27_2  0
    RHS  BAL27_3  0
    RHS  BAL27_4  0
    RHS  BAL27_5  0
    RHS  BAL27_6  0
    RHS  BAL27_7  0
    RHS  BAL27_8  0
    RHS  BAL27_9  0
    RHS  BAL27_10  0
    RHS  BAL27_11  0
    RHS  BAL27_12  0
    RHS  BAL27_13  0
    RHS  BAL27_14  0
    RHS  BAL27_15  0
    RHS  BAL27_16  0
    RHS  BAL27_17  0
    RHS  BAL27_18  0
    RHS  BAL27_19  0
    RHS  BAL27_20  0
    RHS  BAL27_21  0
    RHS  BAL27_22  0
    RHS  BAL27_23  0
    RHS  BAL27_24  0
    RHS  BAL27_25  0
    RHS  BAL27_26  0
    RHS  BAL27_27  0
    RHS  BAL27_28  0
    RHS  BAL27_29  0
    RHS  BAL27_30  0
    RHS  BAL27_31  0
    RHS  BAL27_32  0
    RHS  BAL27_33  0
    RHS  BAL27_34  0
    RHS  BAL27_35  0
    RHS  DEM27_0  47.6355767882
    RHS  DEM27_1  31.0502818283
    RHS  DEM27_2  11.6680202163
    RHS  DEM27_3  28.6446828119
    RHS  DEM27_4  36.7725577907
    RHS  DEM27_5  57.2419780155
    RHS  DEM27_6  41.467118556
    RHS  DEM27_7  53.4692158349
    RHS  DEM27_8  52.1461605409
    RHS  DEM27_9  10.8287762049
    RHS  DEM27_10  14.1285486127
    RHS  DEM27_11  27.7094332298
    RHS  DEM27_12  32.1625149546
    RHS  DEM27_13  31.0517295393
    RHS  DEM27_14  30.9391409733
    RHS  DEM27_15  51.843567503
    RHS  DEM27_16  33.9070600942
    RHS  DEM27_17  13.2153718581
    RHS  DEM27_18  31.1318974438
    RHS  DEM27_19  45.5214876571
    RHS  DEM27_20  44.6361146867
    RHS  DEM27_21  10.1415937057
    RHS  DEM27_22  26.5282611296
    RHS  DEM27_23  52.558708358
    RHS  DEM27_24  50.3448128052
    RHS  DEM27_25  54.0810897536
    RHS  DEM27_26  45.2854363255
    RHS  DEM27_27  16.3050719022
    RHS  DEM27_28  19.5346215825
    RHS  DEM27_29  57.0223871676
    RHS  DEM27_30  23.1506401561
    RHS  DEM27_31  47.9523231584
    RHS  DEM27_32  26.8302689041
    RHS  DEM27_33  33.259247309
    RHS  DEM27_34  44.5832674527
    RHS  DEM27_35  31.8198280915
    RHS  BAL28_0  0
    RHS  BAL28_1  0
    RHS  BAL28_2  0
    RHS  BAL28_3  0
    RHS  BAL28_4  0
    RHS  BAL28_5  0
    RHS  BAL28_6  0
    RHS  BAL28_7  0
    RHS  BAL28_8  0
    RHS  BAL28_9  0
    RHS  BAL28_10  0
    RHS  BAL28_11  0
    RHS  BAL28_12  0
    RHS  BAL28_13  0
    RHS  BAL28_14  0
    RHS  BAL28_15  0
    RHS  BAL28_16  0
    RHS  BAL28_17  0
    RHS  BAL28_18  0
    RHS  BAL28_19  0
    RHS  BAL28_20  0
    RHS  BAL28_21  0
    RHS  BAL28_22  0
    RHS  BAL28_23  0
    RHS  BAL28_24  0
    RHS  BAL28_25  0
    RHS  BAL28_26  0
    RHS  BAL28_27  0
    RHS  BAL28_28  0
    RHS  BAL28_29  0
    RHS  BAL28_30  0
    RHS  BAL28_31  0
    RHS  BAL28_32  0
    RHS  BAL28_33  0
    RHS  BAL28_34  0
    RHS  BAL28_35  0
    RHS  DEM28_0  18.9583868106
    RHS  DEM28_1  17.0788331833
    RHS  DEM28_2  39.92612547
    RHS  DEM28_3  33.2403948336
    RHS  DEM28_4  37.1849338571
    RHS  DEM28_5  24.0205806438
    RHS  DEM28_6  26.7005397751
    RHS  DEM28_7  8.62541413027
    RHS  DEM28_8  42.6595752076
    RHS  DEM28_9  51.9749504428
    RHS  DEM28_10  45.7675837249
    RHS  DEM28_11  12.2432009969
    RHS  DEM28_12  50.956023192
    RHS  DEM28_13  8.73588368476
    RHS  DEM28_14  14.7076742963
    RHS  DEM28_15  45.7405993242
    RHS  DEM28_16  57.8699272748
    RHS  DEM28_17  43.3449562843
    RHS  DEM28_18  34.5735436445
    RHS  DEM28_19  14.2809696271
    RHS  DEM28_20  11.5233980762
    RHS  DEM28_21  54.2312532583
    RHS  DEM28_22  29.1324195662
    RHS  DEM28_23  11.6159187065
    RHS  DEM28_24  20.2180379017
    RHS  DEM28_25  42.9494562789
    RHS  DEM28_26  47.544532019
    RHS  DEM28_27  41.3074518338
    RHS  DEM28_28  10.0372372439
    RHS  DEM28_29  42.4797013911
    RHS  DEM28_30  17.3580905687
    RHS  DEM28_31  30.0851300899
    RHS  DEM28_32  18.264258992
    RHS  DEM28_33  53.5673308666
    RHS  DEM28_34  13.7022725283
    RHS  DEM28_35  51.9858076074
    RHS  BAL29_0  0
    RHS  BAL29_1  0
    RHS  BAL29_2  0
    RHS  BAL29_3  0
    RHS  BAL29_4  0
    RHS  BAL29_5  0
    RHS  BAL29_6  0
    RHS  BAL29_7  0
    RHS  BAL29_8  0
    RHS  BAL29_9  0
    RHS  BAL29_10  0
    RHS  BAL29_11  0
    RHS  BAL29_12  0
    RHS  BAL29_13  0
    RHS  BAL29_14  0
    RHS  BAL29_15  0
    RHS  BAL29_16  0
    RHS  BAL29_17  0
    RHS  BAL29_18  0
    RHS  BAL29_19  0
    RHS  BAL29_20  0
    RHS  BAL29_21  0
    RHS  BAL29_22  0
    RHS  BAL29_23  0
    RHS  BAL29_24  0
    RHS  BAL29_25  0
    RHS  BAL29_26  0
    RHS  BAL29_27  0
    RHS  BAL29_28  0
    RHS  BAL29_29  0
    RHS  BAL29_30  0
    RHS  BAL29_31  0
    RHS  BAL29_32  0
    RHS  BAL29_33  0
    RHS  BAL29_34  0
    RHS  BAL29_35  0
    RHS  DEM29_0  37.4508349449
    RHS  DEM29_1  17.1680170528
    RHS  DEM29_2  21.4018554228
    RHS  DEM29_3  39.3321799186
    RHS  DEM29_4  11.7902722989
    RHS  DEM29_5  56.0206880597
    RHS  DEM29_6  30.3315432658
    RHS  DEM29_7  24.335637091
    RHS  DEM29_8  12.7186873143
    RHS  DEM29_9  8.74508265957
    RHS  DEM29_10  16.6387691965
    RHS  DEM29_11  21.8447661122
    RHS  DEM29_12  38.3699162798
    RHS  DEM29_13  27.3838694583
    RHS  DEM29_14  18.0950247908
    RHS  DEM29_15  42.4567754902
    RHS  DEM29_16  11.9828598995
    RHS  DEM29_17  32.2834870858
    RHS  DEM29_18  36.7171582161
    RHS  DEM29_19  17.4807645399
    RHS  DEM29_20  28.6230565781
    RHS  DEM29_21  29.683496623
    RHS  DEM29_22  33.9300374234
    RHS  DEM29_23  20.425534168
    RHS  DEM29_24  50.7115319418
    RHS  DEM29_25  25.8836512424
    RHS  DEM29_26  47.7085250029
    RHS  DEM29_27  12.607689883
    RHS  DEM29_28  13.61130991
    RHS  DEM29_29  43.4170984066
    RHS  DEM29_30  49.4263005144
    RHS  DEM29_31  58.2907357519
    RHS  DEM29_32  20.3338645211
    RHS  DEM29_33  10.9484670493
    RHS  DEM29_34  13.4024719342
    RHS  DEM29_35  24.7175554853
    RHS  CAP0  4677.76176862
    RHS  CAP1  4677.76176862
    RHS  CAP2  4677.76176862
    RHS  CAP3  4677.76176862
    RHS  CAP4  4677.76176862
    RHS  CAP5  4677.76176862
    RHS  CAP6  4677.76176862
    RHS  CAP7  4677.76176862
    RHS  CAP8  4677.76176862
    RHS  CAP9  4677.76176862
    RHS  CAP10  4677.76176862
    RHS  CAP11  4677.76176862
    RHS  CAP12  4677.76176862
    RHS  CAP13  4677.76176862
    RHS  CAP14  4677.76176862
    RHS  CAP15  4677.76176862
    RHS  CAP16  4677.76176862
    RHS  CAP17  4677.76176862
    RHS  CAP18  4677.76176862
    RHS  CAP19  4677.76176862
    RHS  CAP20  4677.76176862
    RHS  CAP21  4677.76176862
    RHS  CAP22  4677.76176862
    RHS  CAP23  4677.76176862
    RHS  CAP24  4677.76176862
    RHS  CAP25  4677.76176862
    RHS  CAP26  4677.76176862
    RHS  CAP27  4677.76176862
    RHS  CAP28  4677.76176862
    RHS  CAP29  4677.76176862
    RHS  CAP30  4677.76176862
    RHS  CAP31  4677.76176862
    RHS  CAP32  4677.76176862
    RHS  CAP33  4677.76176862
    RHS  CAP34  4677.76176862
    RHS  CAP35  4677.76176862
RANGES
BOUNDS
 UP BND  R0_0  78.3845328462
 UP BND  R0_1  78.3845328462
 UP BND  R0_2  78.3845328462
 UP BND  R0_3  78.3845328462
 UP BND  R0_4  78.3845328462
 UP BND  R0_5  78.3845328462
 UP BND  R0_6  78.3845328462
 UP BND  R0_7  78.3845328462
 UP BND  R0_8  78.3845328462
 UP BND  R0_9  78.3845328462
 UP BND  R0_10  78.3845328462
 UP BND  R0_11  78.3845328462
 UP BND  R0_12  78.3845328462
 UP BND  R0_13  78.3845328462
 UP BND  R0_14  78.3845328462
 UP BND  R0_15  78.3845328462
 UP BND  R0_16  78.3845328462
 UP BND  R0_17  78.3845328462
 UP BND  R0_18  78.3845328462
 UP BND  R0_19  78.3845328462
 UP BND  R0_20  78.3845328462
 UP BND  R0_21  78.3845328462
 UP BND  R0_22  78.3845328462
 UP BND  R0_23  78.3845328462
 UP BND  R0_24  78.3845328462
 UP BND  R0_25  78.3845328462
 UP BND  R0_26  78.3845328462
 UP BND  R0_27  78.3845328462
 UP BND  R0_28  78.3845328462
 UP BND  R0_29  78.3845328462
 UP BND  R0_30  78.3845328462
 UP BND  R0_31  78.3845328462
 UP BND  R0_32  78.3845328462
 UP BND  R0_33  78.3845328462
 UP BND  R0_34  78.3845328462
 UP BND  R0_35  78.3845328462
 UP BND  R1_0  184.140718144
 UP BND  R1_1  184.140718144
 UP BND  R1_2  184.140718144
 UP BND  R1_3  184.140718144
 UP BND  R1_4  184.140718144
 UP BND  R1_5  184.140718144
 UP BND  R1_6  184.140718144
 UP BND  R1_7  184.140718144
 UP BND  R1_8  184.140718144
 UP BND  R1_9  184.140718144
 UP BND  R1_10  184.140718144
 UP BND  R1_11  184.140718144
 UP BND  R1_12  184.140718144
 UP BND  R1_13  184.140718144
 UP BND  R1_14  184.140718144
 UP BND  R1_15  184.140718144
 UP BND  R1_16  184.140718144
 UP BND  R1_17  184.140718144
 UP BND  R1_18  184.140718144
 UP BND  R1_19  184.140718144
 UP BND  R1_20  184.140718144
 UP BND  R1_21  184.140718144
 UP BND  R1_22  184.140718144
 UP BND  R1_23  184.140718144
 UP BND  R1_24  184.140718144
 UP BND  R1_25  184.140718144
 UP BND  R1_26  184.140718144
 UP BND  R1_27  184.140718144
 UP BND  R1_28  184.140718144
 UP BND  R1_29  184.140718144
 UP BND  R1_30  184.140718144
 UP BND  R1_31  184.140718144
 UP BND  R1_32  184.140718144
 UP BND  R1_33  184.140718144
 UP BND  R1_34  184.140718144
 UP BND  R1_35  184.140718144
 UP BND  R2_0  234.139665948
 UP BND  R2_1  234.139665948
 UP BND  R2_2  234.139665948
 UP BND  R2_3  234.139665948
 UP BND  R2_4  234.139665948
 UP BND  R2_5  234.139665948
 UP BND  R2_6  234.139665948
 UP BND  R2_7  234.139665948
 UP BND  R2_8  234.139665948
 UP BND  R2_9  234.139665948
 UP BND  R2_10  234.139665948
 UP BND  R2_11  234.139665948
 UP BND  R2_12  234.139665948
 UP BND  R2_13  234.139665948
 UP BND  R2_14  234.139665948
 UP BND  R2_15  234.139665948
 UP BND  R2_16  234.139665948
 UP BND  R2_17  234.139665948
 UP BND  R2_18  234.139665948
 UP BND  R2_19  234.139665948
 UP BND  R2_20  234.139665948
 UP BND  R2_21  234.139665948
 UP BND  R2_22  234.139665948
 UP BND  R2_23  234.139665948
 UP BND  R2_24  234.139665948
 UP BND  R2_25  234.139665948
 UP BND  R2_26  234.139665948
 UP BND  R2_27  234.139665948
 UP BND  R2_28  234.139665948
 UP BND  R2_29  234.139665948
 UP BND  R2_30  234.139665948
 UP BND  R2_31  234.139665948
 UP BND  R2_32  234.139665948
 UP BND  R2_33  234.139665948
 UP BND  R2_34  234.139665948
 UP BND  R2_35  234.139665948
 UP BND  R3_0  167.746841746
 UP BND  R3_1  167.746841746
 UP BND  R3_2  167.746841746
 UP BND  R3_3  167.746841746
 UP BND  R3_4  167.746841746
 UP BND  R3_5  167.746841746
 UP BND  R3_6  167.746841746
 UP BND  R3_7  167.746841746
 UP BND  R3_8  167.746841746
 UP BND  R3_9  167.746841746
 UP BND  R3_10  167.746841746
 UP BND  R3_11  167.746841746
 UP BND  R3_12  167.746841746
 UP BND  R3_13  167.746841746
 UP BND  R3_14  167.746841746
 UP BND  R3_15  167.746841746
 UP BND  R3_16  167.746841746
 UP BND  R3_17  167.746841746
 UP BND  R3_18  167.746841746
 UP BND  R3_19  167.746841746
 UP BND  R3_20  167.746841746
 UP BND  R3_21  167.746841746
 UP BND  R3_22  167.746841746
 UP BND  R3_23  167.746841746
 UP BND  R3_24  167.746841746
 UP BND  R3_25  167.746841746
 UP BND  R3_26  167.746841746
 UP BND  R3_27  167.746841746
 UP BND  R3_28  167.746841746
 UP BND  R3_29  167.746841746
 UP BND  R3_30  167.746841746
 UP BND  R3_31  167.746841746
 UP BND  R3_32  167.746841746
 UP BND  R3_33  167.746841746
 UP BND  R3_34  167.746841746
 UP BND  R3_35  167.746841746
 UP BND  R4_0  83.628122812
 UP BND  R4_1  83.628122812
 UP BND  R4_2  83.628122812
 UP BND  R4_3  83.628122812
 UP BND  R4_4  83.628122812
 UP BND  R4_5  83.628122812
 UP BND  R4_6  83.628122812
 UP BND  R4_7  83.628122812
 UP BND  R4_8  83.628122812
 UP BND  R4_9  83.628122812
 UP BND  R4_10  83.628122812
 UP BND  R4_11  83.628122812
 UP BND  R4_12  83.628122812
 UP BND  R4_13  83.628122812
 UP BND  R4_14  83.628122812
 UP BND  R4_15  83.628122812
 UP BND  R4_16  83.628122812
 UP BND  R4_17  83.628122812
 UP BND  R4_18  83.628122812
 UP BND  R4_19  83.628122812
 UP BND  R4_20  83.628122812
 UP BND  R4_21  83.628122812
 UP BND  R4_22  83.628122812
 UP BND  R4_23  83.628122812
 UP BND  R4_24  83.628122812
 UP BND  R4_25  83.628122812
 UP BND  R4_26  83.628122812
 UP BND  R4_27  83.628122812
 UP BND  R4_28  83.628122812
 UP BND  R4_29  83.628122812
 UP BND  R4_30  83.628122812
 UP BND  R4_31  83.628122812
 UP BND  R4_32  83.628122812
 UP BND  R4_33  83.628122812
 UP BND  R4_34  83.628122812
 UP BND  R4_35  83.628122812
 UP BND  R5_0  61.5786325775
 UP BND  R5_1  61.5786325775
 UP BND  R5_2  61.5786325775
 UP BND  R5_3  61.5786325775
 UP BND  R5_4  61.5786325775
 UP BND  R5_5  61.5786325775
 UP BND  R5_6  61.5786325775
 UP BND  R5_7  61.5786325775
 UP BND  R5_8  61.5786325775
 UP BND  R5_9  61.5786325775
 UP BND  R5_10  61.5786325775
 UP BND  R5_11  61.5786325775
 UP BND  R5_12  61.5786325775
 UP BND  R5_13  61.5786325775
 UP BND  R5_14  61.5786325775
 UP BND  R5_15  61.5786325775
 UP BND  R5_16  61.5786325775
 UP BND  R5_17  61.5786325775
 UP BND  R5_18  61.5786325775
 UP BND  R5_19  61.5786325775
 UP BND  R5_20  61.5786325775
 UP BND  R5_21  61.5786325775
 UP BND  R5_22  61.5786325775
 UP BND  R5_23  61.5786325775
 UP BND  R5_24  61.5786325775
 UP BND  R5_25  61.5786325775
 UP BND  R5_26  61.5786325775
 UP BND  R5_27  61.5786325775
 UP BND  R5_28  61.5786325775
 UP BND  R5_29  61.5786325775
 UP BND  R5_30  61.5786325775
 UP BND  R5_31  61.5786325775
 UP BND  R5_32  61.5786325775
 UP BND  R5_33  61.5786325775
 UP BND  R5_34  61.5786325775
 UP BND  R5_35  61.5786325775
 UP BND  R6_0  109.093693125
 UP BND  R6_1  109.093693125
 UP BND  R6_2  109.093693125
 UP BND  R6_3  109.093693125
 UP BND  R6_4  109.093693125
 UP BND  R6_5  109.093693125
 UP BND  R6_6  109.093693125
 UP BND  R6_7  109.093693125
 UP BND  R6_8  109.093693125
 UP BND  R6_9  109.093693125
 UP BND  R6_10  109.093693125
 UP BND  R6_11  109.093693125
 UP BND  R6_12  109.093693125
 UP BND  R6_13  109.093693125
 UP BND  R6_14  109.093693125
 UP BND  R6_15  109.093693125
 UP BND  R6_16  109.093693125
 UP BND  R6_17  109.093693125
 UP BND  R6_18  109.093693125
 UP BND  R6_19  109.093693125
 UP BND  R6_20  109.093693125
 UP BND  R6_21  109.093693125
 UP BND  R6_22  109.093693125
 UP BND  R6_23  109.093693125
 UP BND  R6_24  109.093693125
 UP BND  R6_25  109.093693125
 UP BND  R6_26  109.093693125
 UP BND  R6_27  109.093693125
 UP BND  R6_28  109.093693125
 UP BND  R6_29  109.093693125
 UP BND  R6_30  109.093693125
 UP BND  R6_31  109.093693125
 UP BND  R6_32  109.093693125
 UP BND  R6_33  109.093693125
 UP BND  R6_34  109.093693125
 UP BND  R6_35  109.093693125
 UP BND  R7_0  119.469534437
 UP BND  R7_1  119.469534437
 UP BND  R7_2  119.469534437
 UP BND  R7_3  119.469534437
 UP BND  R7_4  119.469534437
 UP BND  R7_5  119.469534437
 UP BND  R7_6  119.469534437
 UP BND  R7_7  119.469534437
 UP BND  R7_8  119.469534437
 UP BND  R7_9  119.469534437
 UP BND  R7_10  119.469534437
 UP BND  R7_11  119.469534437
 UP BND  R7_12  119.469534437
 UP BND  R7_13  119.469534437
 UP BND  R7_14  119.469534437
 UP BND  R7_15  119.469534437
 UP BND  R7_16  119.469534437
 UP BND  R7_17  119.469534437
 UP BND  R7_18  119.469534437
 UP BND  R7_19  119.469534437
 UP BND  R7_20  119.469534437
 UP BND  R7_21  119.469534437
 UP BND  R7_22  119.469534437
 UP BND  R7_23  119.469534437
 UP BND  R7_24  119.469534437
 UP BND  R7_25  119.469534437
 UP BND  R7_26  119.469534437
 UP BND  R7_27  119.469534437
 UP BND  R7_28  119.469534437
 UP BND  R7_29  119.469534437
 UP BND  R7_30  119.469534437
 UP BND  R7_31  119.469534437
 UP BND  R7_32  119.469534437
 UP BND  R7_33  119.469534437
 UP BND  R7_34  119.469534437
 UP BND  R7_35  119.469534437
 UP BND  R8_0  138.017607238
 UP BND  R8_1  138.017607238
 UP BND  R8_2  138.017607238
 UP BND  R8_3  138.017607238
 UP BND  R8_4  138.017607238
 UP BND  R8_5  138.017607238
 UP BND  R8_6  138.017607238
 UP BND  R8_7  138.017607238
 UP BND  R8_8  138.017607238
 UP BND  R8_9  138.017607238
 UP BND  R8_10  138.017607238
 UP BND  R8_11  138.017607238
 UP BND  R8_12  138.017607238
 UP BND  R8_13  138.017607238
 UP BND  R8_14  138.017607238
 UP BND  R8_15  138.017607238
 UP BND  R8_16  138.017607238
 UP BND  R8_17  138.017607238
 UP BND  R8_18  138.017607238
 UP BND  R8_19  138.017607238
 UP BND  R8_20  138.017607238
 UP BND  R8_21  138.017607238
 UP BND  R8_22  138.017607238
 UP BND  R8_23  138.017607238
 UP BND  R8_24  138.017607238
 UP BND  R8_25  138.017607238
 UP BND  R8_26  138.017607238
 UP BND  R8_27  138.017607238
 UP BND  R8_28  138.017607238
 UP BND  R8_29  138.017607238
 UP BND  R8_30  138.017607238
 UP BND  R8_31  138.017607238
 UP BND  R8_32  138.017607238
 UP BND  R8_33  138.017607238
 UP BND  R8_34  138.017607238
 UP BND  R8_35  138.017607238
 UP BND  R9_0  147.908997071
 UP BND  R9_1  147.908997071
 UP BND  R9_2  147.908997071
 UP BND  R9_3  147.908997071
 UP BND  R9_4  147.908997071
 UP BND  R9_5  147.908997071
 UP BND  R9_6  147.908997071
 UP BND  R9_7  147.908997071
 UP BND  R9_8  147.908997071
 UP BND  R9_9  147.908997071
 UP BND  R9_10  147.908997071
 UP BND  R9_11  147.908997071
 UP BND  R9_12  147.908997071
 UP BND  R9_13  147.908997071
 UP BND  R9_14  147.908997071
 UP BND  R9_15  147.908997071
 UP BND  R9_16  147.908997071
 UP BND  R9_17  147.908997071
 UP BND  R9_18  147.908997071
 UP BND  R9_19  147.908997071
 UP BND  R9_20  147.908997071
 UP BND  R9_21  147.908997071
 UP BND  R9_22  147.908997071
 UP BND  R9_23  147.908997071
 UP BND  R9_24  147.908997071
 UP BND  R9_25  147.908997071
 UP BND  R9_26  147.908997071
 UP BND  R9_27  147.908997071
 UP BND  R9_28  147.908997071
 UP BND  R9_29  147.908997071
 UP BND  R9_30  147.908997071
 UP BND  R9_31  147.908997071
 UP BND  R9_32  147.908997071
 UP BND  R9_33  147.908997071
 UP BND  R9_34  147.908997071
 UP BND  R9_35  147.908997071
 UP BND  R10_0  247.811222258
 UP BND  R10_1  247.811222258
 UP BND  R10_2  247.811222258
 UP BND  R10_3  247.811222258
 UP BND  R10_4  247.811222258
 UP BND  R10_5  247.811222258
 UP BND  R10_6  247.811222258
 UP BND  R10_7  247.811222258
 UP BND  R10_8  247.811222258
 UP BND  R10_9  247.811222258
 UP BND  R10_10  247.811222258
 UP BND  R10_11  247.811222258
 UP BND  R10_12  247.811222258
 UP BND  R10_13  247.811222258
 UP BND  R10_14  247.811222258
 UP BND  R10_15  247.811222258
 UP BND  R10_16  247.811222258
 UP BND  R10_17  247.811222258
 UP BND  R10_18  247.811222258
 UP BND  R10_19  247.811222258
 UP BND  R10_20  247.811222258
 UP BND  R10_21  247.811222258
 UP BND  R10_22  247.811222258
 UP BND  R10_23  247.811222258
 UP BND  R10_24  247.811222258
 UP BND  R10_25  247.811222258
 UP BND  R10_26  247.811222258
 UP BND  R10_27  247.811222258
 UP BND  R10_28  247.811222258
 UP BND  R10_29  247.811222258
 UP BND  R10_30  247.811222258
 UP BND  R10_31  247.811222258
 UP BND  R10_32  247.811222258
 UP BND  R10_33  247.811222258
 UP BND  R10_34  247.811222258
 UP BND  R10_35  247.811222258
 UP BND  R11_0  168.426693623
 UP BND  R11_1  168.426693623
 UP BND  R11_2  168.426693623
 UP BND  R11_3  168.426693623
 UP BND  R11_4  168.426693623
 UP BND  R11_5  168.426693623
 UP BND  R11_6  168.426693623
 UP BND  R11_7  168.426693623
 UP BND  R11_8  168.426693623
 UP BND  R11_9  168.426693623
 UP BND  R11_10  168.426693623
 UP BND  R11_11  168.426693623
 UP BND  R11_12  168.426693623
 UP BND  R11_13  168.426693623
 UP BND  R11_14  168.426693623
 UP BND  R11_15  168.426693623
 UP BND  R11_16  168.426693623
 UP BND  R11_17  168.426693623
 UP BND  R11_18  168.426693623
 UP BND  R11_19  168.426693623
 UP BND  R11_20  168.426693623
 UP BND  R11_21  168.426693623
 UP BND  R11_22  168.426693623
 UP BND  R11_23  168.426693623
 UP BND  R11_24  168.426693623
 UP BND  R11_25  168.426693623
 UP BND  R11_26  168.426693623
 UP BND  R11_27  168.426693623
 UP BND  R11_28  168.426693623
 UP BND  R11_29  168.426693623
 UP BND  R11_30  168.426693623
 UP BND  R11_31  168.426693623
 UP BND  R11_32  168.426693623
 UP BND  R11_33  168.426693623
 UP BND  R11_34  168.426693623
 UP BND  R11_35  168.426693623
 UP BND  R12_0  106.304888405
 UP BND  R12_1  106.304888405
 UP BND  R12_2  106.304888405
 UP BND  R12_3  106.304888405
 UP BND  R12_4  106.304888405
 UP BND  R12_5  106.304888405
 UP BND  R12_6  106.304888405
 UP BND  R12_7  106.304888405
 UP BND  R12_8  106.304888405
 UP BND  R12_9  106.304888405
 UP BND  R12_10  106.304888405
 UP BND  R12_11  106.304888405
 UP BND  R12_12  106.304888405
 UP BND  R12_13  106.304888405
 UP BND  R12_14  106.304888405
 UP BND  R12_15  106.304888405
 UP BND  R12_16  106.304888405
 UP BND  R12_17  106.304888405
 UP BND  R12_18  106.304888405
 UP BND  R12_19  106.304888405
 UP BND  R12_20  106.304888405
 UP BND  R12_21  106.304888405
 UP BND  R12_22  106.304888405
 UP BND  R12_23  106.304888405
 UP BND  R12_24  106.304888405
 UP BND  R12_25  106.304888405
 UP BND  R12_26  106.304888405
 UP BND  R12_27  106.304888405
 UP BND  R12_28  106.304888405
 UP BND  R12_29  106.304888405
 UP BND  R12_30  106.304888405
 UP BND  R12_31  106.304888405
 UP BND  R12_32  106.304888405
 UP BND  R12_33  106.304888405
 UP BND  R12_34  106.304888405
 UP BND  R12_35  106.304888405
 UP BND  R13_0  154.214496993
 UP BND  R13_1  154.214496993
 UP BND  R13_2  154.214496993
 UP BND  R13_3  154.214496993
 UP BND  R13_4  154.214496993
 UP BND  R13_5  154.214496993
 UP BND  R13_6  154.214496993
 UP BND  R13_7  154.214496993
 UP BND  R13_8  154.214496993
 UP BND  R13_9  154.214496993
 UP BND  R13_10  154.214496993
 UP BND  R13_11  154.214496993
 UP BND  R13_12  154.214496993
 UP BND  R13_13  154.214496993
 UP BND  R13_14  154.214496993
 UP BND  R13_15  154.214496993
 UP BND  R13_16  154.214496993
 UP BND  R13_17  154.214496993
 UP BND  R13_18  154.214496993
 UP BND  R13_19  154.214496993
 UP BND  R13_20  154.214496993
 UP BND  R13_21  154.214496993
 UP BND  R13_22  154.214496993
 UP BND  R13_23  154.214496993
 UP BND  R13_24  154.214496993
 UP BND  R13_25  154.214496993
 UP BND  R13_26  154.214496993
 UP BND  R13_27  154.214496993
 UP BND  R13_28  154.214496993
 UP BND  R13_29  154.214496993
 UP BND  R13_30  154.214496993
 UP BND  R13_31  154.214496993
 UP BND  R13_32  154.214496993
 UP BND  R13_33  154.214496993
 UP BND  R13_34  154.214496993
 UP BND  R13_35  154.214496993
 UP BND  R14_0  178.504021517
 UP BND  R14_1  178.504021517
 UP BND  R14_2  178.504021517
 UP BND  R14_3  178.504021517
 UP BND  R14_4  178.504021517
 UP BND  R14_5  178.504021517
 UP BND  R14_6  178.504021517
 UP BND  R14_7  178.504021517
 UP BND  R14_8  178.504021517
 UP BND  R14_9  178.504021517
 UP BND  R14_10  178.504021517
 UP BND  R14_11  178.504021517
 UP BND  R14_12  178.504021517
 UP BND  R14_13  178.504021517
 UP BND  R14_14  178.504021517
 UP BND  R14_15  178.504021517
 UP BND  R14_16  178.504021517
 UP BND  R14_17  178.504021517
 UP BND  R14_18  178.504021517
 UP BND  R14_19  178.504021517
 UP BND  R14_20  178.504021517
 UP BND  R14_21  178.504021517
 UP BND  R14_22  178.504021517
 UP BND  R14_23  178.504021517
 UP BND  R14_24  178.504021517
 UP BND  R14_25  178.504021517
 UP BND  R14_26  178.504021517
 UP BND  R14_27  178.504021517
 UP BND  R14_28  178.504021517
 UP BND  R14_29  178.504021517
 UP BND  R14_30  178.504021517
 UP BND  R14_31  178.504021517
 UP BND  R14_32  178.504021517
 UP BND  R14_33  178.504021517
 UP BND  R14_34  178.504021517
 UP BND  R14_35  178.504021517
 UP BND  R15_0  151.80043163
 UP BND  R15_1  151.80043163
 UP BND  R15_2  151.80043163
 UP BND  R15_3  151.80043163
 UP BND  R15_4  151.80043163
 UP BND  R15_5  151.80043163
 UP BND  R15_6  151.80043163
 UP BND  R15_7  151.80043163
 UP BND  R15_8  151.80043163
 UP BND  R15_9  151.80043163
 UP BND  R15_10  151.80043163
 UP BND  R15_11  151.80043163
 UP BND  R15_12  151.80043163
 UP BND  R15_13  151.80043163
 UP BND  R15_14  151.80043163
 UP BND  R15_15  151.80043163
 UP BND  R15_16  151.80043163
 UP BND  R15_17  151.80043163
 UP BND  R15_18  151.80043163
 UP BND  R15_19  151.80043163
 UP BND  R15_20  151.80043163
 UP BND  R15_21  151.80043163
 UP BND  R15_22  151.80043163
 UP BND  R15_23  151.80043163
 UP BND  R15_24  151.80043163
 UP BND  R15_25  151.80043163
 UP BND  R15_26  151.80043163
 UP BND  R15_27  151.80043163
 UP BND  R15_28  151.80043163
 UP BND  R15_29  151.80043163
 UP BND  R15_30  151.80043163
 UP BND  R15_31  151.80043163
 UP BND  R15_32  151.80043163
 UP BND  R15_33  151.80043163
 UP BND  R15_34  151.80043163
 UP BND  R15_35  151.80043163
 UP BND  R16_0  120.099155277
 UP BND  R16_1  120.099155277
 UP BND  R16_2  120.099155277
 UP BND  R16_3  120.099155277
 UP BND  R16_4  120.099155277
 UP BND  R16_5  120.099155277
 UP BND  R16_6  120.099155277
 UP BND  R16_7  120.099155277
 UP BND  R16_8  120.099155277
 UP BND  R16_9  120.099155277
 UP BND  R16_10  120.099155277
 UP BND  R16_11  120.099155277
 UP BND  R16_12  120.099155277
 UP BND  R16_13  120.099155277
 UP BND  R16_14  120.099155277
 UP BND  R16_15  120.099155277
 UP BND  R16_16  120.099155277
 UP BND  R16_17  120.099155277
 UP BND  R16_18  120.099155277
 UP BND  R16_19  120.099155277
 UP BND  R16_20  120.099155277
 UP BND  R16_21  120.099155277
 UP BND  R16_22  120.099155277
 UP BND  R16_23  120.099155277
 UP BND  R16_24  120.099155277
 UP BND  R16_25  120.099155277
 UP BND  R16_26  120.099155277
 UP BND  R16_27  120.099155277
 UP BND  R16_28  120.099155277
 UP BND  R16_29  120.099155277
 UP BND  R16_30  120.099155277
 UP BND  R16_31  120.099155277
 UP BND  R16_32  120.099155277
 UP BND  R16_33  120.099155277
 UP BND  R16_34  120.099155277
 UP BND  R16_35  120.099155277
 UP BND  R17_0  218.823714155
 UP BND  R17_1  218.823714155
 UP BND  R17_2  218.823714155
 UP BND  R17_3  218.823714155
 UP BND  R17_4  218.823714155
 UP BND  R17_5  218.823714155
 UP BND  R17_6  218.823714155
 UP BND  R17_7  218.823714155
 UP BND  R17_8  218.823714155
 UP BND  R17_9  218.823714155
 UP BND  R17_10  218.823714155
 UP BND  R17_11  218.823714155
 UP BND  R17_12  218.823714155
 UP BND  R17_13  218.823714155
 UP BND  R17_14  218.823714155
 UP BND  R17_15  218.823714155
 UP BND  R17_16  218.823714155
 UP BND  R17_17  218.823714155
 UP BND  R17_18  218.823714155
 UP BND  R17_19  218.823714155
 UP BND  R17_20  218.823714155
 UP BND  R17_21  218.823714155
 UP BND  R17_22  218.823714155
 UP BND  R17_23  218.823714155
 UP BND  R17_24  218.823714155
 UP BND  R17_25  218.823714155
 UP BND  R17_26  218.823714155
 UP BND  R17_27  218.823714155
 UP BND  R17_28  218.823714155
 UP BND  R17_29  218.823714155
 UP BND  R17_30  218.823714155
 UP BND  R17_31  218.823714155
 UP BND  R17_32  218.823714155
 UP BND  R17_33  218.823714155
 UP BND  R17_34  218.823714155
 UP BND  R17_35  218.823714155
 UP BND  R18_0  181.353494761
 UP BND  R18_1  181.353494761
 UP BND  R18_2  181.353494761
 UP BND  R18_3  181.353494761
 UP BND  R18_4  181.353494761
 UP BND  R18_5  181.353494761
 UP BND  R18_6  181.353494761
 UP BND  R18_7  181.353494761
 UP BND  R18_8  181.353494761
 UP BND  R18_9  181.353494761
 UP BND  R18_10  181.353494761
 UP BND  R18_11  181.353494761
 UP BND  R18_12  181.353494761
 UP BND  R18_13  181.353494761
 UP BND  R18_14  181.353494761
 UP BND  R18_15  181.353494761
 UP BND  R18_16  181.353494761
 UP BND  R18_17  181.353494761
 UP BND  R18_18  181.353494761
 UP BND  R18_19  181.353494761
 UP BND  R18_20  181.353494761
 UP BND  R18_21  181.353494761
 UP BND  R18_22  181.353494761
 UP BND  R18_23  181.353494761
 UP BND  R18_24  181.353494761
 UP BND  R18_25  181.353494761
 UP BND  R18_26  181.353494761
 UP BND  R18_27  181.353494761
 UP BND  R18_28  181.353494761
 UP BND  R18_29  181.353494761
 UP BND  R18_30  181.353494761
 UP BND  R18_31  181.353494761
 UP BND  R18_32  181.353494761
 UP BND  R18_33  181.353494761
 UP BND  R18_34  181.353494761
 UP BND  R18_35  181.353494761
 UP BND  R19_0  240.319781519
 UP BND  R19_1  240.319781519
 UP BND  R19_2  240.319781519
 UP BND  R19_3  240.319781519
 UP BND  R19_4  240.319781519
 UP BND  R19_5  240.319781519
 UP BND  R19_6  240.319781519
 UP BND  R19_7  240.319781519
 UP BND  R19_8  240.319781519
 UP BND  R19_9  240.319781519
 UP BND  R19_10  240.319781519
 UP BND  R19_11  240.319781519
 UP BND  R19_12  240.319781519
 UP BND  R19_13  240.319781519
 UP BND  R19_14  240.319781519
 UP BND  R19_15  240.319781519
 UP BND  R19_16  240.319781519
 UP BND  R19_17  240.319781519
 UP BND  R19_18  240.319781519
 UP BND  R19_19  240.319781519
 UP BND  R19_20  240.319781519
 UP BND  R19_21  240.319781519
 UP BND  R19_22  240.319781519
 UP BND  R19_23  240.319781519
 UP BND  R19_24  240.319781519
 UP BND  R19_25  240.319781519
 UP BND  R19_26  240.319781519
 UP BND  R19_27  240.319781519
 UP BND  R19_28  240.319781519
 UP BND  R19_29  240.319781519
 UP BND  R19_30  240.319781519
 UP BND  R19_31  240.319781519
 UP BND  R19_32  240.319781519
 UP BND  R19_33  240.319781519
 UP BND  R19_34  240.319781519
 UP BND  R19_35  240.319781519
 UP BND  R20_0  151.566547242
 UP BND  R20_1  151.566547242
 UP BND  R20_2  151.566547242
 UP BND  R20_3  151.566547242
 UP BND  R20_4  151.566547242
 UP BND  R20_5  151.566547242
 UP BND  R20_6  151.566547242
 UP BND  R20_7  151.566547242
 UP BND  R20_8  151.566547242
 UP BND  R20_9  151.566547242
 UP BND  R20_10  151.566547242
 UP BND  R20_11  151.566547242
 UP BND  R20_12  151.566547242
 UP BND  R20_13  151.566547242
 UP BND  R20_14  151.566547242
 UP BND  R20_15  151.566547242
 UP BND  R20_16  151.566547242
 UP BND  R20_17  151.566547242
 UP BND  R20_18  151.566547242
 UP BND  R20_19  151.566547242
 UP BND  R20_20  151.566547242
 UP BND  R20_21  151.566547242
 UP BND  R20_22  151.566547242
 UP BND  R20_23  151.566547242
 UP BND  R20_24  151.566547242
 UP BND  R20_25  151.566547242
 UP BND  R20_26  151.566547242
 UP BND  R20_27  151.566547242
 UP BND  R20_28  151.566547242
 UP BND  R20_29  151.566547242
 UP BND  R20_30  151.566547242
 UP BND  R20_31  151.566547242
 UP BND  R20_32  151.566547242
 UP BND  R20_33  151.566547242
 UP BND  R20_34  151.566547242
 UP BND  R20_35  151.566547242
 UP BND  R21_0  236.600173623
 UP BND  R21_1  236.600173623
 UP BND  R21_2  236.600173623
 UP BND  R21_3  236.600173623
 UP BND  R21_4  236.600173623
 UP BND  R21_5  236.600173623
 UP BND  R21_6  236.600173623
 UP BND  R21_7  236.600173623
 UP BND  R21_8  236.600173623
 UP BND  R21_9  236.600173623
 UP BND  R21_10  236.600173623
 UP BND  R21_11  236.600173623
 UP BND  R21_12  236.600173623
 UP BND  R21_13  236.600173623
 UP BND  R21_14  236.600173623
 UP BND  R21_15  236.600173623
 UP BND  R21_16  236.600173623
 UP BND  R21_17  236.600173623
 UP BND  R21_18  236.600173623
 UP BND  R21_19  236.600173623
 UP BND  R21_20  236.600173623
 UP BND  R21_21  236.600173623
 UP BND  R21_22  236.600173623
 UP BND  R21_23  236.600173623
 UP BND  R21_24  236.600173623
 UP BND  R21_25  236.600173623
 UP BND  R21_26  236.600173623
 UP BND  R21_27  236.600173623
 UP BND  R21_28  236.600173623
 UP BND  R21_29  236.600173623
 UP BND  R21_30  236.600173623
 UP BND  R21_31  236.600173623
 UP BND  R21_32  236.600173623
 UP BND  R21_33  236.600173623
 UP BND  R21_34  236.600173623
 UP BND  R21_35  236.600173623
 UP BND  R22_0  258.561427019
 UP BND  R22_1  258.561427019
 UP BND  R22_2  258.561427019
 UP BND  R22_3  258.561427019
 UP BND  R22_4  258.561427019
 UP BND  R22_5  258.561427019
 UP BND  R22_6  258.561427019
 UP BND  R22_7  258.561427019
 UP BND  R22_8  258.561427019
 UP BND  R22_9  258.561427019
 UP BND  R22_10  258.561427019
 UP BND  R22_11  258.561427019
 UP BND  R22_12  258.561427019
 UP BND  R22_13  258.561427019
 UP BND  R22_14  258.561427019
 UP BND  R22_15  258.561427019
 UP BND  R22_16  258.561427019
 UP BND  R22_17  258.561427019
 UP BND  R22_18  258.561427019
 UP BND  R22_19  258.561427019
 UP BND  R22_20  258.561427019
 UP BND  R22_21  258.561427019
 UP BND  R22_22  258.561427019
 UP BND  R22_23  258.561427019
 UP BND  R22_24  258.561427019
 UP BND  R22_25  258.561427019
 UP BND  R22_26  258.561427019
 UP BND  R22_27  258.561427019
 UP BND  R22_28  258.561427019
 UP BND  R22_29  258.561427019
 UP BND  R22_30  258.561427019
 UP BND  R22_31  258.561427019
 UP BND  R22_32  258.561427019
 UP BND  R22_33  258.561427019
 UP BND  R22_34  258.561427019
 UP BND  R22_35  258.561427019
 UP BND  R23_0  91.8840860088
 UP BND  R23_1  91.8840860088
 UP BND  R23_2  91.8840860088
 UP BND  R23_3  91.8840860088
 UP BND  R23_4  91.8840860088
 UP BND  R23_5  91.8840860088
 UP BND  R23_6  91.8840860088
 UP BND  R23_7  91.8840860088
 UP BND  R23_8  91.8840860088
 UP BND  R23_9  91.8840860088
 UP BND  R23_10  91.8840860088
 UP BND  R23_11  91.8840860088
 UP BND  R23_12  91.8840860088
 UP BND  R23_13  91.8840860088
 UP BND  R23_14  91.8840860088
 UP BND  R23_15  91.8840860088
 UP BND  R23_16  91.8840860088
 UP BND  R23_17  91.8840860088
 UP BND  R23_18  91.8840860088
 UP BND  R23_19  91.8840860088
 UP BND  R23_20  91.8840860088
 UP BND  R23_21  91.8840860088
 UP BND  R23_22  91.8840860088
 UP BND  R23_23  91.8840860088
 UP BND  R23_24  91.8840860088
 UP BND  R23_25  91.8840860088
 UP BND  R23_26  91.8840860088
 UP BND  R23_27  91.8840860088
 UP BND  R23_28  91.8840860088
 UP BND  R23_29  91.8840860088
 UP BND  R23_30  91.8840860088
 UP BND  R23_31  91.8840860088
 UP BND  R23_32  91.8840860088
 UP BND  R23_33  91.8840860088
 UP BND  R23_34  91.8840860088
 UP BND  R23_35  91.8840860088
 UP BND  R24_0  226.120201951
 UP BND  R24_1  226.120201951
 UP BND  R24_2  226.120201951
 UP BND  R24_3  226.120201951
 UP BND  R24_4  226.120201951
 UP BND  R24_5  226.120201951
 UP BND  R24_6  226.120201951
 UP BND  R24_7  226.120201951
 UP BND  R24_8  226.120201951
 UP BND  R24_9  226.120201951
 UP BND  R24_10  226.120201951
 UP BND  R24_11  226.120201951
 UP BND  R24_12  226.120201951
 UP BND  R24_13  226.120201951
 UP BND  R24_14  226.120201951
 UP BND  R24_15  226.120201951
 UP BND  R24_16  226.120201951
 UP BND  R24_17  226.120201951
 UP BND  R24_18  226.120201951
 UP BND  R24_19  226.120201951
 UP BND  R24_20  226.120201951
 UP BND  R24_21  226.120201951
 UP BND  R24_22  226.120201951
 UP BND  R24_23  226.120201951
 UP BND  R24_24  226.120201951
 UP BND  R24_25  226.120201951
 UP BND  R24_26  226.120201951
 UP BND  R24_27  226.120201951
 UP BND  R24_28  226.120201951
 UP BND  R24_29  226.120201951
 UP BND  R24_30  226.120201951
 UP BND  R24_31  226.120201951
 UP BND  R24_32  226.120201951
 UP BND  R24_33  226.120201951
 UP BND  R24_34  226.120201951
 UP BND  R24_35  226.120201951
 UP BND  R25_0  190.0159625
 UP BND  R25_1  190.0159625
 UP BND  R25_2  190.0159625
 UP BND  R25_3  190.0159625
 UP BND  R25_4  190.0159625
 UP BND  R25_5  190.0159625
 UP BND  R25_6  190.0159625
 UP BND  R25_7  190.0159625
 UP BND  R25_8  190.0159625
 UP BND  R25_9  190.0159625
 UP BND  R25_10  190.0159625
 UP BND  R25_11  190.0159625
 UP BND  R25_12  190.0159625
 UP BND  R25_13  190.0159625
 UP BND  R25_14  190.0159625
 UP BND  R25_15  190.0159625
 UP BND  R25_16  190.0159625
 UP BND  R25_17  190.0159625
 UP BND  R25_18  190.0159625
 UP BND  R25_19  190.0159625
 UP BND  R25_20  190.0159625
 UP BND  R25_21  190.0159625
 UP BND  R25_22  190.0159625
 UP BND  R25_23  190.0159625
 UP BND  R25_24  190.0159625
 UP BND  R25_25  190.0159625
 UP BND  R25_26  190.0159625
 UP BND  R25_27  190.0159625
 UP BND  R25_28  190.0159625
 UP BND  R25_29  190.0159625
 UP BND  R25_30  190.0159625
 UP BND  R25_31  190.0159625
 UP BND  R25_32  190.0159625
 UP BND  R25_33  190.0159625
 UP BND  R25_34  190.0159625
 UP BND  R25_35  190.0159625
 UP BND  R26_0  245.962798112
 UP BND  R26_1  245.962798112
 UP BND  R26_2  245.962798112
 UP BND  R26_3  245.962798112
 UP BND  R26_4  245.962798112
 UP BND  R26_5  245.962798112
 UP BND  R26_6  245.962798112
 UP BND  R26_7  245.962798112
 UP BND  R26_8  245.962798112
 UP BND  R26_9  245.962798112
 UP BND  R26_10  245.962798112
 UP BND  R26_11  245.962798112
 UP BND  R26_12  245.962798112
 UP BND  R26_13  245.962798112
 UP BND  R26_14  245.962798112
 UP BND  R26_15  245.962798112
 UP BND  R26_16  245.962798112
 UP BND  R26_17  245.962798112
 UP BND  R26_18  245.962798112
 UP BND  R26_19  245.962798112
 UP BND  R26_20  245.962798112
 UP BND  R26_21  245.962798112
 UP BND  R26_22  245.962798112
 UP BND  R26_23  245.962798112
 UP BND  R26_24  245.962798112
 UP BND  R26_25  245.962798112
 UP BND  R26_26  245.962798112
 UP BND  R26_27  245.962798112
 UP BND  R26_28  245.962798112
 UP BND  R26_29  245.962798112
 UP BND  R26_30  245.962798112
 UP BND  R26_31  245.962798112
 UP BND  R26_32  245.962798112
 UP BND  R26_33  245.962798112
 UP BND  R26_34  245.962798112
 UP BND  R26_35  245.962798112
 UP BND  R27_0  115.26117835
 UP BND  R27_1  115.26117835
 UP BND  R27_2  115.26117835
 UP BND  R27_3  115.26117835
 UP BND  R27_4  115.26117835
 UP BND  R27_5  115.26117835
 UP BND  R27_6  115.26117835
 UP BND  R27_7  115.26117835
 UP BND  R27_8  115.26117835
 UP BND  R27_9  115.26117835
 UP BND  R27_10  115.26117835
 UP BND  R27_11  115.26117835
 UP BND  R27_12  115.26117835
 UP BND  R27_13  115.26117835
 UP BND  R27_14  115.26117835
 UP BND  R27_15  115.26117835
 UP BND  R27_16  115.26117835
 UP BND  R27_17  115.26117835
 UP BND  R27_18  115.26117835
 UP BND  R27_19  115.26117835
 UP BND  R27_20  115.26117835
 UP BND  R27_21  115.26117835
 UP BND  R27_22  115.26117835
 UP BND  R27_23  115.26117835
 UP BND  R27_24  115.26117835
 UP BND  R27_25  115.26117835
 UP BND  R27_26  115.26117835
 UP BND  R27_27  115.26117835
 UP BND  R27_28  115.26117835
 UP BND  R27_29  115.26117835
 UP BND  R27_30  115.26117835
 UP BND  R27_31  115.26117835
 UP BND  R27_32  115.26117835
 UP BND  R27_33  115.26117835
 UP BND  R27_34  115.26117835
 UP BND  R27_35  115.26117835
 UP BND  R28_0  221.323636711
 UP BND  R28_1  221.323636711
 UP BND  R28_2  221.323636711
 UP BND  R28_3  221.323636711
 UP BND  R28_4  221.323636711
 UP BND  R28_5  221.323636711
 UP BND  R28_6  221.323636711
 UP BND  R28_7  221.323636711
 UP BND  R28_8  221.323636711
 UP BND  R28_9  221.323636711
 UP BND  R28_10  221.323636711
 UP BND  R28_11  221.323636711
 UP BND  R28_12  221.323636711
 UP BND  R28_13  221.323636711
 UP BND  R28_14  221.323636711
 UP BND  R28_15  221.323636711
 UP BND  R28_16  221.323636711
 UP BND  R28_17  221.323636711
 UP BND  R28_18  221.323636711
 UP BND  R28_19  221.323636711
 UP BND  R28_20  221.323636711
 UP BND  R28_21  221.323636711
 UP BND  R28_22  221.323636711
 UP BND  R28_23  221.323636711
 UP BND  R28_24  221.323636711
 UP BND  R28_25  221.323636711
 UP BND  R28_26  221.323636711
 UP BND  R28_27  221.323636711
 UP BND  R28_28  221.323636711
 UP BND  R28_29  221.323636711
 UP BND  R28_30  221.323636711
 UP BND  R28_31  221.323636711
 UP BND  R28_32  221.323636711
 UP BND  R28_33  221.323636711
 UP BND  R28_34  221.323636711
 UP BND  R28_35  221.323636711
 UP BND  R29_0  217.975996715
 UP BND  R29_1  217.975996715
 UP BND  R29_2  217.975996715
 UP BND  R29_3  217.975996715
 UP BND  R29_4  217.975996715
 UP BND  R29_5  217.975996715
 UP BND  R29_6  217.975996715
 UP BND  R29_7  217.975996715
 UP BND  R29_8  217.975996715
 UP BND  R29_9  217.975996715
 UP BND  R29_10  217.975996715
 UP BND  R29_11  217.975996715
 UP BND  R29_12  217.975996715
 UP BND  R29_13  217.975996715
 UP BND  R29_14  217.975996715
 UP BND  R29_15  217.975996715
 UP BND  R29_16  217.975996715
 UP BND  R29_17  217.975996715
 UP BND  R29_18  217.975996715
 UP BND  R29_19  217.975996715
 UP BND  R29_20  217.975996715
 UP BND  R29_21  217.975996715
 UP BND  R29_22  217.975996715
 UP BND  R29_23  217.975996715
 UP BND  R29_24  217.975996715
 UP BND  R29_25  217.975996715
 UP BND  R29_26  217.975996715
 UP BND  R29_27  217.975996715
 UP BND  R29_28  217.975996715
 UP BND  R29_29  217.975996715
 UP BND  R29_30  217.975996715
 UP BND  R29_31  217.975996715
 UP BND  R29_32  217.975996715
 UP BND  R29_33  217.975996715
 UP BND  R29_34  217.975996715
 UP BND  R29_35  217.975996715
 UP BND  R30_0  249.044837073
 UP BND  R30_1  249.044837073
 UP BND  R30_2  249.044837073
 UP BND  R30_3  249.044837073
 UP BND  R30_4  249.044837073
 UP BND  R30_5  249.044837073
 UP BND  R30_6  249.044837073
 UP BND  R30_7  249.044837073
 UP BND  R30_8  249.044837073
 UP BND  R30_9  249.044837073
 UP BND  R30_10  249.044837073
 UP BND  R30_11  249.044837073
 UP BND  R30_12  249.044837073
 UP BND  R30_13  249.044837073
 UP BND  R30_14  249.044837073
 UP BND  R30_15  249.044837073
 UP BND  R30_16  249.044837073
 UP BND  R30_17  249.044837073
 UP BND  R30_18  249.044837073
 UP BND  R30_19  249.044837073
 UP BND  R30_20  249.044837073
 UP BND  R30_21  249.044837073
 UP BND  R30_22  249.044837073
 UP BND  R30_23  249.044837073
 UP BND  R30_24  249.044837073
 UP BND  R30_25  249.044837073
 UP BND  R30_26  249.044837073
 UP BND  R30_27  249.044837073
 UP BND  R30_28  249.044837073
 UP BND  R30_29  249.044837073
 UP BND  R30_30  249.044837073
 UP BND  R30_31  249.044837073
 UP BND  R30_32  249.044837073
 UP BND  R30_33  249.044837073
 UP BND  R30_34  249.044837073
 UP BND  R30_35  249.044837073
 UP BND  R31_0  196.713807077
 UP BND  R31_1  196.713807077
 UP BND  R31_2  196.713807077
 UP BND  R31_3  196.713807077
 UP BND  R31_4  196.713807077
 UP BND  R31_5  196.713807077
 UP BND  R31_6  196.713807077
 UP BND  R31_7  196.713807077
 UP BND  R31_8  196.713807077
 UP BND  R31_9  196.713807077
 UP BND  R31_10  196.713807077
 UP BND  R31_11  196.713807077
 UP BND  R31_12  196.713807077
 UP BND  R31_13  196.713807077
 UP BND  R31_14  196.713807077
 UP BND  R31_15  196.713807077
 UP BND  R31_16  196.713807077
 UP BND  R31_17  196.713807077
 UP BND  R31_18  196.713807077
 UP BND  R31_19  196.713807077
 UP BND  R31_20  196.713807077
 UP BND  R31_21  196.713807077
 UP BND  R31_22  196.713807077
 UP BND  R31_23  196.713807077
 UP BND  R31_24  196.713807077
 UP BND  R31_25  196.713807077
 UP BND  R31_26  196.713807077
 UP BND  R31_27  196.713807077
 UP BND  R31_28  196.713807077
 UP BND  R31_29  196.713807077
 UP BND  R31_30  196.713807077
 UP BND  R31_31  196.713807077
 UP BND  R31_32  196.713807077
 UP BND  R31_33  196.713807077
 UP BND  R31_34  196.713807077
 UP BND  R31_35  196.713807077
 UP BND  R32_0  151.280864848
 UP BND  R32_1  151.280864848
 UP BND  R32_2  151.280864848
 UP BND  R32_3  151.280864848
 UP BND  R32_4  151.280864848
 UP BND  R32_5  151.280864848
 UP BND  R32_6  151.280864848
 UP BND  R32_7  151.280864848
 UP BND  R32_8  151.280864848
 UP BND  R32_9  151.280864848
 UP BND  R32_10  151.280864848
 UP BND  R32_11  151.280864848
 UP BND  R32_12  151.280864848
 UP BND  R32_13  151.280864848
 UP BND  R32_14  151.280864848
 UP BND  R32_15  151.280864848
 UP BND  R32_16  151.280864848
 UP BND  R32_17  151.280864848
 UP BND  R32_18  151.280864848
 UP BND  R32_19  151.280864848
 UP BND  R32_20  151.280864848
 UP BND  R32_21  151.280864848
 UP BND  R32_22  151.280864848
 UP BND  R32_23  151.280864848
 UP BND  R32_24  151.280864848
 UP BND  R32_25  151.280864848
 UP BND  R32_26  151.280864848
 UP BND  R32_27  151.280864848
 UP BND  R32_28  151.280864848
 UP BND  R32_29  151.280864848
 UP BND  R32_30  151.280864848
 UP BND  R32_31  151.280864848
 UP BND  R32_32  151.280864848
 UP BND  R32_33  151.280864848
 UP BND  R32_34  151.280864848
 UP BND  R32_35  151.280864848
 UP BND  R33_0  114.44014276
 UP BND  R33_1  114.44014276
 UP BND  R33_2  114.44014276
 UP BND  R33_3  114.44014276
 UP BND  R33_4  114.44014276
 UP BND  R33_5  114.44014276
 UP BND  R33_6  114.44014276
 UP BND  R33_7  114.44014276
 UP BND  R33_8  114.44014276
 UP BND  R33_9  114.44014276
 UP BND  R33_10  114.44014276
 UP BND  R33_11  114.44014276
 UP BND  R33_12  114.44014276
 UP BND  R33_13  114.44014276
 UP BND  R33_14  114.44014276
 UP BND  R33_15  114.44014276
 UP BND  R33_16  114.44014276
 UP BND  R33_17  114.44014276
 UP BND  R33_18  114.44014276
 UP BND  R33_19  114.44014276
 UP BND  R33_20  114.44014276
 UP BND  R33_21  114.44014276
 UP BND  R33_22  114.44014276
 UP BND  R33_23  114.44014276
 UP BND  R33_24  114.44014276
 UP BND  R33_25  114.44014276
 UP BND  R33_26  114.44014276
 UP BND  R33_27  114.44014276
 UP BND  R33_28  114.44014276
 UP BND  R33_29  114.44014276
 UP BND  R33_30  114.44014276
 UP BND  R33_31  114.44014276
 UP BND  R33_32  114.44014276
 UP BND  R33_33  114.44014276
 UP BND  R33_34  114.44014276
 UP BND  R33_35  114.44014276
 UP BND  R34_0  156.819165392
 UP BND  R34_1  156.819165392
 UP BND  R34_2  156.819165392
 UP BND  R34_3  156.819165392
 UP BND  R34_4  156.819165392
 UP BND  R34_5  156.819165392
 UP BND  R34_6  156.819165392
 UP BND  R34_7  156.819165392
 UP BND  R34_8  156.819165392
 UP BND  R34_9  156.819165392
 UP BND  R34_10  156.819165392
 UP BND  R34_11  156.819165392
 UP BND  R34_12  156.819165392
 UP BND  R34_13  156.819165392
 UP BND  R34_14  156.819165392
 UP BND  R34_15  156.819165392
 UP BND  R34_16  156.819165392
 UP BND  R34_17  156.819165392
 UP BND  R34_18  156.819165392
 UP BND  R34_19  156.819165392
 UP BND  R34_20  156.819165392
 UP BND  R34_21  156.819165392
 UP BND  R34_22  156.819165392
 UP BND  R34_23  156.819165392
 UP BND  R34_24  156.819165392
 UP BND  R34_25  156.819165392
 UP BND  R34_26  156.819165392
 UP BND  R34_27  156.819165392
 UP BND  R34_28  156.819165392
 UP BND  R34_29  156.819165392
 UP BND  R34_30  156.819165392
 UP BND  R34_31  156.819165392
 UP BND  R34_32  156.819165392
 UP BND  R34_33  156.819165392
 UP BND  R34_34  156.819165392
 UP BND  R34_35  156.819165392
 UP BND  R35_0  214.014132727
 UP BND  R35_1  214.014132727
 UP BND  R35_2  214.014132727
 UP BND  R35_3  214.014132727
 UP BND  R35_4  214.014132727
 UP BND  R35_5  214.014132727
 UP BND  R35_6  214.014132727
 UP BND  R35_7  214.014132727
 UP BND  R35_8  214.014132727
 UP BND  R35_9  214.014132727
 UP BND  R35_10  214.014132727
 UP BND  R35_11  214.014132727
 UP BND  R35_12  214.014132727
 UP BND  R35_13  214.014132727
 UP BND  R35_14  214.014132727
 UP BND  R35_15  214.014132727
 UP BND  R35_16  214.014132727
 UP BND  R35_17  214.014132727
 UP BND  R35_18  214.014132727
 UP BND  R35_19  214.014132727
 UP BND  R35_20  214.014132727
 UP BND  R35_21  214.014132727
 UP BND  R35_22  214.014132727
 UP BND  R35_23  214.014132727
 UP BND  R35_24  214.014132727
 UP BND  R35_25  214.014132727
 UP BND  R35_26  214.014132727
 UP BND  R35_27  214.014132727
 UP BND  R35_28  214.014132727
 UP BND  R35_29  214.014132727
 UP BND  R35_30  214.014132727
 UP BND  R35_31  214.014132727
 UP BND  R35_32  214.014132727
 UP BND  R35_33  214.014132727
 UP BND  R35_34  214.014132727
 UP BND  R35_35  214.014132727
 UP BND  R36_0  138.491473688
 UP BND  R36_1  138.491473688
 UP BND  R36_2  138.491473688
 UP BND  R36_3  138.491473688
 UP BND  R36_4  138.491473688
 UP BND  R36_5  138.491473688
 UP BND  R36_6  138.491473688
 UP BND  R36_7  138.491473688
 UP BND  R36_8  138.491473688
 UP BND  R36_9  138.491473688
 UP BND  R36_10  138.491473688
 UP BND  R36_11  138.491473688
 UP BND  R36_12  138.491473688
 UP BND  R36_13  138.491473688
 UP BND  R36_14  138.491473688
 UP BND  R36_15  138.491473688
 UP BND  R36_16  138.491473688
 UP BND  R36_17  138.491473688
 UP BND  R36_18  138.491473688
 UP BND  R36_19  138.491473688
 UP BND  R36_20  138.491473688
 UP BND  R36_21  138.491473688
 UP BND  R36_22  138.491473688
 UP BND  R36_23  138.491473688
 UP BND  R36_24  138.491473688
 UP BND  R36_25  138.491473688
 UP BND  R36_26  138.491473688
 UP BND  R36_27  138.491473688
 UP BND  R36_28  138.491473688
 UP BND  R36_29  138.491473688
 UP BND  R36_30  138.491473688
 UP BND  R36_31  138.491473688
 UP BND  R36_32  138.491473688
 UP BND  R36_33  138.491473688
 UP BND  R36_34  138.491473688
 UP BND  R36_35  138.491473688
 UP BND  R37_0  61.651297189
 UP BND  R37_1  61.651297189
 UP BND  R37_2  61.651297189
 UP BND  R37_3  61.651297189
 UP BND  R37_4  61.651297189
 UP BND  R37_5  61.651297189
 UP BND  R37_6  61.651297189
 UP BND  R37_7  61.651297189
 UP BND  R37_8  61.651297189
 UP BND  R37_9  61.651297189
 UP BND  R37_10  61.651297189
 UP BND  R37_11  61.651297189
 UP BND  R37_12  61.651297189
 UP BND  R37_13  61.651297189
 UP BND  R37_14  61.651297189
 UP BND  R37_15  61.651297189
 UP BND  R37_16  61.651297189
 UP BND  R37_17  61.651297189
 UP BND  R37_18  61.651297189
 UP BND  R37_19  61.651297189
 UP BND  R37_20  61.651297189
 UP BND  R37_21  61.651297189
 UP BND  R37_22  61.651297189
 UP BND  R37_23  61.651297189
 UP BND  R37_24  61.651297189
 UP BND  R37_25  61.651297189
 UP BND  R37_26  61.651297189
 UP BND  R37_27  61.651297189
 UP BND  R37_28  61.651297189
 UP BND  R37_29  61.651297189
 UP BND  R37_30  61.651297189
 UP BND  R37_31  61.651297189
 UP BND  R37_32  61.651297189
 UP BND  R37_33  61.651297189
 UP BND  R37_34  61.651297189
 UP BND  R37_35  61.651297189
 UP BND  R38_0  68.8934843472
 UP BND  R38_1  68.8934843472
 UP BND  R38_2  68.8934843472
 UP BND  R38_3  68.8934843472
 UP BND  R38_4  68.8934843472
 UP BND  R38_5  68.8934843472
 UP BND  R38_6  68.8934843472
 UP BND  R38_7  68.8934843472
 UP BND  R38_8  68.8934843472
 UP BND  R38_9  68.8934843472
 UP BND  R38_10  68.8934843472
 UP BND  R38_11  68.8934843472
 UP BND  R38_12  68.8934843472
 UP BND  R38_13  68.8934843472
 UP BND  R38_14  68.8934843472
 UP BND  R38_15  68.8934843472
 UP BND  R38_16  68.8934843472
 UP BND  R38_17  68.8934843472
 UP BND  R38_18  68.8934843472
 UP BND  R38_19  68.8934843472
 UP BND  R38_20  68.8934843472
 UP BND  R38_21  68.8934843472
 UP BND  R38_22  68.8934843472
 UP BND  R38_23  68.8934843472
 UP BND  R38_24  68.8934843472
 UP BND  R38_25  68.8934843472
 UP BND  R38_26  68.8934843472
 UP BND  R38_27  68.8934843472
 UP BND  R38_28  68.8934843472
 UP BND  R38_29  68.8934843472
 UP BND  R38_30  68.8934843472
 UP BND  R38_31  68.8934843472
 UP BND  R38_32  68.8934843472
 UP BND  R38_33  68.8934843472
 UP BND  R38_34  68.8934843472
 UP BND  R38_35  68.8934843472
 UP BND  R39_0  98.5038858901
 UP BND  R39_1  98.5038858901
 UP BND  R39_2  98.5038858901
 UP BND  R39_3  98.5038858901
 UP BND  R39_4  98.5038858901
 UP BND  R39_5  98.5038858901
 UP BND  R39_6  98.5038858901
 UP BND  R39_7  98.5038858901
 UP BND  R39_8  98.5038858901
 UP BND  R39_9  98.5038858901
 UP BND  R39_10  98.5038858901
 UP BND  R39_11  98.5038858901
 UP BND  R39_12  98.5038858901
 UP BND  R39_13  98.5038858901
 UP BND  R39_14  98.5038858901
 UP BND  R39_15  98.5038858901
 UP BND  R39_16  98.5038858901
 UP BND  R39_17  98.5038858901
 UP BND  R39_18  98.5038858901
 UP BND  R39_19  98.5038858901
 UP BND  R39_20  98.5038858901
 UP BND  R39_21  98.5038858901
 UP BND  R39_22  98.5038858901
 UP BND  R39_23  98.5038858901
 UP BND  R39_24  98.5038858901
 UP BND  R39_25  98.5038858901
 UP BND  R39_26  98.5038858901
 UP BND  R39_27  98.5038858901
 UP BND  R39_28  98.5038858901
 UP BND  R39_29  98.5038858901
 UP BND  R39_30  98.5038858901
 UP BND  R39_31  98.5038858901
 UP BND  R39_32  98.5038858901
 UP BND  R39_33  98.5038858901
 UP BND  R39_34  98.5038858901
 UP BND  R39_35  98.5038858901
 UP BND  I0_0  900
 UP BND  I0_1  900
 UP BND  I0_2  900
 UP BND  I0_3  900
 UP BND  I0_4  900
 UP BND  I0_5  900
 UP BND  I0_6  900
 UP BND  I0_7  900
 UP BND  I0_8  900
 UP BND  I0_9  900
 UP BND  I0_10  900
 UP BND  I0_11  900
 UP BND  I0_12  900
 UP BND  I0_13  900
 UP BND  I0_14  900
 UP BND  I0_15  900
 UP BND  I0_16  900
 UP BND  I0_17  900
 UP BND  I0_18  900
 UP BND  I0_19  900
 UP BND  I0_20  900
 UP BND  I0_21  900
 UP BND  I0_22  900
 UP BND  I0_23  900
 UP BND  I0_24  900
 UP BND  I0_25  900
 UP BND  I0_26  900
 UP BND  I0_27  900
 UP BND  I0_28  900
 UP BND  I0_29  900
 UP BND  I0_30  900
 UP BND  I0_31  900
 UP BND  I0_32  900
 UP BND  I0_33  900
 UP BND  I0_34  900
 UP BND  I0_35  900
 UP BND  I1_0  900
 UP BND  I1_1  900
 UP BND  I1_2  900
 UP BND  I1_3  900
 UP BND  I1_4  900
 UP BND  I1_5  900
 UP BND  I1_6  900
 UP BND  I1_7  900
 UP BND  I1_8  900
 UP BND  I1_9  900
 UP BND  I1_10  900
 UP BND  I1_11  900
 UP BND  I1_12  900
 UP BND  I1_13  900
 UP BND  I1_14  900
 UP BND  I1_15  900
 UP BND  I1_16  900
 UP BND  I1_17  900
 UP BND  I1_18  900
 UP BND  I1_19  900
 UP BND  I1_20  900
 UP BND  I1_21  900
 UP BND  I1_22  900
 UP BND  I1_23  900
 UP BND  I1_24  900
 UP BND  I1_25  900
 UP BND  I1_26  900
 UP BND  I1_27  900
 UP BND  I1_28  900
 UP BND  I1_29  900
 UP BND  I1_30  900
 UP BND  I1_31  900
 UP BND  I1_32  900
 UP BND  I1_33  900
 UP BND  I1_34  900
 UP BND  I1_35  900
 UP BND  I2_0  900
 UP BND  I2_1  900
 UP BND  I2_2  900
 UP BND  I2_3  900
 UP BND  I2_4  900
 UP BND  I2_5  900
 UP BND  I2_6  900
 UP BND  I2_7  900
 UP BND  I2_8  900
 UP BND  I2_9  900
 UP BND  I2_10  900
 UP BND  I2_11  900
 UP BND  I2_12  900
 UP BND  I2_13  900
 UP BND  I2_14  900
 UP BND  I2_15  900
 UP BND  I2_16  900
 UP BND  I2_17  900
 UP BND  I2_18  900
 UP BND  I2_19  900
 UP BND  I2_20  900
 UP BND  I2_21  900
 UP BND  I2_22  900
 UP BND  I2_23  900
 UP BND  I2_24  900
 UP BND  I2_25  900
 UP BND  I2_26  900
 UP BND  I2_27  900
 UP BND  I2_28  900
 UP BND  I2_29  900
 UP BND  I2_30  900
 UP BND  I2_31  900
 UP BND  I2_32  900
 UP BND  I2_33  900
 UP BND  I2_34  900
 UP BND  I2_35  900
 UP BND  I3_0  900
 UP BND  I3_1  900
 UP BND  I3_2  900
 UP BND  I3_3  900
 UP BND  I3_4  900
 UP BND  I3_5  900
 UP BND  I3_6  900
 UP BND  I3_7  900
 UP BND  I3_8  900
 UP BND  I3_9  900
 UP BND  I3_10  900
 UP BND  I3_11  900
 UP BND  I3_12  900
 UP BND  I3_13  900
 UP BND  I3_14  900
 UP BND  I3_15  900
 UP BND  I3_16  900
 UP BND  I3_17  900
 UP BND  I3_18  900
 UP BND  I3_19  900
 UP BND  I3_20  900
 UP BND  I3_21  900
 UP BND  I3_22  900
 UP BND  I3_23  900
 UP BND  I3_24  900
 UP BND  I3_25  900
 UP BND  I3_26  900
 UP BND  I3_27  900
 UP BND  I3_28  900
 UP BND  I3_29  900
 UP BND  I3_30  900
 UP BND  I3_31  900
 UP BND  I3_32  900
 UP BND  I3_33  900
 UP BND  I3_34  900
 UP BND  I3_35  900
 UP BND  I4_0  900
 UP BND  I4_1  900
 UP BND  I4_2  900
 UP BND  I4_3  900
 UP BND  I4_4  900
 UP BND  I4_5  900
 UP BND  I4_6  900
 UP BND  I4_7  900
 UP BND  I4_8  900
 UP BND  I4_9  900
 UP BND  I4_10  900
 UP BND  I4_11  900
 UP BND  I4_12  900
 UP BND  I4_13  900
 UP BND  I4_14  900
 UP BND  I4_15  900
 UP BND  I4_16  900
 UP BND  I4_17  900
 UP BND  I4_18  900
 UP BND  I4_19  900
 UP BND  I4_20  900
 UP BND  I4_21  900
 UP BND  I4_22  900
 UP BND  I4_23  900
 UP BND  I4_24  900
 UP BND  I4_25  900
 UP BND  I4_26  900
 UP BND  I4_27  900
 UP BND  I4_28  900
 UP BND  I4_29  900
 UP BND  I4_30  900
 UP BND  I4_31  900
 UP BND  I4_32  900
 UP BND  I4_33  900
 UP BND  I4_34  900
 UP BND  I4_35  900
 UP BND  I5_0  900
 UP BND  I5_1  900
 UP BND  I5_2  900
 UP BND  I5_3  900
 UP BND  I5_4  900
 UP BND  I5_5  900
 UP BND  I5_6  900
 UP BND  I5_7  900
 UP BND  I5_8  900
 UP BND  I5_9  900
 UP BND  I5_10  900
 UP BND  I5_11  900
 UP BND  I5_12  900
 UP BND  I5_13  900
 UP BND  I5_14  900
 UP BND  I5_15  900
 UP BND  I5_16  900
 UP BND  I5_17  900
 UP BND  I5_18  900
 UP BND  I5_19  900
 UP BND  I5_20  900
 UP BND  I5_21  900
 UP BND  I5_22  900
 UP BND  I5_23  900
 UP BND  I5_24  900
 UP BND  I5_25  900
 UP BND  I5_26  900
 UP BND  I5_27  900
 UP BND  I5_28  900
 UP BND  I5_29  900
 UP BND  I5_30  900
 UP BND  I5_31  900
 UP BND  I5_32  900
 UP BND  I5_33  900
 UP BND  I5_34  900
 UP BND  I5_35  900
 UP BND  I6_0  900
 UP BND  I6_1  900
 UP BND  I6_2  900
 UP BND  I6_3  900
 UP BND  I6_4  900
 UP BND  I6_5  900
 UP BND  I6_6  900
 UP BND  I6_7  900
 UP BND  I6_8  900
 UP BND  I6_9  900
 UP BND  I6_10  900
 UP BND  I6_11  900
 UP BND  I6_12  900
 UP BND  I6_13  900
 UP BND  I6_14  900
 UP BND  I6_15  900
 UP BND  I6_16  900
 UP BND  I6_17  900
 UP BND  I6_18  900
 UP BND  I6_19  900
 UP BND  I6_20  900
 UP BND  I6_21  900
 UP BND  I6_22  900
 UP BND  I6_23  900
 UP BND  I6_24  900
 UP BND  I6_25  900
 UP BND  I6_26  900
 UP BND  I6_27  900
 UP BND  I6_28  900
 UP BND  I6_29  900
 UP BND  I6_30  900
 UP BND  I6_31  900
 UP BND  I6_32  900
 UP BND  I6_33  900
 UP BND  I6_34  900
 UP BND  I6_35  900
 UP BND  I7_0  900
 UP BND  I7_1  900
 UP BND  I7_2  900
 UP BND  I7_3  900
 UP BND  I7_4  900
 UP BND  I7_5  900
 UP BND  I7_6  900
 UP BND  I7_7  900
 UP BND  I7_8  900
 UP BND  I7_9  900
 UP BND  I7_10  900
 UP BND  I7_11  900
 UP BND  I7_12  900
 UP BND  I7_13  900
 UP BND  I7_14  900
 UP BND  I7_15  900
 UP BND  I7_16  900
 UP BND  I7_17  900
 UP BND  I7_18  900
 UP BND  I7_19  900
 UP BND  I7_20  900
 UP BND  I7_21  900
 UP BND  I7_22  900
 UP BND  I7_23  900
 UP BND  I7_24  900
 UP BND  I7_25  900
 UP BND  I7_26  900
 UP BND  I7_27  900
 UP BND  I7_28  900
 UP BND  I7_29  900
 UP BND  I7_30  900
 UP BND  I7_31  900
 UP BND  I7_32  900
 UP BND  I7_33  900
 UP BND  I7_34  900
 UP BND  I7_35  900
 UP BND  I8_0  900
 UP BND  I8_1  900
 UP BND  I8_2  900
 UP BND  I8_3  900
 UP BND  I8_4  900
 UP BND  I8_5  900
 UP BND  I8_6  900
 UP BND  I8_7  900
 UP BND  I8_8  900
 UP BND  I8_9  900
 UP BND  I8_10  900
 UP BND  I8_11  900
 UP BND  I8_12  900
 UP BND  I8_13  900
 UP BND  I8_14  900
 UP BND  I8_15  900
 UP BND  I8_16  900
 UP BND  I8_17  900
 UP BND  I8_18  900
 UP BND  I8_19  900
 UP BND  I8_20  900
 UP BND  I8_21  900
 UP BND  I8_22  900
 UP BND  I8_23  900
 UP BND  I8_24  900
 UP BND  I8_25  900
 UP BND  I8_26  900
 UP BND  I8_27  900
 UP BND  I8_28  900
 UP BND  I8_29  900
 UP BND  I8_30  900
 UP BND  I8_31  900
 UP BND  I8_32  900
 UP BND  I8_33  900
 UP BND  I8_34  900
 UP BND  I8_35  900
 UP BND  I9_0  900
 UP BND  I9_1  900
 UP BND  I9_2  900
 UP BND  I9_3  900
 UP BND  I9_4  900
 UP BND  I9_5  900
 UP BND  I9_6  900
 UP BND  I9_7  900
 UP BND  I9_8  900
 UP BND  I9_9  900
 UP BND  I9_10  900
 UP BND  I9_11  900
 UP BND  I9_12  900
 UP BND  I9_13  900
 UP BND  I9_14  900
 UP BND  I9_15  900
 UP BND  I9_16  900
 UP BND  I9_17  900
 UP BND  I9_18  900
 UP BND  I9_19  900
 UP BND  I9_20  900
 UP BND  I9_21  900
 UP BND  I9_22  900
 UP BND  I9_23  900
 UP BND  I9_24  900
 UP BND  I9_25  900
 UP BND  I9_26  900
 UP BND  I9_27  900
 UP BND  I9_28  900
 UP BND  I9_29  900
 UP BND  I9_30  900
 UP BND  I9_31  900
 UP BND  I9_32  900
 UP BND  I9_33  900
 UP BND  I9_34  900
 UP BND  I9_35  900
 UP BND  I10_0  900
 UP BND  I10_1  900
 UP BND  I10_2  900
 UP BND  I10_3  900
 UP BND  I10_4  900
 UP BND  I10_5  900
 UP BND  I10_6  900
 UP BND  I10_7  900
 UP BND  I10_8  900
 UP BND  I10_9  900
 UP BND  I10_10  900
 UP BND  I10_11  900
 UP BND  I10_12  900
 UP BND  I10_13  900
 UP BND  I10_14  900
 UP BND  I10_15  900
 UP BND  I10_16  900
 UP BND  I10_17  900
 UP BND  I10_18  900
 UP BND  I10_19  900
 UP BND  I10_20  900
 UP BND  I10_21  900
 UP BND  I10_22  900
 UP BND  I10_23  900
 UP BND  I10_24  900
 UP BND  I10_25  900
 UP BND  I10_26  900
 UP BND  I10_27  900
 UP BND  I10_28  900
 UP BND  I10_29  900
 UP BND  I10_30  900
 UP BND  I10_31  900
 UP BND  I10_32  900
 UP BND  I10_33  900
 UP BND  I10_34  900
 UP BND  I10_35  900
 UP BND  I11_0  900
 UP BND  I11_1  900
 UP BND  I11_2  900
 UP BND  I11_3  900
 UP BND  I11_4  900
 UP BND  I11_5  900
 UP BND  I11_6  900
 UP BND  I11_7  900
 UP BND  I11_8  900
 UP BND  I11_9  900
 UP BND  I11_10  900
 UP BND  I11_11  900
 UP BND  I11_12  900
 UP BND  I11_13  900
 UP BND  I11_14  900
 UP BND  I11_15  900
 UP BND  I11_16  900
 UP BND  I11_17  900
 UP BND  I11_18  900
 UP BND  I11_19  900
 UP BND  I11_20  900
 UP BND  I11_21  900
 UP BND  I11_22  900
 UP BND  I11_23  900
 UP BND  I11_24  900
 UP BND  I11_25  900
 UP BND  I11_26  900
 UP BND  I11_27  900
 UP BND  I11_28  900
 UP BND  I11_29  900
 UP BND  I11_30  900
 UP BND  I11_31  900
 UP BND  I11_32  900
 UP BND  I11_33  900
 UP BND  I11_34  900
 UP BND  I11_35  900
 UP BND  I12_0  900
 UP BND  I12_1  900
 UP BND  I12_2  900
 UP BND  I12_3  900
 UP BND  I12_4  900
 UP BND  I12_5  900
 UP BND  I12_6  900
 UP BND  I12_7  900
 UP BND  I12_8  900
 UP BND  I12_9  900
 UP BND  I12_10  900
 UP BND  I12_11  900
 UP BND  I12_12  900
 UP BND  I12_13  900
 UP BND  I12_14  900
 UP BND  I12_15  900
 UP BND  I12_16  900
 UP BND  I12_17  900
 UP BND  I12_18  900
 UP BND  I12_19  900
 UP BND  I12_20  900
 UP BND  I12_21  900
 UP BND  I12_22  900
 UP BND  I12_23  900
 UP BND  I12_24  900
 UP BND  I12_25  900
 UP BND  I12_26  900
 UP BND  I12_27  900
 UP BND  I12_28  900
 UP BND  I12_29  900
 UP BND  I12_30  900
 UP BND  I12_31  900
 UP BND  I12_32  900
 UP BND  I12_33  900
 UP BND  I12_34  900
 UP BND  I12_35  900
 UP BND  I13_0  900
 UP BND  I13_1  900
 UP BND  I13_2  900
 UP BND  I13_3  900
 UP BND  I13_4  900
 UP BND  I13_5  900
 UP BND  I13_6  900
 UP BND  I13_7  900
 UP BND  I13_8  900
 UP BND  I13_9  900
 UP BND  I13_10  900
 UP BND  I13_11  900
 UP BND  I13_12  900
 UP BND  I13_13  900
 UP BND  I13_14  900
 UP BND  I13_15  900
 UP BND  I13_16  900
 UP BND  I13_17  900
 UP BND  I13_18  900
 UP BND  I13_19  900
 UP BND  I13_20  900
 UP BND  I13_21  900
 UP BND  I13_22  900
 UP BND  I13_23  900
 UP BND  I13_24  900
 UP BND  I13_25  900
 UP BND  I13_26  900
 UP BND  I13_27  900
 UP BND  I13_28  900
 UP BND  I13_29  900
 UP BND  I13_30  900
 UP BND  I13_31  900
 UP BND  I13_32  900
 UP BND  I13_33  900
 UP BND  I13_34  900
 UP BND  I13_35  900
 UP BND  I14_0  900
 UP BND  I14_1  900
 UP BND  I14_2  900
 UP BND  I14_3  900
 UP BND  I14_4  900
 UP BND  I14_5  900
 UP BND  I14_6  900
 UP BND  I14_7  900
 UP BND  I14_8  900
 UP BND  I14_9  900
 UP BND  I14_10  900
 UP BND  I14_11  900
 UP BND  I14_12  900
 UP BND  I14_13  900
 UP BND  I14_14  900
 UP BND  I14_15  900
 UP BND  I14_16  900
 UP BND  I14_17  900
 UP BND  I14_18  900
 UP BND  I14_19  900
 UP BND  I14_20  900
 UP BND  I14_21  900
 UP BND  I14_22  900
 UP BND  I14_23  900
 UP BND  I14_24  900
 UP BND  I14_25  900
 UP BND  I14_26  900
 UP BND  I14_27  900
 UP BND  I14_28  900
 UP BND  I14_29  900
 UP BND  I14_30  900
 UP BND  I14_31  900
 UP BND  I14_32  900
 UP BND  I14_33  900
 UP BND  I14_34  900
 UP BND  I14_35  900
 UP BND  I15_0  900
 UP BND  I15_1  900
 UP BND  I15_2  900
 UP BND  I15_3  900
 UP BND  I15_4  900
 UP BND  I15_5  900
 UP BND  I15_6  900
 UP BND  I15_7  900
 UP BND  I15_8  900
 UP BND  I15_9  900
 UP BND  I15_10  900
 UP BND  I15_11  900
 UP BND  I15_12  900
 UP BND  I15_13  900
 UP BND  I15_14  900
 UP BND  I15_15  900
 UP BND  I15_16  900
 UP BND  I15_17  900
 UP BND  I15_18  900
 UP BND  I15_19  900
 UP BND  I15_20  900
 UP BND  I15_21  900
 UP BND  I15_22  900
 UP BND  I15_23  900
 UP BND  I15_24  900
 UP BND  I15_25  900
 UP BND  I15_26  900
 UP BND  I15_27  900
 UP BND  I15_28  900
 UP BND  I15_29  900
 UP BND  I15_30  900
 UP BND  I15_31  900
 UP BND  I15_32  900
 UP BND  I15_33  900
 UP BND  I15_34  900
 UP BND  I15_35  900
 UP BND  I16_0  900
 UP BND  I16_1  900
 UP BND  I16_2  900
 UP BND  I16_3  900
 UP BND  I16_4  900
 UP BND  I16_5  900
 UP BND  I16_6  900
 UP BND  I16_7  900
 UP BND  I16_8  900
 UP BND  I16_9  900
 UP BND  I16_10  900
 UP BND  I16_11  900
 UP BND  I16_12  900
 UP BND  I16_13  900
 UP BND  I16_14  900
 UP BND  I16_15  900
 UP BND  I16_16  900
 UP BND  I16_17  900
 UP BND  I16_18  900
 UP BND  I16_19  900
 UP BND  I16_20  900
 UP BND  I16_21  900
 UP BND  I16_22  900
 UP BND  I16_23  900
 UP BND  I16_24  900
 UP BND  I16_25  900
 UP BND  I16_26  900
 UP BND  I16_27  900
 UP BND  I16_28  900
 UP BND  I16_29  900
 UP BND  I16_30  900
 UP BND  I16_31  900
 UP BND  I16_32  900
 UP BND  I16_33  900
 UP BND  I16_34  900
 UP BND  I16_35  900
 UP BND  I17_0  900
 UP BND  I17_1  900
 UP BND  I17_2  900
 UP BND  I17_3  900
 UP BND  I17_4  900
 UP BND  I17_5  900
 UP BND  I17_6  900
 UP BND  I17_7  900
 UP BND  I17_8  900
 UP BND  I17_9  900
 UP BND  I17_10  900
 UP BND  I17_11  900
 UP BND  I17_12  900
 UP BND  I17_13  900
 UP BND  I17_14  900
 UP BND  I17_15  900
 UP BND  I17_16  900
 UP BND  I17_17  900
 UP BND  I17_18  900
 UP BND  I17_19  900
 UP BND  I17_20  900
 UP BND  I17_21  900
 UP BND  I17_22  900
 UP BND  I17_23  900
 UP BND  I17_24  900
 UP BND  I17_25  900
 UP BND  I17_26  900
 UP BND  I17_27  900
 UP BND  I17_28  900
 UP BND  I17_29  900
 UP BND  I17_30  900
 UP BND  I17_31  900
 UP BND  I17_32  900
 UP BND  I17_33  900
 UP BND  I17_34  900
 UP BND  I17_35  900
 UP BND  I18_0  900
 UP BND  I18_1  900
 UP BND  I18_2  900
 UP BND  I18_3  900
 UP BND  I18_4  900
 UP BND  I18_5  900
 UP BND  I18_6  900
 UP BND  I18_7  900
 UP BND  I18_8  900
 UP BND  I18_9  900
 UP BND  I18_10  900
 UP BND  I18_11  900
 UP BND  I18_12  900
 UP BND  I18_13  900
 UP BND  I18_14  900
 UP BND  I18_15  900
 UP BND  I18_16  900
 UP BND  I18_17  900
 UP BND  I18_18  900
 UP BND  I18_19  900
 UP BND  I18_20  900
 UP BND  I18_21  900
 UP BND  I18_22  900
 UP BND  I18_23  900
 UP BND  I18_24  900
 UP BND  I18_25  900
 UP BND  I18_26  900
 UP BND  I18_27  900
 UP BND  I18_28  900
 UP BND  I18_29  900
 UP BND  I18_30  900
 UP BND  I18_31  900
 UP BND  I18_32  900
 UP BND  I18_33  900
 UP BND  I18_34  900
 UP BND  I18_35  900
 UP BND  I19_0  900
 UP BND  I19_1  900
 UP BND  I19_2  900
 UP BND  I19_3  900
 UP BND  I19_4  900
 UP BND  I19_5  900
 UP BND  I19_6  900
 UP BND  I19_7  900
 UP BND  I19_8  900
 UP BND  I19_9  900
 UP BND  I19_10  900
 UP BND  I19_11  900
 UP BND  I19_12  900
 UP BND  I19_13  900
 UP BND  I19_14  900
 UP BND  I19_15  900
 UP BND  I19_16  900
 UP BND  I19_17  900
 UP BND  I19_18  900
 UP BND  I19_19  900
 UP BND  I19_20  900
 UP BND  I19_21  900
 UP BND  I19_22  900
 UP BND  I19_23  900
 UP BND  I19_24  900
 UP BND  I19_25  900
 UP BND  I19_26  900
 UP BND  I19_27  900
 UP BND  I19_28  900
 UP BND  I19_29  900
 UP BND  I19_30  900
 UP BND  I19_31  900
 UP BND  I19_32  900
 UP BND  I19_33  900
 UP BND  I19_34  900
 UP BND  I19_35  900
 UP BND  I20_0  900
 UP BND  I20_1  900
 UP BND  I20_2  900
 UP BND  I20_3  900
 UP BND  I20_4  900
 UP BND  I20_5  900
 UP BND  I20_6  900
 UP BND  I20_7  900
 UP BND  I20_8  900
 UP BND  I20_9  900
 UP BND  I20_10  900
 UP BND  I20_11  900
 UP BND  I20_12  900
 UP BND  I20_13  900
 UP BND  I20_14  900
 UP BND  I20_15  900
 UP BND  I20_16  900
 UP BND  I20_17  900
 UP BND  I20_18  900
 UP BND  I20_19  900
 UP BND  I20_20  900
 UP BND  I20_21  900
 UP BND  I20_22  900
 UP BND  I20_23  900
 UP BND  I20_24  900
 UP BND  I20_25  900
 UP BND  I20_26  900
 UP BND  I20_27  900
 UP BND  I20_28  900
 UP BND  I20_29  900
 UP BND  I20_30  900
 UP BND  I20_31  900
 UP BND  I20_32  900
 UP BND  I20_33  900
 UP BND  I20_34  900
 UP BND  I20_35  900
 UP BND  I21_0  900
 UP BND  I21_1  900
 UP BND  I21_2  900
 UP BND  I21_3  900
 UP BND  I21_4  900
 UP BND  I21_5  900
 UP BND  I21_6  900
 UP BND  I21_7  900
 UP BND  I21_8  900
 UP BND  I21_9  900
 UP BND  I21_10  900
 UP BND  I21_11  900
 UP BND  I21_12  900
 UP BND  I21_13  900
 UP BND  I21_14  900
 UP BND  I21_15  900
 UP BND  I21_16  900
 UP BND  I21_17  900
 UP BND  I21_18  900
 UP BND  I21_19  900
 UP BND  I21_20  900
 UP BND  I21_21  900
 UP BND  I21_22  900
 UP BND  I21_23  900
 UP BND  I21_24  900
 UP BND  I21_25  900
 UP BND  I21_26  900
 UP BND  I21_27  900
 UP BND  I21_28  900
 UP BND  I21_29  900
 UP BND  I21_30  900
 UP BND  I21_31  900
 UP BND  I21_32  900
 UP BND  I21_33  900
 UP BND  I21_34  900
 UP BND  I21_35  900
 UP BND  I22_0  900
 UP BND  I22_1  900
 UP BND  I22_2  900
 UP BND  I22_3  900
 UP BND  I22_4  900
 UP BND  I22_5  900
 UP BND  I22_6  900
 UP BND  I22_7  900
 UP BND  I22_8  900
 UP BND  I22_9  900
 UP BND  I22_10  900
 UP BND  I22_11  900
 UP BND  I22_12  900
 UP BND  I22_13  900
 UP BND  I22_14  900
 UP BND  I22_15  900
 UP BND  I22_16  900
 UP BND  I22_17  900
 UP BND  I22_18  900
 UP BND  I22_19  900
 UP BND  I22_20  900
 UP BND  I22_21  900
 UP BND  I22_22  900
 UP BND  I22_23  900
 UP BND  I22_24  900
 UP BND  I22_25  900
 UP BND  I22_26  900
 UP BND  I22_27  900
 UP BND  I22_28  900
 UP BND  I22_29  900
 UP BND  I22_30  900
 UP BND  I22_31  900
 UP BND  I22_32  900
 UP BND  I22_33  900
 UP BND  I22_34  900
 UP BND  I22_35  900
 UP BND  I23_0  900
 UP BND  I23_1  900
 UP BND  I23_2  900
 UP BND  I23_3  900
 UP BND  I23_4  900
 UP BND  I23_5  900
 UP BND  I23_6  900
 UP BND  I23_7  900
 UP BND  I23_8  900
 UP BND  I23_9  900
 UP BND  I23_10  900
 UP BND  I23_11  900
 UP BND  I23_12  900
 UP BND  I23_13  900
 UP BND  I23_14  900
 UP BND  I23_15  900
 UP BND  I23_16  900
 UP BND  I23_17  900
 UP BND  I23_18  900
 UP BND  I23_19  900
 UP BND  I23_20  900
 UP BND  I23_21  900
 UP BND  I23_22  900
 UP BND  I23_23  900
 UP BND  I23_24  900
 UP BND  I23_25  900
 UP BND  I23_26  900
 UP BND  I23_27  900
 UP BND  I23_28  900
 UP BND  I23_29  900
 UP BND  I23_30  900
 UP BND  I23_31  900
 UP BND  I23_32  900
 UP BND  I23_33  900
 UP BND  I23_34  900
 UP BND  I23_35  900
 UP BND  I24_0  900
 UP BND  I24_1  900
 UP BND  I24_2  900
 UP BND  I24_3  900
 UP BND  I24_4  900
 UP BND  I24_5  900
 UP BND  I24_6  900
 UP BND  I24_7  900
 UP BND  I24_8  900
 UP BND  I24_9  900
 UP BND  I24_10  900
 UP BND  I24_11  900
 UP BND  I24_12  900
 UP BND  I24_13  900
 UP BND  I24_14  900
 UP BND  I24_15  900
 UP BND  I24_16  900
 UP BND  I24_17  900
 UP BND  I24_18  900
 UP BND  I24_19  900
 UP BND  I24_20  900
 UP BND  I24_21  900
 UP BND  I24_22  900
 UP BND  I24_23  900
 UP BND  I24_24  900
 UP BND  I24_25  900
 UP BND  I24_26  900
 UP BND  I24_27  900
 UP BND  I24_28  900
 UP BND  I24_29  900
 UP BND  I24_30  900
 UP BND  I24_31  900
 UP BND  I24_32  900
 UP BND  I24_33  900
 UP BND  I24_34  900
 UP BND  I24_35  900
 UP BND  I25_0  900
 UP BND  I25_1  900
 UP BND  I25_2  900
 UP BND  I25_3  900
 UP BND  I25_4  900
 UP BND  I25_5  900
 UP BND  I25_6  900
 UP BND  I25_7  900
 UP BND  I25_8  900
 UP BND  I25_9  900
 UP BND  I25_10  900
 UP BND  I25_11  900
 UP BND  I25_12  900
 UP BND  I25_13  900
 UP BND  I25_14  900
 UP BND  I25_15  900
 UP BND  I25_16  900
 UP BND  I25_17  900
 UP BND  I25_18  900
 UP BND  I25_19  900
 UP BND  I25_20  900
 UP BND  I25_21  900
 UP BND  I25_22  900
 UP BND  I25_23  900
 UP BND  I25_24  900
 UP BND  I25_25  900
 UP BND  I25_26  900
 UP BND  I25_27  900
 UP BND  I25_28  900
 UP BND  I25_29  900
 UP BND  I25_30  900
 UP BND  I25_31  900
 UP BND  I25_32  900
 UP BND  I25_33  900
 UP BND  I25_34  900
 UP BND  I25_35  900
 UP BND  I26_0  900
 UP BND  I26_1  900
 UP BND  I26_2  900
 UP BND  I26_3  900
 UP BND  I26_4  900
 UP BND  I26_5  900
 UP BND  I26_6  900
 UP BND  I26_7  900
 UP BND  I26_8  900
 UP BND  I26_9  900
 UP BND  I26_10  900
 UP BND  I26_11  900
 UP BND  I26_12  900
 UP BND  I26_13  900
 UP BND  I26_14  900
 UP BND  I26_15  900
 UP BND  I26_16  900
 UP BND  I26_17  900
 UP BND  I26_18  900
 UP BND  I26_19  900
 UP BND  I26_20  900
 UP BND  I26_21  900
 UP BND  I26_22  900
 UP BND  I26_23  900
 UP BND  I26_24  900
 UP BND  I26_25  900
 UP BND  I26_26  900
 UP BND  I26_27  900
 UP BND  I26_28  900
 UP BND  I26_29  900
 UP BND  I26_30  900
 UP BND  I26_31  900
 UP BND  I26_32  900
 UP BND  I26_33  900
 UP BND  I26_34  900
 UP BND  I26_35  900
 UP BND  I27_0  900
 UP BND  I27_1  900
 UP BND  I27_2  900
 UP BND  I27_3  900
 UP BND  I27_4  900
 UP BND  I27_5  900
 UP BND  I27_6  900
 UP BND  I27_7  900
 UP BND  I27_8  900
 UP BND  I27_9  900
 UP BND  I27_10  900
 UP BND  I27_11  900
 UP BND  I27_12  900
 UP BND  I27_13  900
 UP BND  I27_14  900
 UP BND  I27_15  900
 UP BND  I27_16  900
 UP BND  I27_17  900
 UP BND  I27_18  900
 UP BND  I27_19  900
 UP BND  I27_20  900
 UP BND  I27_21  900
 UP BND  I27_22  900
 UP BND  I27_23  900
 UP BND  I27_24  900
 UP BND  I27_25  900
 UP BND  I27_26  900
 UP BND  I27_27  900
 UP BND  I27_28  900
 UP BND  I27_29  900
 UP BND  I27_30  900
 UP BND  I27_31  900
 UP BND  I27_32  900
 UP BND  I27_33  900
 UP BND  I27_34  900
 UP BND  I27_35  900
 UP BND  I28_0  900
 UP BND  I28_1  900
 UP BND  I28_2  900
 UP BND  I28_3  900
 UP BND  I28_4  900
 UP BND  I28_5  900
 UP BND  I28_6  900
 UP BND  I28_7  900
 UP BND  I28_8  900
 UP BND  I28_9  900
 UP BND  I28_10  900
 UP BND  I28_11  900
 UP BND  I28_12  900
 UP BND  I28_13  900
 UP BND  I28_14  900
 UP BND  I28_15  900
 UP BND  I28_16  900
 UP BND  I28_17  900
 UP BND  I28_18  900
 UP BND  I28_19  900
 UP BND  I28_20  900
 UP BND  I28_21  900
 UP BND  I28_22  900
 UP BND  I28_23  900
 UP BND  I28_24  900
 UP BND  I28_25  900
 UP BND  I28_26  900
 UP BND  I28_27  900
 UP BND  I28_28  900
 UP BND  I28_29  900
 UP BND  I28_30  900
 UP BND  I28_31  900
 UP BND  I28_32  900
 UP BND  I28_33  900
 UP BND  I28_34  900
 UP BND  I28_35  900
 UP BND  I29_0  900
 UP BND  I29_1  900
 UP BND  I29_2  900
 UP BND  I29_3  900
 UP BND  I29_4  900
 UP BND  I29_5  900
 UP BND  I29_6  900
 UP BND  I29_7  900
 UP BND  I29_8  900
 UP BND  I29_9  900
 UP BND  I29_10  900
 UP BND  I29_11  900
 UP BND  I29_12  900
 UP BND  I29_13  900
 UP BND  I29_14  900
 UP BND  I29_15  900
 UP BND  I29_16  900
 UP BND  I29_17  900
 UP BND  I29_18  900
 UP BND  I29_19  900
 UP BND  I29_20  900
 UP BND  I29_21  900
 UP BND  I29_22  900
 UP BND  I29_23  900
 UP BND  I29_24  900
 UP BND  I29_25  900
 UP BND  I29_26  900
 UP BND  I29_27  900
 UP BND  I29_28  900
 UP BND  I29_29  900
 UP BND  I29_30  900
 UP BND  I29_31  900
 UP BND  I29_32  900
 UP BND  I29_33  900
 UP BND  I29_34  900
 UP BND  I29_35  900
ENDATA
