NAME          PROD0
ROWS
 N  COST
 E  BAL0_0
 E  BAL0_1
 E  BAL0_2
 E  BAL0_3
 E  BAL0_4
 E  BAL0_5
 E  BAL0_6
 E  BAL0_7
 E  BAL0_8
 E  BAL0_9
 E  BAL0_10
 E  BAL0_11
 E  BAL0_12
 E  BAL0_13
 E  BAL0_14
 E  BAL0_15
 E  BAL0_16
 E  BAL0_17
 E  BAL0_18
 E  BAL0_19
 E  BAL0_20
 E  BAL0_21
 E  BAL0_22
 E  BAL0_23
 L  DEM0_0
 L  DEM0_1
 L  DEM0_2
 L  DEM0_3
 L  DEM0_4
 L  DEM0_5
 L  DEM0_6
 L  DEM0_7
 L  DEM0_8
 L  DEM0_9
 L  DEM0_10
 L  DEM0_11
 L  DEM0_12
 L  DEM0_13
 L  DEM0_14
 L  DEM0_15
 L  DEM0_16
 L  DEM0_17
 L  DEM0_18
 L  DEM0_19
 L  DEM0_20
 L  DEM0_21
 L  DEM0_22
 L  DEM0_23
 E  BAL1_0
 E  BAL1_1
 E  BAL1_2
 E  BAL1_3
 E  BAL1_4
 E  BAL1_5
 E  BAL1_6
 E  BAL1_7
 E  BAL1_8
 E  BAL1_9
 E  BAL1_10
 E  BAL1_11
 E  BAL1_12
 E  BAL1_13
 E  BAL1_14
 E  BAL1_15
 E  BAL1_16
 E  BAL1_17
 E  BAL1_18
 E  BAL1_19
 E  BAL1_20
 E  BAL1_21
 E  BAL1_22
 E  BAL1_23
 L  DEM1_0
 L  DEM1_1
 L  DEM1_2
 L  DEM1_3
 L  DEM1_4
 L  DEM1_5
 L  DEM1_6
 L  DEM1_7
 L  DEM1_8
 L  DEM1_9
 L  DEM1_10
 L  DEM1_11
 L  DEM1_12
 L  DEM1_13
 L  DEM1_14
 L  DEM1_15
 L  DEM1_16
 L  DEM1_17
 L  DEM1_18
 L  DEM1_19
 L  DEM1_20
 L  DEM1_21
 L  DEM1_22
 L  DEM1_23
 E  BAL2_0
 E  BAL2_1
 E  BAL2_2
 E  BAL2_3
 E  BAL2_4
 E  BAL2_5
 E  BAL2_6
 E  BAL2_7
 E  BAL2_8
 E  BAL2_9
 E  BAL2_10
 E  BAL2_11
 E  BAL2_12
 E  BAL2_13
 E  BAL2_14
 E  BAL2_15
 E  BAL2_16
 E  BAL2_17
 E  BAL2_18
 E  BAL2_19
 E  BAL2_20
 E  BAL2_21
 E  BAL2_22
 E  BAL2_23
 L  DEM2_0
 L  DEM2_1
 L  DEM2_2
 L  DEM2_3
 L  DEM2_4
 L  DEM2_5
 L  DEM2_6
 L  DEM2_7
 L  DEM2_8
 L  DEM2_9
 L  DEM2_10
 L  DEM2_11
 L  DEM2_12
 L  DEM2_13
 L  DEM2_14
 L  DEM2_15
 L  DEM2_16
 L  DEM2_17
 L  DEM2_18
 L  DEM2_19
 L  DEM2_20
 L  DEM2_21
 L  DEM2_22
 L  DEM2_23
 E  BAL3_0
 E  BAL3_1
 E  BAL3_2
 E  BAL3_3
 E  BAL3_4
 E  BAL3_5
 E  BAL3_6
 E  BAL3_7
 E  BAL3_8
 E  BAL3_9
 E  BAL3_10
 E  BAL3_11
 E  BAL3_12
 E  BAL3_13
 E  BAL3_14
 E  BAL3_15
 E  BAL3_16
 E  BAL3_17
 E  BAL3_18
 E  BAL3_19
 E  BAL3_20
 E  BAL3_21
 E  BAL3_22
 E  BAL3_23
 L  DEM3_0
 L  DEM3_1
 L  DEM3_2
 L  DEM3_3
 L  DEM3_4
 L  DEM3_5
 L  DEM3_6
 L  DEM3_7
 L  DEM3_8
 L  DEM3_9
 L  DEM3_10
 L  DEM3_11
 L  DEM3_12
 L  DEM3_13
 L  DEM3_14
 L  DEM3_15
 L  DEM3_16
 L  DEM3_17
 L  DEM3_18
 L  DEM3_19
 L  DEM3_20
 L  DEM3_21
 L  DEM3_22
 L  DEM3_23
 E  BAL4_0
 E  BAL4_1
 E  BAL4_2
 E  BAL4_3
 E  BAL4_4
 E  BAL4_5
 E  BAL4_6
 E  BAL4_7
 E  BAL4_8
 E  BAL4_9
 E  BAL4_10
 E  BAL4_11
 E  BAL4_12
 E  BAL4_13
 E  BAL4_14
 E  BAL4_15
 E  BAL4_16
 E  BAL4_17
 E  BAL4_18
 E  BAL4_19
 E  BAL4_20
 E  BAL4_21
 E  BAL4_22
 E  BAL4_23
 L  DEM4_0
 L  DEM4_1
 L  DEM4_2
 L  DEM4_3
 L  DEM4_4
 L  DEM4_5
 L  DEM4_6
 L  DEM4_7
 L  DEM4_8
 L  DEM4_9
 L  DEM4_10
 L  DEM4_11
 L  DEM4_12
 L  DEM4_13
 L  DEM4_14
 L  DEM4_15
 L  DEM4_16
 L  DEM4_17
 L  DEM4_18
 L  DEM4_19
 L  DEM4_20
 L  DEM4_21
 L  DEM4_22
 L  DEM4_23
 E  BAL5_0
 E  BAL5_1
 E  BAL5_2
 E  BAL5_3
 E  BAL5_4
 E  BAL5_5
 E  BAL5_6
 E  BAL5_7
 E  BAL5_8
 E  BAL5_9
 E  BAL5_10
 E  BAL5_11
 E  BAL5_12
 E  BAL5_13
 E  BAL5_14
 E  BAL5_15
 E  BAL5_16
 E  BAL5_17
 E  BAL5_18
 E  BAL5_19
 E  BAL5_20
 E  BAL5_21
 E  BAL5_22
 E  BAL5_23
 L  DEM5_0
 L  DEM5_1
 L  DEM5_2
 L  DEM5_3
 L  DEM5_4
 L  DEM5_5
 L  DEM5_6
 L  DEM5_7
 L  DEM5_8
 L  DEM5_9
 L  DEM5_10
 L  DEM5_11
 L  DEM5_12
 L  DEM5_13
 L  DEM5_14
 L  DEM5_15
 L  DEM5_16
 L  DEM5_17
 L  DEM5_18
 L  DEM5_19
 L  DEM5_20
 L  DEM5_21
 L  DEM5_22
 L  DEM5_23
 E  BAL6_0
 E  BAL6_1
 E  BAL6_2
 E  BAL6_3
 E  BAL6_4
 E  BAL6_5
 E  BAL6_6
 E  BAL6_7
 E  BAL6_8
 E  BAL6_9
 E  BAL6_10
 E  BAL6_11
 E  BAL6_12
 E  BAL6_13
 E  BAL6_14
 E  BAL6_15
 E  BAL6_16
 E  BAL6_17
 E  BAL6_18
 E  BAL6_19
 E  BAL6_20
 E  BAL6_21
 E  BAL6_22
 E  BAL6_23
 L  DEM6_0
 L  DEM6_1
 L  DEM6_2
 L  DEM6_3
 L  DEM6_4
 L  DEM6_5
 L  DEM6_6
 L  DEM6_7
 L  DEM6_8
 L  DEM6_9
 L  DEM6_10
 L  DEM6_11
 L  DEM6_12
 L  DEM6_13
 L  DEM6_14
 L  DEM6_15
 L  DEM6_16
 L  DEM6_17
 L  DEM6_18
 L  DEM6_19
 L  DEM6_20
 L  DEM6_21
 L  DEM6_22
 L  DEM6_23
 E  BAL7_0
 E  BAL7_1
 E  BAL7_2
 E  BAL7_3
 E  BAL7_4
 E  BAL7_5
 E  BAL7_6
 E  BAL7_7
 E  BAL7_8
 E  BAL7_9
 E  BAL7_10
 E  BAL7_11
 E  BAL7_12
 E  BAL7_13
 E  BAL7_14
 E  BAL7_15
 E  BAL7_16
 E  BAL7_17
 E  BAL7_18
 E  BAL7_19
 E  BAL7_20
 E  BAL7_21
 E  BAL7_22
 E  BAL7_23
 L  DEM7_0
 L  DEM7_1
 L  DEM7_2
 L  DEM7_3
 L  DEM7_4
 L  DEM7_5
 L  DEM7_6
 L  DEM7_7
 L  DEM7_8
 L  DEM7_9
 L  DEM7_10
 L  DEM7_11
 L  DEM7_12
 L  DEM7_13
 L  DEM7_14
 L  DEM7_15
 L  DEM7_16
 L  DEM7_17
 L  DEM7_18
 L  DEM7_19
 L  DEM7_20
 L  DEM7_21
 L  DEM7_22
 L  DEM7_23
 E  BAL8_0
 E  BAL8_1
 E  BAL8_2
 E  BAL8_3
 E  BAL8_4
 E  BAL8_5
 E  BAL8_6
 E  BAL8_7
 E  BAL8_8
 E  BAL8_9
 E  BAL8_10
 E  BAL8_11
 E  BAL8_12
 E  BAL8_13
 E  BAL8_14
 E  BAL8_15
 E  BAL8_16
 E  BAL8_17
 E  BAL8_18
 E  BAL8_19
 E  BAL8_20
 E  BAL8_21
 E  BAL8_22
 E  BAL8_23
 L  DEM8_0
 L  DEM8_1
 L  DEM8_2
 L  DEM8_3
 L  DEM8_4
 L  DEM8_5
 L  DEM8_6
 L  DEM8_7
 L  DEM8_8
 L  DEM8_9
 L  DEM8_10
 L  DEM8_11
 L  DEM8_12
 L  DEM8_13
 L  DEM8_14
 L  DEM8_15
 L  DEM8_16
 L  DEM8_17
 L  DEM8_18
 L  DEM8_19
 L  DEM8_20
 L  DEM8_21
 L  DEM8_22
 L  DEM8_23
 E  BAL9_0
 E  BAL9_1
 E  BAL9_2
 E  BAL9_3
 E  BAL9_4
 E  BAL9_5
 E  BAL9_6
 E  BAL9_7
 E  BAL9_8
 E  BAL9_9
 E  BAL9_10
 E  BAL9_11
 E  BAL9_12
 E  BAL9_13
 E  BAL9_14
 E  BAL9_15
 E  BAL9_16
 E  BAL9_17
 E  BAL9_18
 E  BAL9_19
 E  BAL9_20
 E  BAL9_21
 E  BAL9_22
 E  BAL9_23
 L  DEM9_0
 L  DEM9_1
 L  DEM9_2
 L  DEM9_3
 L  DEM9_4
 L  DEM9_5
 L  DEM9_6
 L  DEM9_7
 L  DEM9_8
 L  DEM9_9
 L  DEM9_10
 L  DEM9_11
 L  DEM9_12
 L  DEM9_13
 L  DEM9_14
 L  DEM9_15
 L  DEM9_16
 L  DEM9_17
 L  DEM9_18
 L  DEM9_19
 L  DEM9_20
 L  DEM9_21
 L  DEM9_22
 L  DEM9_23
 E  BAL10_0
 E  BAL10_1
 E  BAL10_2
 E  BAL10_3
 E  BAL10_4
 E  BAL10_5
 E  BAL10_6
 E  BAL10_7
 E  BAL10_8
 E  BAL10_9
 E  BAL10_10
 E  BAL10_11
 E  BAL10_12
 E  BAL10_13
 E  BAL10_14
 E  BAL10_15
 E  BAL10_16
 E  BAL10_17
 E  BAL10_18
 E  BAL10_19
 E  BAL10_20
 E  BAL10_21
 E  BAL10_22
 E  BAL10_23
 L  DEM10_0
 L  DEM10_1
 L  DEM10_2
 L  DEM10_3
 L  DEM10_4
 L  DEM10_5
 L  DEM10_6
 L  DEM10_7
 L  DEM10_8
 L  DEM10_9
 L  DEM10_10
 L  DEM10_11
 L  DEM10_12
 L  DEM10_13
 L  DEM10_14
 L  DEM10_15
 L  DEM10_16
 L  DEM10_17
 L  DEM10_18
 L  DEM10_19
 L  DEM10_20
 L  DEM10_21
 L  DEM10_22
 L  DEM10_23
 E  BAL11_0
 E  BAL11_1
 E  BAL11_2
 E  BAL11_3
 E  BAL11_4
 E  BAL11_5
 E  BAL11_6
 E  BAL11_7
 E  BAL11_8
 E  BAL11_9
 E  BAL11_10
 E  BAL11_11
 E  BAL11_12
 E  BAL11_13
 E  BAL11_14
 E  BAL11_15
 E  BAL11_16
 E  BAL11_17
 E  BAL11_18
 E  BAL11_19
 E  BAL11_20
 E  BAL11_21
 E  BAL11_22
 E  BAL11_23
 L  DEM11_0
 L  DEM11_1
 L  DEM11_2
 L  DEM11_3
 L  DEM11_4
 L  DEM11_5
 L  DEM11_6
 L  DEM11_7
 L  DEM11_8
 L  DEM11_9
 L  DEM11_10
 L  DEM11_11
 L  DEM11_12
 L  DEM11_13
 L  DEM11_14
 L  DEM11_15
 L  DEM11_16
 L  DEM11_17
 L  DEM11_18
 L  DEM11_19
 L  DEM11_20
 L  DEM11_21
 L  DEM11_22
 L  DEM11_23
 E  BAL12_0
 E  BAL12_1
 E  BAL12_2
 E  BAL12_3
 E  BAL12_4
 E  BAL12_5
 E  BAL12_6
 E  BAL12_7
 E  BAL12_8
 E  BAL12_9
 E  BAL12_10
 E  BAL12_11
 E  BAL12_12
 E  BAL12_13
 E  BAL12_14
 E  BAL12_15
 E  BAL12_16
 E  BAL12_17
 E  BAL12_18
 E  BAL12_19
 E  BAL12_20
 E  BAL12_21
 E  BAL12_22
 E  BAL12_23
 L  DEM12_0
 L  DEM12_1
 L  DEM12_2
 L  DEM12_3
 L  DEM12_4
 L  DEM12_5
 L  DEM12_6
 L  DEM12_7
 L  DEM12_8
 L  DEM12_9
 L  DEM12_10
 L  DEM12_11
 L  DEM12_12
 L  DEM12_13
 L  DEM12_14
 L  DEM12_15
 L  DEM12_16
 L  DEM12_17
 L  DEM12_18
 L  DEM12_19
 L  DEM12_20
 L  DEM12_21
 L  DEM12_22
 L  DEM12_23
 E  BAL13_0
 E  BAL13_1
 E  BAL13_2
 E  BAL13_3
 E  BAL13_4
 E  BAL13_5
 E  BAL13_6
 E  BAL13_7
 E  BAL13_8
 E  BAL13_9
 E  BAL13_10
 E  BAL13_11
 E  BAL13_12
 E  BAL13_13
 E  BAL13_14
 E  BAL13_15
 E  BAL13_16
 E  BAL13_17
 E  BAL13_18
 E  BAL13_19
 E  BAL13_20
 E  BAL13_21
 E  BAL13_22
 E  BAL13_23
 L  DEM13_0
 L  DEM13_1
 L  DEM13_2
 L  DEM13_3
 L  DEM13_4
 L  DEM13_5
 L  DEM13_6
 L  DEM13_7
 L  DEM13_8
 L  DEM13_9
 L  DEM13_10
 L  DEM13_11
 L  DEM13_12
 L  DEM13_13
 L  DEM13_14
 L  DEM13_15
 L  DEM13_16
 L  DEM13_17
 L  DEM13_18
 L  DEM13_19
 L  DEM13_20
 L  DEM13_21
 L  DEM13_22
 L  DEM13_23
 E  BAL14_0
 E  BAL14_1
 E  BAL14_2
 E  BAL14_3
 E  BAL14_4
 E  BAL14_5
 E  BAL14_6
 E  BAL14_7
 E  BAL14_8
 E  BAL14_9
 E  BAL14_10
 E  BAL14_11
 E  BAL14_12
 E  BAL14_13
 E  BAL14_14
 E  BAL14_15
 E  BAL14_16
 E  BAL14_17
 E  BAL14_18
 E  BAL14_19
 E  BAL14_20
 E  BAL14_21
 E  BAL14_22
 E  BAL14_23
 L  DEM14_0
 L  DEM14_1
 L  DEM14_2
 L  DEM14_3
 L  DEM14_4
 L  DEM14_5
 L  DEM14_6
 L  DEM14_7
 L  DEM14_8
 L  DEM14_9
 L  DEM14_10
 L  DEM14_11
 L  DEM14_12
 L  DEM14_13
 L  DEM14_14
 L  DEM14_15
 L  DEM14_16
 L  DEM14_17
 L  DEM14_18
 L  DEM14_19
 L  DEM14_20
 L  DEM14_21
 L  DEM14_22
 L  DEM14_23
 E  BAL15_0
 E  BAL15_1
 E  BAL15_2
 E  BAL15_3
 E  BAL15_4
 E  BAL15_5
 E  BAL15_6
 E  BAL15_7
 E  BAL15_8
 E  BAL15_9
 E  BAL15_10
 E  BAL15_11
 E  BAL15_12
 E  BAL15_13
 E  BAL15_14
 E  BAL15_15
 E  BAL15_16
 E  BAL15_17
 E  BAL15_18
 E  BAL15_19
 E  BAL15_20
 E  BAL15_21
 E  BAL15_22
 E  BAL15_23
 L  DEM15_0
 L  DEM15_1
 L  DEM15_2
 L  DEM15_3
 L  DEM15_4
 L  DEM15_5
 L  DEM15_6
 L  DEM15_7
 L  DEM15_8
 L  DEM15_9
 L  DEM15_10
 L  DEM15_11
 L  DEM15_12
 L  DEM15_13
 L  DEM15_14
 L  DEM15_15
 L  DEM15_16
 L  DEM15_17
 L  DEM15_18
 L  DEM15_19
 L  DEM15_20
 L  DEM15_21
 L  DEM15_22
 L  DEM15_23
 E  BAL16_0
 E  BAL16_1
 E  BAL16_2
 E  BAL16_3
 E  BAL16_4
 E  BAL16_5
 E  BAL16_6
 E  BAL16_7
 E  BAL16_8
 E  BAL16_9
 E  BAL16_10
 E  BAL16_11
 E  BAL16_12
 E  BAL16_13
 E  BAL16_14
 E  BAL16_15
 E  BAL16_16
 E  BAL16_17
 E  BAL16_18
 E  BAL16_19
 E  BAL16_20
 E  BAL16_21
 E  BAL16_22
 E  BAL16_23
 L  DEM16_0
 L  DEM16_1
 L  DEM16_2
 L  DEM16_3
 L  DEM16_4
 L  DEM16_5
 L  DEM16_6
 L  DEM16_7
 L  DEM16_8
 L  DEM16_9
 L  DEM16_10
 L  DEM16_11
 L  DEM16_12
 L  DEM16_13
 L  DEM16_14
 L  DEM16_15
 L  DEM16_16
 L  DEM16_17
 L  DEM16_18
 L  DEM16_19
 L  DEM16_20
 L  DEM16_21
 L  DEM16_22
 L  DEM16_23
 E  BAL17_0
 E  BAL17_1
 E  BAL17_2
 E  BAL17_3
 E  BAL17_4
 E  BAL17_5
 E  BAL17_6
 E  BAL17_7
 E  BAL17_8
 E  BAL17_9
 E  BAL17_10
 E  BAL17_11
 E  BAL17_12
 E  BAL17_13
 E  BAL17_14
 E  BAL17_15
 E  BAL17_16
 E  BAL17_17
 E  BAL17_18
 E  BAL17_19
 E  BAL17_20
 E  BAL17_21
 E  BAL17_22
 E  BAL17_23
 L  DEM17_0
 L  DEM17_1
 L  DEM17_2
 L  DEM17_3
 L  DEM17_4
 L  DEM17_5
 L  DEM17_6
 L  DEM17_7
 L  DEM17_8
 L  DEM17_9
 L  DEM17_10
 L  DEM17_11
 L  DEM17_12
 L  DEM17_13
 L  DEM17_14
 L  DEM17_15
 L  DEM17_16
 L  DEM17_17
 L  DEM17_18
 L  DEM17_19
 L  DEM17_20
 L  DEM17_21
 L  DEM17_22
 L  DEM17_23
 L  CAP0
 L  CAP1
 L  CAP2
 L  CAP3
 L  CAP4
 L  CAP5
 L  CAP6
 L  CAP7
 L  CAP8
 L  CAP9
 L  CAP10
 L  CAP11
 L  CAP12
 L  CAP13
 L  CAP14
 L  CAP15
 L  CAP16
 L  CAP17
 L  CAP18
 L  CAP19
 L  CAP20
 L  CAP21
 L  CAP22
 L  CAP23
COLUMNS
    R0_0  COST  11.300312384
    R0_0  BAL1_0  0.833182390669
    R0_0  BAL4_0  0.52442555598
    R0_0  BAL5_0  0.807088976903
    R0_0  BAL6_0  0.400018537057
    R0_0  BAL8_0  0.498440125353
    R0_0  BAL10_0  0.503716429788
    R0_0  BAL12_0  0.595619363737
    R0_0  BAL13_0  0.572915379061
    R0_0  BAL14_0  0.370785633277
    R0_0  BAL15_0  0.849889750458
    R0_0  CAP0  1
    R0_1  COST  11.300312384
    R0_1  BAL1_1  0.833182390669
    R0_1  BAL4_1  0.52442555598
    R0_1  BAL5_1  0.807088976903
    R0_1  BAL6_1  0.400018537057
    R0_1  BAL8_1  0.498440125353
    R0_1  BAL10_1  0.503716429788
    R0_1  BAL12_1  0.595619363737
    R0_1  BAL13_1  0.572915379061
    R0_1  BAL14_1  0.370785633277
    R0_1  BAL15_1  0.849889750458
    R0_1  CAP1  1
    R0_2  COST  11.300312384
    R0_2  BAL1_2  0.833182390669
    R0_2  BAL4_2  0.52442555598
    R0_2  BAL5_2  0.807088976903
    R0_2  BAL6_2  0.400018537057
    R0_2  BAL8_2  0.498440125353
    R0_2  BAL10_2  0.503716429788
    R0_2  BAL12_2  0.595619363737
    R0_2  BAL13_2  0.572915379061
    R0_2  BAL14_2  0.370785633277
    R0_2  BAL15_2  0.849889750458
    R0_2  CAP2  1
    R0_3  COST  11.300312384
    R0_3  BAL1_3  0.833182390669
    R0_3  BAL4_3  0.52442555598
    R0_3  BAL5_3  0.807088976903
    R0_3  BAL6_3  0.400018537057
    R0_3  BAL8_3  0.498440125353
    R0_3  BAL10_3  0.503716429788
    R0_3  BAL12_3  0.595619363737
    R0_3  BAL13_3  0.572915379061
    R0_3  BAL14_3  0.370785633277
    R0_3  BAL15_3  0.849889750458
    R0_3  CAP3  1
    R0_4  COST  11.300312384
    R0_4  BAL1_4  0.833182390669
    R0_4  BAL4_4  0.52442555598
    R0_4  BAL5_4  0.807088976903
    R0_4  BAL6_4  0.400018537057
    R0_4  BAL8_4  0.498440125353
    R0_4  BAL10_4  0.503716429788
    R0_4  BAL12_4  0.595619363737
    R0_4  BAL13_4  0.572915379061
    R0_4  BAL14_4  0.370785633277
    R0_4  BAL15_4  0.849889750458
    R0_4  CAP4  1
    R0_5  COST  11.300312384
    R0_5  BAL1_5  0.833182390669
    R0_5  BAL4_5  0.52442555598
    R0_5  BAL5_5  0.807088976903
    R0_5  BAL6_5  0.400018537057
    R0_5  BAL8_5  0.498440125353
    R0_5  BAL10_5  0.503716429788
    R0_5  BAL12_5  0.595619363737
    R0_5  BAL13_5  0.572915379061
    R0_5  BAL14_5  0.370785633277
    R0_5  BAL15_5  0.849889750458
    R0_5  CAP5  1
    R0_6  COST  11.300312384
    R0_6  BAL1_6  0.833182390669
    R0_6  BAL4_6  0.52442555598
    R0_6  BAL5_6  0.807088976903
    R0_6  BAL6_6  0.400018537057
    R0_6  BAL8_6  0.498440125353
    R0_6  BAL10_6  0.503716429788
    R0_6  BAL12_6  0.595619363737
    R0_6  BAL13_6  0.572915379061
    R0_6  BAL14_6  0.370785633277
    R0_6  BAL15_6  0.849889750458
    R0_6  CAP6  1
    R0_7  COST  11.300312384
    R0_7  BAL1_7  0.833182390669
    R0_7  BAL4_7  0.52442555598
    R0_7  BAL5_7  0.807088976903
    R0_7  BAL6_7  0.400018537057
    R0_7  BAL8_7  0.498440125353
    R0_7  BAL10_7  0.503716429788
    R0_7  BAL12_7  0.595619363737
    R0_7  BAL13_7  0.572915379061
    R0_7  BAL14_7  0.370785633277
    R0_7  BAL15_7  0.849889750458
    R0_7  CAP7  1
    R0_8  COST  11.300312384
    R0_8  BAL1_8  0.833182390669
    R0_8  BAL4_8  0.52442555598
    R0_8  BAL5_8  0.807088976903
    R0_8  BAL6_8  0.400018537057
    R0_8  BAL8_8  0.498440125353
    R0_8  BAL10_8  0.503716429788
    R0_8  BAL12_8  0.595619363737
    R0_8  BAL13_8  0.572915379061
    R0_8  BAL14_8  0.370785633277
    R0_8  BAL15_8  0.849889750458
    R0_8  CAP8  1
    R0_9  COST  11.300312384
    R0_9  BAL1_9  0.833182390669
    R0_9  BAL4_9  0.52442555598
    R0_9  BAL5_9  0.807088976903
    R0_9  BAL6_9  0.400018537057
    R0_9  BAL8_9  0.498440125353
    R0_9  BAL10_9  0.503716429788
    R0_9  BAL12_9  0.595619363737
    R0_9  BAL13_9  0.572915379061
    R0_9  BAL14_9  0.370785633277
    R0_9  BAL15_9  0.849889750458
    R0_9  CAP9  1
    R0_10  COST  11.300312384
    R0_10  BAL1_10  0.833182390669
    R0_10  BAL4_10  0.52442555598
    R0_10  BAL5_10  0.807088976903
    R0_10  BAL6_10  0.400018537057
    R0_10  BAL8_10  0.498440125353
    R0_10  BAL10_10  0.503716429788
    R0_10  BAL12_10  0.595619363737
    R0_10  BAL13_10  0.572915379061
    R0_10  BAL14_10  0.370785633277
    R0_10  BAL15_10  0.849889750458
    R0_10  CAP10  1
    R0_11  COST  11.300312384
    R0_11  BAL1_11  0.833182390669
    R0_11  BAL4_11  0.52442555598
    R0_11  BAL5_11  0.807088976903
    R0_11  BAL6_11  0.400018537057
    R0_11  BAL8_11  0.498440125353
    R0_11  BAL10_11  0.503716429788
    R0_11  BAL12_11  0.595619363737
    R0_11  BAL13_11  0.572915379061
    R0_11  BAL14_11  0.370785633277
    R0_11  BAL15_11  0.849889750458
    R0_11  CAP11  1
    R0_12  COST  11.300312384
    R0_12  BAL1_12  0.833182390669
    R0_12  BAL4_12  0.52442555598
    R0_12  BAL5_12  0.807088976903
    R0_12  BAL6_12  0.400018537057
    R0_12  BAL8_12  0.498440125353
    R0_12  BAL10_12  0.503716429788
    R0_12  BAL12_12  0.595619363737
    R0_12  BAL13_12  0.572915379061
    R0_12  BAL14_12  0.370785633277
    R0_12  BAL15_12  0.849889750458
    R0_12  CAP12  1
    R0_13  COST  11.300312384
    R0_13  BAL1_13  0.833182390669
    R0_13  BAL4_13  0.52442555598
    R0_13  BAL5_13  0.807088976903
    R0_13  BAL6_13  0.400018537057
    R0_13  BAL8_13  0.498440125353
    R0_13  BAL10_13  0.503716429788
    R0_13  BAL12_13  0.595619363737
    R0_13  BAL13_13  0.572915379061
    R0_13  BAL14_13  0.370785633277
    R0_13  BAL15_13  0.849889750458
    R0_13  CAP13  1
    R0_14  COST  11.300312384
    R0_14  BAL1_14  0.833182390669
    R0_14  BAL4_14  0.52442555598
    R0_14  BAL5_14  0.807088976903
    R0_14  BAL6_14  0.400018537057
    R0_14  BAL8_14  0.498440125353
    R0_14  BAL10_14  0.503716429788
    R0_14  BAL12_14  0.595619363737
    R0_14  BAL13_14  0.572915379061
    R0_14  BAL14_14  0.370785633277
    R0_14  BAL15_14  0.849889750458
    R0_14  CAP14  1
    R0_15  COST  11.300312384
    R0_15  BAL1_15  0.833182390669
    R0_15  BAL4_15  0.52442555598
    R0_15  BAL5_15  0.807088976903
    R0_15  BAL6_15  0.400018537057
    R0_15  BAL8_15  0.498440125353
    R0_15  BAL10_15  0.503716429788
    R0_15  BAL12_15  0.595619363737
    R0_15  BAL13_15  0.572915379061
    R0_15  BAL14_15  0.370785633277
    R0_15  BAL15_15  0.849889750458
    R0_15  CAP15  1
    R0_16  COST  11.300312384
    R0_16  BAL1_16  0.833182390669
    R0_16  BAL4_16  0.52442555598
    R0_16  BAL5_16  0.807088976903
    R0_16  BAL6_16  0.400018537057
    R0_16  BAL8_16  0.498440125353
    R0_16  BAL10_16  0.503716429788
    R0_16  BAL12_16  0.595619363737
    R0_16  BAL13_16  0.572915379061
    R0_16  BAL14_16  0.370785633277
    R0_16  BAL15_16  0.849889750458
    R0_16  CAP16  1
    R0_17  COST  11.300312384
    R0_17  BAL1_17  0.833182390669
    R0_17  BAL4_17  0.52442555598
    R0_17  BAL5_17  0.807088976903
    R0_17  BAL6_17  0.400018537057
    R0_17  BAL8_17  0.498440125353
    R0_17  BAL10_17  0.503716429788
    R0_17  BAL12_17  0.595619363737
    R0_17  BAL13_17  0.572915379061
    R0_17  BAL14_17  0.370785633277
    R0_17  BAL15_17  0.849889750458
    R0_17  CAP17  1
    R0_18  COST  11.300312384
    R0_18  BAL1_18  0.833182390669
    R0_18  BAL4_18  0.52442555598
    R0_18  BAL5_18  0.807088976903
    R0_18  BAL6_18  0.400018537057
    R0_18  BAL8_18  0.498440125353
    R0_18  BAL10_18  0.503716429788
    R0_18  BAL12_18  0.595619363737
    R0_18  BAL13_18  0.572915379061
    R0_18  BAL14_18  0.370785633277
    R0_18  BAL15_18  0.849889750458
    R0_18  CAP18  1
    R0_19  COST  11.300312384
    R0_19  BAL1_19  0.833182390669
    R0_19  BAL4_19  0.52442555598
    R0_19  BAL5_19  0.807088976903
    R0_19  BAL6_19  0.400018537057
    R0_19  BAL8_19  0.498440125353
    R0_19  BAL10_19  0.503716429788
    R0_19  BAL12_19  0.595619363737
    R0_19  BAL13_19  0.572915379061
    R0_19  BAL14_19  0.370785633277
    R0_19  BAL15_19  0.849889750458
    R0_19  CAP19  1
    R0_20  COST  11.300312384
    R0_20  BAL1_20  0.833182390669
    R0_20  BAL4_20  0.52442555598
    R0_20  BAL5_20  0.807088976903
    R0_20  BAL6_20  0.400018537057
    R0_20  BAL8_20  0.498440125353
    R0_20  BAL10_20  0.503716429788
    R0_20  BAL12_20  0.595619363737
    R0_20  BAL13_20  0.572915379061
    R0_20  BAL14_20  0.370785633277
    R0_20  BAL15_20  0.849889750458
    R0_20  CAP20  1
    R0_21  COST  11.300312384
    R0_21  BAL1_21  0.833182390669
    R0_21  BAL4_21  0.52442555598
    R0_21  BAL5_21  0.807088976903
    R0_21  BAL6_21  0.400018537057
    R0_21  BAL8_21  0.498440125353
    R0_21  BAL10_21  0.503716429788
    R0_21  BAL12_21  0.595619363737
    R0_21  BAL13_21  0.572915379061
    R0_21  BAL14_21  0.370785633277
    R0_21  BAL15_21  0.849889750458
    R0_21  CAP21  1
    R0_22  COST  11.300312384
    R0_22  BAL1_22  0.833182390669
    R0_22  BAL4_22  0.52442555598
    R0_22  BAL5_22  0.807088976903
    R0_22  BAL6_22  0.400018537057
    R0_22  BAL8_22  0.498440125353
    R0_22  BAL10_22  0.503716429788
    R0_22  BAL12_22  0.595619363737
    R0_22  BAL13_22  0.572915379061
    R0_22  BAL14_22  0.370785633277
    R0_22  BAL15_22  0.849889750458
    R0_22  CAP22  1
    R0_23  COST  11.300312384
    R0_23  BAL1_23  0.833182390669
    R0_23  BAL4_23  0.52442555598
    R0_23  BAL5_23  0.807088976903
    R0_23  BAL6_23  0.400018537057
    R0_23  BAL8_23  0.498440125353
    R0_23  BAL10_23  0.503716429788
    R0_23  BAL12_23  0.595619363737
    R0_23  BAL13_23  0.572915379061
    R0_23  BAL14_23  0.370785633277
    R0_23  BAL15_23  0.849889750458
    R0_23  CAP23  1
    R1_0  COST  4.3854319022
    R1_0  BAL0_0  0.246689363963
    R1_0  BAL3_0  0.562813594853
    R1_0  BAL5_0  0.527723026617
    R1_0  BAL12_0  0.90037087859
    R1_0  BAL13_0  0.81365148472
    R1_0  BAL14_0  0.658708229566
    R1_0  BAL16_0  0.903186868106
    R1_0  BAL17_0  0.859408216154
    R1_0  CAP0  1
    R1_1  COST  4.3854319022
    R1_1  BAL0_1  0.246689363963
    R1_1  BAL3_1  0.562813594853
    R1_1  BAL5_1  0.527723026617
    R1_1  BAL12_1  0.90037087859
    R1_1  BAL13_1  0.81365148472
    R1_1  BAL14_1  0.658708229566
    R1_1  BAL16_1  0.903186868106
    R1_1  BAL17_1  0.859408216154
    R1_1  CAP1  1
    R1_2  COST  4.3854319022
    R1_2  BAL0_2  0.246689363963
    R1_2  BAL3_2  0.562813594853
    R1_2  BAL5_2  0.527723026617
    R1_2  BAL12_2  0.90037087859
    R1_2  BAL13_2  0.81365148472
    R1_2  BAL14_2  0.658708229566
    R1_2  BAL16_2  0.903186868106
    R1_2  BAL17_2  0.859408216154
    R1_2  CAP2  1
    R1_3  COST  4.3854319022
    R1_3  BAL0_3  0.246689363963
    R1_3  BAL3_3  0.562813594853
    R1_3  BAL5_3  0.527723026617
    R1_3  BAL12_3  0.90037087859
    R1_3  BAL13_3  0.81365148472
    R1_3  BAL14_3  0.658708229566
    R1_3  BAL16_3  0.903186868106
    R1_3  BAL17_3  0.859408216154
    R1_3  CAP3  1
    R1_4  COST  4.3854319022
    R1_4  BAL0_4  0.246689363963
    R1_4  BAL3_4  0.562813594853
    R1_4  BAL5_4  0.527723026617
    R1_4  BAL12_4  0.90037087859
    R1_4  BAL13_4  0.81365148472
    R1_4  BAL14_4  0.658708229566
    R1_4  BAL16_4  0.903186868106
    R1_4  BAL17_4  0.859408216154
    R1_4  CAP4  1
    R1_5  COST  4.3854319022
    R1_5  BAL0_5  0.246689363963
    R1_5  BAL3_5  0.562813594853
    R1_5  BAL5_5  0.527723026617
    R1_5  BAL12_5  0.90037087859
    R1_5  BAL13_5  0.81365148472
    R1_5  BAL14_5  0.658708229566
    R1_5  BAL16_5  0.903186868106
    R1_5  BAL17_5  0.859408216154
    R1_5  CAP5  1
    R1_6  COST  4.3854319022
    R1_6  BAL0_6  0.246689363963
    R1_6  BAL3_6  0.562813594853
    R1_6  BAL5_6  0.527723026617
    R1_6  BAL12_6  0.90037087859
    R1_6  BAL13_6  0.81365148472
    R1_6  BAL14_6  0.658708229566
    R1_6  BAL16_6  0.903186868106
    R1_6  BAL17_6  0.859408216154
    R1_6  CAP6  1
    R1_7  COST  4.3854319022
    R1_7  BAL0_7  0.246689363963
    R1_7  BAL3_7  0.562813594853
    R1_7  BAL5_7  0.527723026617
    R1_7  BAL12_7  0.90037087859
    R1_7  BAL13_7  0.81365148472
    R1_7  BAL14_7  0.658708229566
    R1_7  BAL16_7  0.903186868106
    R1_7  BAL17_7  0.859408216154
    R1_7  CAP7  1
    R1_8  COST  4.3854319022
    R1_8  BAL0_8  0.246689363963
    R1_8  BAL3_8  0.562813594853
    R1_8  BAL5_8  0.527723026617
    R1_8  BAL12_8  0.90037087859
    R1_8  BAL13_8  0.81365148472
    R1_8  BAL14_8  0.658708229566
    R1_8  BAL16_8  0.903186868106
    R1_8  BAL17_8  0.859408216154
    R1_8  CAP8  1
    R1_9  COST  4.3854319022
    R1_9  BAL0_9  0.246689363963
    R1_9  BAL3_9  0.562813594853
    R1_9  BAL5_9  0.527723026617
    R1_9  BAL12_9  0.90037087859
    R1_9  BAL13_9  0.81365148472
    R1_9  BAL14_9  0.658708229566
    R1_9  BAL16_9  0.903186868106
    R1_9  BAL17_9  0.859408216154
    R1_9  CAP9  1
    R1_10  COST  4.3854319022
    R1_10  BAL0_10  0.246689363963
    R1_10  BAL3_10  0.562813594853
    R1_10  BAL5_10  0.527723026617
    R1_10  BAL12_10  0.90037087859
    R1_10  BAL13_10  0.81365148472
    R1_10  BAL14_10  0.658708229566
    R1_10  BAL16_10  0.903186868106
    R1_10  BAL17_10  0.859408216154
    R1_10  CAP10  1
    R1_11  COST  4.3854319022
    R1_11  BAL0_11  0.246689363963
    R1_11  BAL3_11  0.562813594853
    R1_11  BAL5_11  0.527723026617
    R1_11  BAL12_11  0.90037087859
    R1_11  BAL13_11  0.81365148472
    R1_11  BAL14_11  0.658708229566
    R1_11  BAL16_11  0.903186868106
    R1_11  BAL17_11  0.859408216154
    R1_11  CAP11  1
    R1_12  COST  4.3854319022
    R1_12  BAL0_12  0.246689363963
    R1_12  BAL3_12  0.562813594853
    R1_12  BAL5_12  0.527723026617
    R1_12  BAL12_12  0.90037087859
    R1_12  BAL13_12  0.81365148472
    R1_12  BAL14_12  0.658708229566
    R1_12  BAL16_12  0.903186868106
    R1_12  BAL17_12  0.859408216154
    R1_12  CAP12  1
    R1_13  COST  4.3854319022
    R1_13  BAL0_13  0.246689363963
    R1_13  BAL3_13  0.562813594853
    R1_13  BAL5_13  0.527723026617
    R1_13  BAL12_13  0.90037087859
    R1_13  BAL13_13  0.81365148472
    R1_13  BAL14_13  0.658708229566
    R1_13  BAL16_13  0.903186868106
    R1_13  BAL17_13  0.859408216154
    R1_13  CAP13  1
    R1_14  COST  4.3854319022
    R1_14  BAL0_14  0.246689363963
    R1_14  BAL3_14  0.562813594853
    R1_14  BAL5_14  0.527723026617
    R1_14  BAL12_14  0.90037087859
    R1_14  BAL13_14  0.81365148472
    R1_14  BAL14_14  0.658708229566
    R1_14  BAL16_14  0.903186868106
    R1_14  BAL17_14  0.859408216154
    R1_14  CAP14  1
    R1_15  COST  4.3854319022
    R1_15  BAL0_15  0.246689363963
    R1_15  BAL3_15  0.562813594853
    R1_15  BAL5_15  0.527723026617
    R1_15  BAL12_15  0.90037087859
    R1_15  BAL13_15  0.81365148472
    R1_15  BAL14_15  0.658708229566
    R1_15  BAL16_15  0.903186868106
    R1_15  BAL17_15  0.859408216154
    R1_15  CAP15  1
    R1_16  COST  4.3854319022
    R1_16  BAL0_16  0.246689363963
    R1_16  BAL3_16  0.562813594853
    R1_16  BAL5_16  0.527723026617
    R1_16  BAL12_16  0.90037087859
    R1_16  BAL13_16  0.81365148472
    R1_16  BAL14_16  0.658708229566
    R1_16  BAL16_16  0.903186868106
    R1_16  BAL17_16  0.859408216154
    R1_16  CAP16  1
    R1_17  COST  4.3854319022
    R1_17  BAL0_17  0.246689363963
    R1_17  BAL3_17  0.562813594853
    R1_17  BAL5_17  0.527723026617
    R1_17  BAL12_17  0.90037087859
    R1_17  BAL13_17  0.81365148472
    R1_17  BAL14_17  0.658708229566
    R1_17  BAL16_17  0.903186868106
    R1_17  BAL17_17  0.859408216154
    R1_17  CAP17  1
    R1_18  COST  4.3854319022
    R1_18  BAL0_18  0.246689363963
    R1_18  BAL3_18  0.562813594853
    R1_18  BAL5_18  0.527723026617
    R1_18  BAL12_18  0.90037087859
    R1_18  BAL13_18  0.81365148472
    R1_18  BAL14_18  0.658708229566
    R1_18  BAL16_18  0.903186868106
    R1_18  BAL17_18  0.859408216154
    R1_18  CAP18  1
    R1_19  COST  4.3854319022
    R1_19  BAL0_19  0.246689363963
    R1_19  BAL3_19  0.562813594853
    R1_19  BAL5_19  0.527723026617
    R1_19  BAL12_19  0.90037087859
    R1_19  BAL13_19  0.81365148472
    R1_19  BAL14_19  0.658708229566
    R1_19  BAL16_19  0.903186868106
    R1_19  BAL17_19  0.859408216154
    R1_19  CAP19  1
    R1_20  COST  4.3854319022
    R1_20  BAL0_20  0.246689363963
    R1_20  BAL3_20  0.562813594853
    R1_20  BAL5_20  0.527723026617
    R1_20  BAL12_20  0.90037087859
    R1_20  BAL13_20  0.81365148472
    R1_20  BAL14_20  0.658708229566
    R1_20  BAL16_20  0.903186868106
    R1_20  BAL17_20  0.859408216154
    R1_20  CAP20  1
    R1_21  COST  4.3854319022
    R1_21  BAL0_21  0.246689363963
    R1_21  BAL3_21  0.562813594853
    R1_21  BAL5_21  0.527723026617
    R1_21  BAL12_21  0.90037087859
    R1_21  BAL13_21  0.81365148472
    R1_21  BAL14_21  0.658708229566
    R1_21  BAL16_21  0.903186868106
    R1_21  BAL17_21  0.859408216154
    R1_21  CAP21  1
    R1_22  COST  4.3854319022
    R1_22  BAL0_22  0.246689363963
    R1_22  BAL3_22  0.562813594853
    R1_22  BAL5_22  0.527723026617
    R1_22  BAL12_22  0.90037087859
    R1_22  BAL13_22  0.81365148472
    R1_22  BAL14_22  0.658708229566
    R1_22  BAL16_22  0.903186868106
    R1_22  BAL17_22  0.859408216154
    R1_22  CAP22  1
    R1_23  COST  4.3854319022
    R1_23  BAL0_23  0.246689363963
    R1_23  BAL3_23  0.562813594853
    R1_23  BAL5_23  0.527723026617
    R1_23  BAL12_23  0.90037087859
    R1_23  BAL13_23  0.81365148472
    R1_23  BAL14_23  0.658708229566
    R1_23  BAL16_23  0.903186868106
    R1_23  BAL17_23  0.859408216154
    R1_23  CAP23  1
    R2_0  COST  9.40330199941
    R2_0  BAL1_0  0.546238836451
    R2_0  BAL2_0  0.827911427801
    R2_0  BAL3_0  0.843470550168
    R2_0  BAL4_0  0.372339201612
    R2_0  BAL5_0  0.223928918446
    R2_0  BAL9_0  0.372019945487
    R2_0  BAL13_0  0.416438632576
    R2_0  BAL14_0  0.525024338173
    R2_0  BAL17_0  0.678781827984
    R2_0  CAP0  1
    R2_1  COST  9.40330199941
    R2_1  BAL1_1  0.546238836451
    R2_1  BAL2_1  0.827911427801
    R2_1  BAL3_1  0.843470550168
    R2_1  BAL4_1  0.372339201612
    R2_1  BAL5_1  0.223928918446
    R2_1  BAL9_1  0.372019945487
    R2_1  BAL13_1  0.416438632576
    R2_1  BAL14_1  0.525024338173
    R2_1  BAL17_1  0.678781827984
    R2_1  CAP1  1
    R2_2  COST  9.40330199941
    R2_2  BAL1_2  0.546238836451
    R2_2  BAL2_2  0.827911427801
    R2_2  BAL3_2  0.843470550168
    R2_2  BAL4_2  0.372339201612
    R2_2  BAL5_2  0.223928918446
    R2_2  BAL9_2  0.372019945487
    R2_2  BAL13_2  0.416438632576
    R2_2  BAL14_2  0.525024338173
    R2_2  BAL17_2  0.678781827984
    R2_2  CAP2  1
    R2_3  COST  9.40330199941
    R2_3  BAL1_3  0.546238836451
    R2_3  BAL2_3  0.827911427801
    R2_3  BAL3_3  0.843470550168
    R2_3  BAL4_3  0.372339201612
    R2_3  BAL5_3  0.223928918446
    R2_3  BAL9_3  0.372019945487
    R2_3  BAL13_3  0.416438632576
    R2_3  BAL14_3  0.525024338173
    R2_3  BAL17_3  0.678781827984
    R2_3  CAP3  1
    R2_4  COST  9.40330199941
    R2_4  BAL1_4  0.546238836451
    R2_4  BAL2_4  0.827911427801
    R2_4  BAL3_4  0.843470550168
    R2_4  BAL4_4  0.372339201612
    R2_4  BAL5_4  0.223928918446
    R2_4  BAL9_4  0.372019945487
    R2_4  BAL13_4  0.416438632576
    R2_4  BAL14_4  0.525024338173
    R2_4  BAL17_4  0.678781827984
    R2_4  CAP4  1
    R2_5  COST  9.40330199941
    R2_5  BAL1_5  0.546238836451
    R2_5  BAL2_5  0.827911427801
    R2_5  BAL3_5  0.843470550168
    R2_5  BAL4_5  0.372339201612
    R2_5  BAL5_5  0.223928918446
    R2_5  BAL9_5  0.372019945487
    R2_5  BAL13_5  0.416438632576
    R2_5  BAL14_5  0.525024338173
    R2_5  BAL17_5  0.678781827984
    R2_5  CAP5  1
    R2_6  COST  9.40330199941
    R2_6  BAL1_6  0.546238836451
    R2_6  BAL2_6  0.827911427801
    R2_6  BAL3_6  0.843470550168
    R2_6  BAL4_6  0.372339201612
    R2_6  BAL5_6  0.223928918446
    R2_6  BAL9_6  0.372019945487
    R2_6  BAL13_6  0.416438632576
    R2_6  BAL14_6  0.525024338173
    R2_6  BAL17_6  0.678781827984
    R2_6  CAP6  1
    R2_7  COST  9.40330199941
    R2_7  BAL1_7  0.546238836451
    R2_7  BAL2_7  0.827911427801
    R2_7  BAL3_7  0.843470550168
    R2_7  BAL4_7  0.372339201612
    R2_7  BAL5_7  0.223928918446
    R2_7  BAL9_7  0.372019945487
    R2_7  BAL13_7  0.416438632576
    R2_7  BAL14_7  0.525024338173
    R2_7  BAL17_7  0.678781827984
    R2_7  CAP7  1
    R2_8  COST  9.40330199941
    R2_8  BAL1_8  0.546238836451
    R2_8  BAL2_8  0.827911427801
    R2_8  BAL3_8  0.843470550168
    R2_8  BAL4_8  0.372339201612
    R2_8  BAL5_8  0.223928918446
    R2_8  BAL9_8  0.372019945487
    R2_8  BAL13_8  0.416438632576
    R2_8  BAL14_8  0.525024338173
    R2_8  BAL17_8  0.678781827984
    R2_8  CAP8  1
    R2_9  COST  9.40330199941
    R2_9  BAL1_9  0.546238836451
    R2_9  BAL2_9  0.827911427801
    R2_9  BAL3_9  0.843470550168
    R2_9  BAL4_9  0.372339201612
    R2_9  BAL5_9  0.223928918446
    R2_9  BAL9_9  0.372019945487
    R2_9  BAL13_9  0.416438632576
    R2_9  BAL14_9  0.525024338173
    R2_9  BAL17_9  0.678781827984
    R2_9  CAP9  1
    R2_10  COST  9.40330199941
    R2_10  BAL1_10  0.546238836451
    R2_10  BAL2_10  0.827911427801
    R2_10  BAL3_10  0.843470550168
    R2_10  BAL4_10  0.372339201612
    R2_10  BAL5_10  0.223928918446
    R2_10  BAL9_10  0.372019945487
    R2_10  BAL13_10  0.416438632576
    R2_10  BAL14_10  0.525024338173
    R2_10  BAL17_10  0.678781827984
    R2_10  CAP10  1
    R2_11  COST  9.40330199941
    R2_11  BAL1_11  0.546238836451
    R2_11  BAL2_11  0.827911427801
    R2_11  BAL3_11  0.843470550168
    R2_11  BAL4_11  0.372339201612
    R2_11  BAL5_11  0.223928918446
    R2_11  BAL9_11  0.372019945487
    R2_11  BAL13_11  0.416438632576
    R2_11  BAL14_11  0.525024338173
    R2_11  BAL17_11  0.678781827984
    R2_11  CAP11  1
    R2_12  COST  9.40330199941
    R2_12  BAL1_12  0.546238836451
    R2_12  BAL2_12  0.827911427801
    R2_12  BAL3_12  0.843470550168
    R2_12  BAL4_12  0.372339201612
    R2_12  BAL5_12  0.223928918446
    R2_12  BAL9_12  0.372019945487
    R2_12  BAL13_12  0.416438632576
    R2_12  BAL14_12  0.525024338173
    R2_12  BAL17_12  0.678781827984
    R2_12  CAP12  1
    R2_13  COST  9.40330199941
    R2_13  BAL1_13  0.546238836451
    R2_13  BAL2_13  0.827911427801
    R2_13  BAL3_13  0.843470550168
    R2_13  BAL4_13  0.372339201612
    R2_13  BAL5_13  0.223928918446
    R2_13  BAL9_13  0.372019945487
    R2_13  BAL13_13  0.416438632576
    R2_13  BAL14_13  0.525024338173
    R2_13  BAL17_13  0.678781827984
    R2_13  CAP13  1
    R2_14  COST  9.40330199941
    R2_14  BAL1_14  0.546238836451
    R2_14  BAL2_14  0.827911427801
    R2_14  BAL3_14  0.843470550168
    R2_14  BAL4_14  0.372339201612
    R2_14  BAL5_14  0.223928918446
    R2_14  BAL9_14  0.372019945487
    R2_14  BAL13_14  0.416438632576
    R2_14  BAL14_14  0.525024338173
    R2_14  BAL17_14  0.678781827984
    R2_14  CAP14  1
    R2_15  COST  9.40330199941
    R2_15  BAL1_15  0.546238836451
    R2_15  BAL2_15  0.827911427801
    R2_15  BAL3_15  0.843470550168
    R2_15  BAL4_15  0.372339201612
    R2_15  BAL5_15  0.223928918446
    R2_15  BAL9_15  0.372019945487
    R2_15  BAL13_15  0.416438632576
    R2_15  BAL14_15  0.525024338173
    R2_15  BAL17_15  0.678781827984
    R2_15  CAP15  1
    R2_16  COST  9.40330199941
    R2_16  BAL1_16  0.546238836451
    R2_16  BAL2_16  0.827911427801
    R2_16  BAL3_16  0.843470550168
    R2_16  BAL4_16  0.372339201612
    R2_16  BAL5_16  0.223928918446
    R2_16  BAL9_16  0.372019945487
    R2_16  BAL13_16  0.416438632576
    R2_16  BAL14_16  0.525024338173
    R2_16  BAL17_16  0.678781827984
    R2_16  CAP16  1
    R2_17  COST  9.40330199941
    R2_17  BAL1_17  0.546238836451
    R2_17  BAL2_17  0.827911427801
    R2_17  BAL3_17  0.843470550168
    R2_17  BAL4_17  0.372339201612
    R2_17  BAL5_17  0.223928918446
    R2_17  BAL9_17  0.372019945487
    R2_17  BAL13_17  0.416438632576
    R2_17  BAL14_17  0.525024338173
    R2_17  BAL17_17  0.678781827984
    R2_17  CAP17  1
    R2_18  COST  9.40330199941
    R2_18  BAL1_18  0.546238836451
    R2_18  BAL2_18  0.827911427801
    R2_18  BAL3_18  0.843470550168
    R2_18  BAL4_18  0.372339201612
    R2_18  BAL5_18  0.223928918446
    R2_18  BAL9_18  0.372019945487
    R2_18  BAL13_18  0.416438632576
    R2_18  BAL14_18  0.525024338173
    R2_18  BAL17_18  0.678781827984
    R2_18  CAP18  1
    R2_19  COST  9.40330199941
    R2_19  BAL1_19  0.546238836451
    R2_19  BAL2_19  0.827911427801
    R2_19  BAL3_19  0.843470550168
    R2_19  BAL4_19  0.372339201612
    R2_19  BAL5_19  0.223928918446
    R2_19  BAL9_19  0.372019945487
    R2_19  BAL13_19  0.416438632576
    R2_19  BAL14_19  0.525024338173
    R2_19  BAL17_19  0.678781827984
    R2_19  CAP19  1
    R2_20  COST  9.40330199941
    R2_20  BAL1_20  0.546238836451
    R2_20  BAL2_20  0.827911427801
    R2_20  BAL3_20  0.843470550168
    R2_20  BAL4_20  0.372339201612
    R2_20  BAL5_20  0.223928918446
    R2_20  BAL9_20  0.372019945487
    R2_20  BAL13_20  0.416438632576
    R2_20  BAL14_20  0.525024338173
    R2_20  BAL17_20  0.678781827984
    R2_20  CAP20  1
    R2_21  COST  9.40330199941
    R2_21  BAL1_21  0.546238836451
    R2_21  BAL2_21  0.827911427801
    R2_21  BAL3_21  0.843470550168
    R2_21  BAL4_21  0.372339201612
    R2_21  BAL5_21  0.223928918446
    R2_21  BAL9_21  0.372019945487
    R2_21  BAL13_21  0.416438632576
    R2_21  BAL14_21  0.525024338173
    R2_21  BAL17_21  0.678781827984
    R2_21  CAP21  1
    R2_22  COST  9.40330199941
    R2_22  BAL1_22  0.546238836451
    R2_22  BAL2_22  0.827911427801
    R2_22  BAL3_22  0.843470550168
    R2_22  BAL4_22  0.372339201612
    R2_22  BAL5_22  0.223928918446
    R2_22  BAL9_22  0.372019945487
    R2_22  BAL13_22  0.416438632576
    R2_22  BAL14_22  0.525024338173
    R2_22  BAL17_22  0.678781827984
    R2_22  CAP22  1
    R2_23  COST  9.40330199941
    R2_23  BAL1_23  0.546238836451
    R2_23  BAL2_23  0.827911427801
    R2_23  BAL3_23  0.843470550168
    R2_23  BAL4_23  0.372339201612
    R2_23  BAL5_23  0.223928918446
    R2_23  BAL9_23  0.372019945487
    R2_23  BAL13_23  0.416438632576
    R2_23  BAL14_23  0.525024338173
    R2_23  BAL17_23  0.678781827984
    R2_23  CAP23  1
    R3_0  COST  17.9736174094
    R3_0  BAL2_0  0.600349311594
    R3_0  BAL3_0  0.905717531814
    R3_0  BAL5_0  0.195809301947
    R3_0  BAL7_0  0.167621416652
    R3_0  BAL8_0  0.585665710305
    R3_0  BAL9_0  0.438028182861
    R3_0  BAL10_0  0.335068689769
    R3_0  BAL11_0  0.830024314198
    R3_0  BAL14_0  0.552085541671
    R3_0  CAP0  1
    R3_1  COST  17.9736174094
    R3_1  BAL2_1  0.600349311594
    R3_1  BAL3_1  0.905717531814
    R3_1  BAL5_1  0.195809301947
    R3_1  BAL7_1  0.167621416652
    R3_1  BAL8_1  0.585665710305
    R3_1  BAL9_1  0.438028182861
    R3_1  BAL10_1  0.335068689769
    R3_1  BAL11_1  0.830024314198
    R3_1  BAL14_1  0.552085541671
    R3_1  CAP1  1
    R3_2  COST  17.9736174094
    R3_2  BAL2_2  0.600349311594
    R3_2  BAL3_2  0.905717531814
    R3_2  BAL5_2  0.195809301947
    R3_2  BAL7_2  0.167621416652
    R3_2  BAL8_2  0.585665710305
    R3_2  BAL9_2  0.438028182861
    R3_2  BAL10_2  0.335068689769
    R3_2  BAL11_2  0.830024314198
    R3_2  BAL14_2  0.552085541671
    R3_2  CAP2  1
    R3_3  COST  17.9736174094
    R3_3  BAL2_3  0.600349311594
    R3_3  BAL3_3  0.905717531814
    R3_3  BAL5_3  0.195809301947
    R3_3  BAL7_3  0.167621416652
    R3_3  BAL8_3  0.585665710305
    R3_3  BAL9_3  0.438028182861
    R3_3  BAL10_3  0.335068689769
    R3_3  BAL11_3  0.830024314198
    R3_3  BAL14_3  0.552085541671
    R3_3  CAP3  1
    R3_4  COST  17.9736174094
    R3_4  BAL2_4  0.600349311594
    R3_4  BAL3_4  0.905717531814
    R3_4  BAL5_4  0.195809301947
    R3_4  BAL7_4  0.167621416652
    R3_4  BAL8_4  0.585665710305
    R3_4  BAL9_4  0.438028182861
    R3_4  BAL10_4  0.335068689769
    R3_4  BAL11_4  0.830024314198
    R3_4  BAL14_4  0.552085541671
    R3_4  CAP4  1
    R3_5  COST  17.9736174094
    R3_5  BAL2_5  0.600349311594
    R3_5  BAL3_5  0.905717531814
    R3_5  BAL5_5  0.195809301947
    R3_5  BAL7_5  0.167621416652
    R3_5  BAL8_5  0.585665710305
    R3_5  BAL9_5  0.438028182861
    R3_5  BAL10_5  0.335068689769
    R3_5  BAL11_5  0.830024314198
    R3_5  BAL14_5  0.552085541671
    R3_5  CAP5  1
    R3_6  COST  17.9736174094
    R3_6  BAL2_6  0.600349311594
    R3_6  BAL3_6  0.905717531814
    R3_6  BAL5_6  0.195809301947
    R3_6  BAL7_6  0.167621416652
    R3_6  BAL8_6  0.585665710305
    R3_6  BAL9_6  0.438028182861
    R3_6  BAL10_6  0.335068689769
    R3_6  BAL11_6  0.830024314198
    R3_6  BAL14_6  0.552085541671
    R3_6  CAP6  1
    R3_7  COST  17.9736174094
    R3_7  BAL2_7  0.600349311594
    R3_7  BAL3_7  0.905717531814
    R3_7  BAL5_7  0.195809301947
    R3_7  BAL7_7  0.167621416652
    R3_7  BAL8_7  0.585665710305
    R3_7  BAL9_7  0.438028182861
    R3_7  BAL10_7  0.335068689769
    R3_7  BAL11_7  0.830024314198
    R3_7  BAL14_7  0.552085541671
    R3_7  CAP7  1
    R3_8  COST  17.9736174094
    R3_8  BAL2_8  0.600349311594
    R3_8  BAL3_8  0.905717531814
    R3_8  BAL5_8  0.195809301947
    R3_8  BAL7_8  0.167621416652
    R3_8  BAL8_8  0.585665710305
    R3_8  BAL9_8  0.438028182861
    R3_8  BAL10_8  0.335068689769
    R3_8  BAL11_8  0.830024314198
    R3_8  BAL14_8  0.552085541671
    R3_8  CAP8  1
    R3_9  COST  17.9736174094
    R3_9  BAL2_9  0.600349311594
    R3_9  BAL3_9  0.905717531814
    R3_9  BAL5_9  0.195809301947
    R3_9  BAL7_9  0.167621416652
    R3_9  BAL8_9  0.585665710305
    R3_9  BAL9_9  0.438028182861
    R3_9  BAL10_9  0.335068689769
    R3_9  BAL11_9  0.830024314198
    R3_9  BAL14_9  0.552085541671
    R3_9  CAP9  1
    R3_10  COST  17.9736174094
    R3_10  BAL2_10  0.600349311594
    R3_10  BAL3_10  0.905717531814
    R3_10  BAL5_10  0.195809301947
    R3_10  BAL7_10  0.167621416652
    R3_10  BAL8_10  0.585665710305
    R3_10  BAL9_10  0.438028182861
    R3_10  BAL10_10  0.335068689769
    R3_10  BAL11_10  0.830024314198
    R3_10  BAL14_10  0.552085541671
    R3_10  CAP10  1
    R3_11  COST  17.9736174094
    R3_11  BAL2_11  0.600349311594
    R3_11  BAL3_11  0.905717531814
    R3_11  BAL5_11  0.195809301947
    R3_11  BAL7_11  0.167621416652
    R3_11  BAL8_11  0.585665710305
    R3_11  BAL9_11  0.438028182861
    R3_11  BAL10_11  0.335068689769
    R3_11  BAL11_11  0.830024314198
    R3_11  BAL14_11  0.552085541671
    R3_11  CAP11  1
    R3_12  COST  17.9736174094
    R3_12  BAL2_12  0.600349311594
    R3_12  BAL3_12  0.905717531814
    R3_12  BAL5_12  0.195809301947
    R3_12  BAL7_12  0.167621416652
    R3_12  BAL8_12  0.585665710305
    R3_12  BAL9_12  0.438028182861
    R3_12  BAL10_12  0.335068689769
    R3_12  BAL11_12  0.830024314198
    R3_12  BAL14_12  0.552085541671
    R3_12  CAP12  1
    R3_13  COST  17.9736174094
    R3_13  BAL2_13  0.600349311594
    R3_13  BAL3_13  0.905717531814
    R3_13  BAL5_13  0.195809301947
    R3_13  BAL7_13  0.167621416652
    R3_13  BAL8_13  0.585665710305
    R3_13  BAL9_13  0.438028182861
    R3_13  BAL10_13  0.335068689769
    R3_13  BAL11_13  0.830024314198
    R3_13  BAL14_13  0.552085541671
    R3_13  CAP13  1
    R3_14  COST  17.9736174094
    R3_14  BAL2_14  0.600349311594
    R3_14  BAL3_14  0.905717531814
    R3_14  BAL5_14  0.195809301947
    R3_14  BAL7_14  0.167621416652
    R3_14  BAL8_14  0.585665710305
    R3_14  BAL9_14  0.438028182861
    R3_14  BAL10_14  0.335068689769
    R3_14  BAL11_14  0.830024314198
    R3_14  BAL14_14  0.552085541671
    R3_14  CAP14  1
    R3_15  COST  17.9736174094
    R3_15  BAL2_15  0.600349311594
    R3_15  BAL3_15  0.905717531814
    R3_15  BAL5_15  0.195809301947
    R3_15  BAL7_15  0.167621416652
    R3_15  BAL8_15  0.585665710305
    R3_15  BAL9_15  0.438028182861
    R3_15  BAL10_15  0.335068689769
    R3_15  BAL11_15  0.830024314198
    R3_15  BAL14_15  0.552085541671
    R3_15  CAP15  1
    R3_16  COST  17.9736174094
    R3_16  BAL2_16  0.600349311594
    R3_16  BAL3_16  0.905717531814
    R3_16  BAL5_16  0.195809301947
    R3_16  BAL7_16  0.167621416652
    R3_16  BAL8_16  0.585665710305
    R3_16  BAL9_16  0.438028182861
    R3_16  BAL10_16  0.335068689769
    R3_16  BAL11_16  0.830024314198
    R3_16  BAL14_16  0.552085541671
    R3_16  CAP16  1
    R3_17  COST  17.9736174094
    R3_17  BAL2_17  0.600349311594
    R3_17  BAL3_17  0.905717531814
    R3_17  BAL5_17  0.195809301947
    R3_17  BAL7_17  0.167621416652
    R3_17  BAL8_17  0.585665710305
    R3_17  BAL9_17  0.438028182861
    R3_17  BAL10_17  0.335068689769
    R3_17  BAL11_17  0.830024314198
    R3_17  BAL14_17  0.552085541671
    R3_17  CAP17  1
    R3_18  COST  17.9736174094
    R3_18  BAL2_18  0.600349311594
    R3_18  BAL3_18  0.905717531814
    R3_18  BAL5_18  0.195809301947
    R3_18  BAL7_18  0.167621416652
    R3_18  BAL8_18  0.585665710305
    R3_18  BAL9_18  0.438028182861
    R3_18  BAL10_18  0.335068689769
    R3_18  BAL11_18  0.830024314198
    R3_18  BAL14_18  0.552085541671
    R3_18  CAP18  1
    R3_19  COST  17.9736174094
    R3_19  BAL2_19  0.600349311594
    R3_19  BAL3_19  0.905717531814
    R3_19  BAL5_19  0.195809301947
    R3_19  BAL7_19  0.167621416652
    R3_19  BAL8_19  0.585665710305
    R3_19  BAL9_19  0.438028182861
    R3_19  BAL10_19  0.335068689769
    R3_19  BAL11_19  0.830024314198
    R3_19  BAL14_19  0.552085541671
    R3_19  CAP19  1
    R3_20  COST  17.9736174094
    R3_20  BAL2_20  0.600349311594
    R3_20  BAL3_20  0.905717531814
    R3_20  BAL5_20  0.195809301947
    R3_20  BAL7_20  0.167621416652
    R3_20  BAL8_20  0.585665710305
    R3_20  BAL9_20  0.438028182861
    R3_20  BAL10_20  0.335068689769
    R3_20  BAL11_20  0.830024314198
    R3_20  BAL14_20  0.552085541671
    R3_20  CAP20  1
    R3_21  COST  17.9736174094
    R3_21  BAL2_21  0.600349311594
    R3_21  BAL3_21  0.905717531814
    R3_21  BAL5_21  0.195809301947
    R3_21  BAL7_21  0.167621416652
    R3_21  BAL8_21  0.585665710305
    R3_21  BAL9_21  0.438028182861
    R3_21  BAL10_21  0.335068689769
    R3_21  BAL11_21  0.830024314198
    R3_21  BAL14_21  0.552085541671
    R3_21  CAP21  1
    R3_22  COST  17.9736174094
    R3_22  BAL2_22  0.600349311594
    R3_22  BAL3_22  0.905717531814
    R3_22  BAL5_22  0.195809301947
    R3_22  BAL7_22  0.167621416652
    R3_22  BAL8_22  0.585665710305
    R3_22  BAL9_22  0.438028182861
    R3_22  BAL10_22  0.335068689769
    R3_22  BAL11_22  0.830024314198
    R3_22  BAL14_22  0.552085541671
    R3_22  CAP22  1
    R3_23  COST  17.9736174094
    R3_23  BAL2_23  0.600349311594
    R3_23  BAL3_23  0.905717531814
    R3_23  BAL5_23  0.195809301947
    R3_23  BAL7_23  0.167621416652
    R3_23  BAL8_23  0.585665710305
    R3_23  BAL9_23  0.438028182861
    R3_23  BAL10_23  0.335068689769
    R3_23  BAL11_23  0.830024314198
    R3_23  BAL14_23  0.552085541671
    R3_23  CAP23  1
    R4_0  COST  12.3812826569
    R4_0  BAL0_0  0.259510058093
    R4_0  BAL2_0  0.555414566564
    R4_0  BAL3_0  0.706440942866
    R4_0  BAL11_0  0.811377693579
    R4_0  BAL15_0  0.554511514871
    R4_0  BAL16_0  0.334707638194
    R4_0  BAL17_0  0.46369847723
    R4_0  CAP0  1
    R4_1  COST  12.3812826569
    R4_1  BAL0_1  0.259510058093
    R4_1  BAL2_1  0.555414566564
    R4_1  BAL3_1  0.706440942866
    R4_1  BAL11_1  0.811377693579
    R4_1  BAL15_1  0.554511514871
    R4_1  BAL16_1  0.334707638194
    R4_1  BAL17_1  0.46369847723
    R4_1  CAP1  1
    R4_2  COST  12.3812826569
    R4_2  BAL0_2  0.259510058093
    R4_2  BAL2_2  0.555414566564
    R4_2  BAL3_2  0.706440942866
    R4_2  BAL11_2  0.811377693579
    R4_2  BAL15_2  0.554511514871
    R4_2  BAL16_2  0.334707638194
    R4_2  BAL17_2  0.46369847723
    R4_2  CAP2  1
    R4_3  COST  12.3812826569
    R4_3  BAL0_3  0.259510058093
    R4_3  BAL2_3  0.555414566564
    R4_3  BAL3_3  0.706440942866
    R4_3  BAL11_3  0.811377693579
    R4_3  BAL15_3  0.554511514871
    R4_3  BAL16_3  0.334707638194
    R4_3  BAL17_3  0.46369847723
    R4_3  CAP3  1
    R4_4  COST  12.3812826569
    R4_4  BAL0_4  0.259510058093
    R4_4  BAL2_4  0.555414566564
    R4_4  BAL3_4  0.706440942866
    R4_4  BAL11_4  0.811377693579
    R4_4  BAL15_4  0.554511514871
    R4_4  BAL16_4  0.334707638194
    R4_4  BAL17_4  0.46369847723
    R4_4  CAP4  1
    R4_5  COST  12.3812826569
    R4_5  BAL0_5  0.259510058093
    R4_5  BAL2_5  0.555414566564
    R4_5  BAL3_5  0.706440942866
    R4_5  BAL11_5  0.811377693579
    R4_5  BAL15_5  0.554511514871
    R4_5  BAL16_5  0.334707638194
    R4_5  BAL17_5  0.46369847723
    R4_5  CAP5  1
    R4_6  COST  12.3812826569
    R4_6  BAL0_6  0.259510058093
    R4_6  BAL2_6  0.555414566564
    R4_6  BAL3_6  0.706440942866
    R4_6  BAL11_6  0.811377693579
    R4_6  BAL15_6  0.554511514871
    R4_6  BAL16_6  0.334707638194
    R4_6  BAL17_6  0.46369847723
    R4_6  CAP6  1
    R4_7  COST  12.3812826569
    R4_7  BAL0_7  0.259510058093
    R4_7  BAL2_7  0.555414566564
    R4_7  BAL3_7  0.706440942866
    R4_7  BAL11_7  0.811377693579
    R4_7  BAL15_7  0.554511514871
    R4_7  BAL16_7  0.334707638194
    R4_7  BAL17_7  0.46369847723
    R4_7  CAP7  1
    R4_8  COST  12.3812826569
    R4_8  BAL0_8  0.259510058093
    R4_8  BAL2_8  0.555414566564
    R4_8  BAL3_8  0.706440942866
    R4_8  BAL11_8  0.811377693579
    R4_8  BAL15_8  0.554511514871
    R4_8  BAL16_8  0.334707638194
    R4_8  BAL17_8  0.46369847723
    R4_8  CAP8  1
    R4_9  COST  12.3812826569
    R4_9  BAL0_9  0.259510058093
    R4_9  BAL2_9  0.555414566564
    R4_9  BAL3_9  0.706440942866
    R4_9  BAL11_9  0.811377693579
    R4_9  BAL15_9  0.554511514871
    R4_9  BAL16_9  0.334707638194
    R4_9  BAL17_9  0.46369847723
    R4_9  CAP9  1
    R4_10  COST  12.3812826569
    R4_10  BAL0_10  0.259510058093
    R4_10  BAL2_10  0.555414566564
    R4_10  BAL3_10  0.706440942866
    R4_10  BAL11_10  0.811377693579
    R4_10  BAL15_10  0.554511514871
    R4_10  BAL16_10  0.334707638194
    R4_10  BAL17_10  0.46369847723
    R4_10  CAP10  1
    R4_11  COST  12.3812826569
    R4_11  BAL0_11  0.259510058093
    R4_11  BAL2_11  0.555414566564
    R4_11  BAL3_11  0.706440942866
    R4_11  BAL11_11  0.811377693579
    R4_11  BAL15_11  0.554511514871
    R4_11  BAL16_11  0.334707638194
    R4_11  BAL17_11  0.46369847723
    R4_11  CAP11  1
    R4_12  COST  12.3812826569
    R4_12  BAL0_12  0.259510058093
    R4_12  BAL2_12  0.555414566564
    R4_12  BAL3_12  0.706440942866
    R4_12  BAL11_12  0.811377693579
    R4_12  BAL15_12  0.554511514871
    R4_12  BAL16_12  0.334707638194
    R4_12  BAL17_12  0.46369847723
    R4_12  CAP12  1
    R4_13  COST  12.3812826569
    R4_13  BAL0_13  0.259510058093
    R4_13  BAL2_13  0.555414566564
    R4_13  BAL3_13  0.706440942866
    R4_13  BAL11_13  0.811377693579
    R4_13  BAL15_13  0.554511514871
    R4_13  BAL16_13  0.334707638194
    R4_13  BAL17_13  0.46369847723
    R4_13  CAP13  1
    R4_14  COST  12.3812826569
    R4_14  BAL0_14  0.259510058093
    R4_14  BAL2_14  0.555414566564
    R4_14  BAL3_14  0.706440942866
    R4_14  BAL11_14  0.811377693579
    R4_14  BAL15_14  0.554511514871
    R4_14  BAL16_14  0.334707638194
    R4_14  BAL17_14  0.46369847723
    R4_14  CAP14  1
    R4_15  COST  12.3812826569
    R4_15  BAL0_15  0.259510058093
    R4_15  BAL2_15  0.555414566564
    R4_15  BAL3_15  0.706440942866
    R4_15  BAL11_15  0.811377693579
    R4_15  BAL15_15  0.554511514871
    R4_15  BAL16_15  0.334707638194
    R4_15  BAL17_15  0.46369847723
    R4_15  CAP15  1
    R4_16  COST  12.3812826569
    R4_16  BAL0_16  0.259510058093
    R4_16  BAL2_16  0.555414566564
    R4_16  BAL3_16  0.706440942866
    R4_16  BAL11_16  0.811377693579
    R4_16  BAL15_16  0.554511514871
    R4_16  BAL16_16  0.334707638194
    R4_16  BAL17_16  0.46369847723
    R4_16  CAP16  1
    R4_17  COST  12.3812826569
    R4_17  BAL0_17  0.259510058093
    R4_17  BAL2_17  0.555414566564
    R4_17  BAL3_17  0.706440942866
    R4_17  BAL11_17  0.811377693579
    R4_17  BAL15_17  0.554511514871
    R4_17  BAL16_17  0.334707638194
    R4_17  BAL17_17  0.46369847723
    R4_17  CAP17  1
    R4_18  COST  12.3812826569
    R4_18  BAL0_18  0.259510058093
    R4_18  BAL2_18  0.555414566564
    R4_18  BAL3_18  0.706440942866
    R4_18  BAL11_18  0.811377693579
    R4_18  BAL15_18  0.554511514871
    R4_18  BAL16_18  0.334707638194
    R4_18  BAL17_18  0.46369847723
    R4_18  CAP18  1
    R4_19  COST  12.3812826569
    R4_19  BAL0_19  0.259510058093
    R4_19  BAL2_19  0.555414566564
    R4_19  BAL3_19  0.706440942866
    R4_19  BAL11_19  0.811377693579
    R4_19  BAL15_19  0.554511514871
    R4_19  BAL16_19  0.334707638194
    R4_19  BAL17_19  0.46369847723
    R4_19  CAP19  1
    R4_20  COST  12.3812826569
    R4_20  BAL0_20  0.259510058093
    R4_20  BAL2_20  0.555414566564
    R4_20  BAL3_20  0.706440942866
    R4_20  BAL11_20  0.811377693579
    R4_20  BAL15_20  0.554511514871
    R4_20  BAL16_20  0.334707638194
    R4_20  BAL17_20  0.46369847723
    R4_20  CAP20  1
    R4_21  COST  12.3812826569
    R4_21  BAL0_21  0.259510058093
    R4_21  BAL2_21  0.555414566564
    R4_21  BAL3_21  0.706440942866
    R4_21  BAL11_21  0.811377693579
    R4_21  BAL15_21  0.554511514871
    R4_21  BAL16_21  0.334707638194
    R4_21  BAL17_21  0.46369847723
    R4_21  CAP21  1
    R4_22  COST  12.3812826569
    R4_22  BAL0_22  0.259510058093
    R4_22  BAL2_22  0.555414566564
    R4_22  BAL3_22  0.706440942866
    R4_22  BAL11_22  0.811377693579
    R4_22  BAL15_22  0.554511514871
    R4_22  BAL16_22  0.334707638194
    R4_22  BAL17_22  0.46369847723
    R4_22  CAP22  1
    R4_23  COST  12.3812826569
    R4_23  BAL0_23  0.259510058093
    R4_23  BAL2_23  0.555414566564
    R4_23  BAL3_23  0.706440942866
    R4_23  BAL11_23  0.811377693579
    R4_23  BAL15_23  0.554511514871
    R4_23  BAL16_23  0.334707638194
    R4_23  BAL17_23  0.46369847723
    R4_23  CAP23  1
    R5_0  COST  16.4118370847
    R5_0  BAL1_0  0.808698193737
    R5_0  BAL5_0  0.685710915121
    R5_0  BAL8_0  0.48386085598
    R5_0  BAL10_0  0.537823975215
    R5_0  BAL17_0  0.474882734146
    R5_0  CAP0  1
    R5_1  COST  16.4118370847
    R5_1  BAL1_1  0.808698193737
    R5_1  BAL5_1  0.685710915121
    R5_1  BAL8_1  0.48386085598
    R5_1  BAL10_1  0.537823975215
    R5_1  BAL17_1  0.474882734146
    R5_1  CAP1  1
    R5_2  COST  16.4118370847
    R5_2  BAL1_2  0.808698193737
    R5_2  BAL5_2  0.685710915121
    R5_2  BAL8_2  0.48386085598
    R5_2  BAL10_2  0.537823975215
    R5_2  BAL17_2  0.474882734146
    R5_2  CAP2  1
    R5_3  COST  16.4118370847
    R5_3  BAL1_3  0.808698193737
    R5_3  BAL5_3  0.685710915121
    R5_3  BAL8_3  0.48386085598
    R5_3  BAL10_3  0.537823975215
    R5_3  BAL17_3  0.474882734146
    R5_3  CAP3  1
    R5_4  COST  16.4118370847
    R5_4  BAL1_4  0.808698193737
    R5_4  BAL5_4  0.685710915121
    R5_4  BAL8_4  0.48386085598
    R5_4  BAL10_4  0.537823975215
    R5_4  BAL17_4  0.474882734146
    R5_4  CAP4  1
    R5_5  COST  16.4118370847
    R5_5  BAL1_5  0.808698193737
    R5_5  BAL5_5  0.685710915121
    R5_5  BAL8_5  0.48386085598
    R5_5  BAL10_5  0.537823975215
    R5_5  BAL17_5  0.474882734146
    R5_5  CAP5  1
    R5_6  COST  16.4118370847
    R5_6  BAL1_6  0.808698193737
    R5_6  BAL5_6  0.685710915121
    R5_6  BAL8_6  0.48386085598
    R5_6  BAL10_6  0.537823975215
    R5_6  BAL17_6  0.474882734146
    R5_6  CAP6  1
    R5_7  COST  16.4118370847
    R5_7  BAL1_7  0.808698193737
    R5_7  BAL5_7  0.685710915121
    R5_7  BAL8_7  0.48386085598
    R5_7  BAL10_7  0.537823975215
    R5_7  BAL17_7  0.474882734146
    R5_7  CAP7  1
    R5_8  COST  16.4118370847
    R5_8  BAL1_8  0.808698193737
    R5_8  BAL5_8  0.685710915121
    R5_8  BAL8_8  0.48386085598
    R5_8  BAL10_8  0.537823975215
    R5_8  BAL17_8  0.474882734146
    R5_8  CAP8  1
    R5_9  COST  16.4118370847
    R5_9  BAL1_9  0.808698193737
    R5_9  BAL5_9  0.685710915121
    R5_9  BAL8_9  0.48386085598
    R5_9  BAL10_9  0.537823975215
    R5_9  BAL17_9  0.474882734146
    R5_9  CAP9  1
    R5_10  COST  16.4118370847
    R5_10  BAL1_10  0.808698193737
    R5_10  BAL5_10  0.685710915121
    R5_10  BAL8_10  0.48386085598
    R5_10  BAL10_10  0.537823975215
    R5_10  BAL17_10  0.474882734146
    R5_10  CAP10  1
    R5_11  COST  16.4118370847
    R5_11  BAL1_11  0.808698193737
    R5_11  BAL5_11  0.685710915121
    R5_11  BAL8_11  0.48386085598
    R5_11  BAL10_11  0.537823975215
    R5_11  BAL17_11  0.474882734146
    R5_11  CAP11  1
    R5_12  COST  16.4118370847
    R5_12  BAL1_12  0.808698193737
    R5_12  BAL5_12  0.685710915121
    R5_12  BAL8_12  0.48386085598
    R5_12  BAL10_12  0.537823975215
    R5_12  BAL17_12  0.474882734146
    R5_12  CAP12  1
    R5_13  COST  16.4118370847
    R5_13  BAL1_13  0.808698193737
    R5_13  BAL5_13  0.685710915121
    R5_13  BAL8_13  0.48386085598
    R5_13  BAL10_13  0.537823975215
    R5_13  BAL17_13  0.474882734146
    R5_13  CAP13  1
    R5_14  COST  16.4118370847
    R5_14  BAL1_14  0.808698193737
    R5_14  BAL5_14  0.685710915121
    R5_14  BAL8_14  0.48386085598
    R5_14  BAL10_14  0.537823975215
    R5_14  BAL17_14  0.474882734146
    R5_14  CAP14  1
    R5_15  COST  16.4118370847
    R5_15  BAL1_15  0.808698193737
    R5_15  BAL5_15  0.685710915121
    R5_15  BAL8_15  0.48386085598
    R5_15  BAL10_15  0.537823975215
    R5_15  BAL17_15  0.474882734146
    R5_15  CAP15  1
    R5_16  COST  16.4118370847
    R5_16  BAL1_16  0.808698193737
    R5_16  BAL5_16  0.685710915121
    R5_16  BAL8_16  0.48386085598
    R5_16  BAL10_16  0.537823975215
    R5_16  BAL17_16  0.474882734146
    R5_16  CAP16  1
    R5_17  COST  16.4118370847
    R5_17  BAL1_17  0.808698193737
    R5_17  BAL5_17  0.685710915121
    R5_17  BAL8_17  0.48386085598
    R5_17  BAL10_17  0.537823975215
    R5_17  BAL17_17  0.474882734146
    R5_17  CAP17  1
    R5_18  COST  16.4118370847
    R5_18  BAL1_18  0.808698193737
    R5_18  BAL5_18  0.685710915121
    R5_18  BAL8_18  0.48386085598
    R5_18  BAL10_18  0.537823975215
    R5_18  BAL17_18  0.474882734146
    R5_18  CAP18  1
    R5_19  COST  16.4118370847
    R5_19  BAL1_19  0.808698193737
    R5_19  BAL5_19  0.685710915121
    R5_19  BAL8_19  0.48386085598
    R5_19  BAL10_19  0.537823975215
    R5_19  BAL17_19  0.474882734146
    R5_19  CAP19  1
    R5_20  COST  16.4118370847
    R5_20  BAL1_20  0.808698193737
    R5_20  BAL5_20  0.685710915121
    R5_20  BAL8_20  0.48386085598
    R5_20  BAL10_20  0.537823975215
    R5_20  BAL17_20  0.474882734146
    R5_20  CAP20  1
    R5_21  COST  16.4118370847
    R5_21  BAL1_21  0.808698193737
    R5_21  BAL5_21  0.685710915121
    R5_21  BAL8_21  0.48386085598
    R5_21  BAL10_21  0.537823975215
    R5_21  BAL17_21  0.474882734146
    R5_21  CAP21  1
    R5_22  COST  16.4118370847
    R5_22  BAL1_22  0.808698193737
    R5_22  BAL5_22  0.685710915121
    R5_22  BAL8_22  0.48386085598
    R5_22  BAL10_22  0.537823975215
    R5_22  BAL17_22  0.474882734146
    R5_22  CAP22  1
    R5_23  COST  16.4118370847
    R5_23  BAL1_23  0.808698193737
    R5_23  BAL5_23  0.685710915121
    R5_23  BAL8_23  0.48386085598
    R5_23  BAL10_23  0.537823975215
    R5_23  BAL17_23  0.474882734146
    R5_23  CAP23  1
    R6_0  COST  8.31230400966
    R6_0  BAL1_0  0.94738158591
    R6_0  BAL4_0  0.463445164525
    R6_0  BAL7_0  0.899476753301
    R6_0  BAL8_0  0.890260679257
    R6_0  BAL12_0  0.37241429372
    R6_0  BAL13_0  0.651623120405
    R6_0  BAL14_0  0.527393556561
    R6_0  BAL17_0  0.712463304969
    R6_0  CAP0  1
    R6_1  COST  8.31230400966
    R6_1  BAL1_1  0.94738158591
    R6_1  BAL4_1  0.463445164525
    R6_1  BAL7_1  0.899476753301
    R6_1  BAL8_1  0.890260679257
    R6_1  BAL12_1  0.37241429372
    R6_1  BAL13_1  0.651623120405
    R6_1  BAL14_1  0.527393556561
    R6_1  BAL17_1  0.712463304969
    R6_1  CAP1  1
    R6_2  COST  8.31230400966
    R6_2  BAL1_2  0.94738158591
    R6_2  BAL4_2  0.463445164525
    R6_2  BAL7_2  0.899476753301
    R6_2  BAL8_2  0.890260679257
    R6_2  BAL12_2  0.37241429372
    R6_2  BAL13_2  0.651623120405
    R6_2  BAL14_2  0.527393556561
    R6_2  BAL17_2  0.712463304969
    R6_2  CAP2  1
    R6_3  COST  8.31230400966
    R6_3  BAL1_3  0.94738158591
    R6_3  BAL4_3  0.463445164525
    R6_3  BAL7_3  0.899476753301
    R6_3  BAL8_3  0.890260679257
    R6_3  BAL12_3  0.37241429372
    R6_3  BAL13_3  0.651623120405
    R6_3  BAL14_3  0.527393556561
    R6_3  BAL17_3  0.712463304969
    R6_3  CAP3  1
    R6_4  COST  8.31230400966
    R6_4  BAL1_4  0.94738158591
    R6_4  BAL4_4  0.463445164525
    R6_4  BAL7_4  0.899476753301
    R6_4  BAL8_4  0.890260679257
    R6_4  BAL12_4  0.37241429372
    R6_4  BAL13_4  0.651623120405
    R6_4  BAL14_4  0.527393556561
    R6_4  BAL17_4  0.712463304969
    R6_4  CAP4  1
    R6_5  COST  8.31230400966
    R6_5  BAL1_5  0.94738158591
    R6_5  BAL4_5  0.463445164525
    R6_5  BAL7_5  0.899476753301
    R6_5  BAL8_5  0.890260679257
    R6_5  BAL12_5  0.37241429372
    R6_5  BAL13_5  0.651623120405
    R6_5  BAL14_5  0.527393556561
    R6_5  BAL17_5  0.712463304969
    R6_5  CAP5  1
    R6_6  COST  8.31230400966
    R6_6  BAL1_6  0.94738158591
    R6_6  BAL4_6  0.463445164525
    R6_6  BAL7_6  0.899476753301
    R6_6  BAL8_6  0.890260679257
    R6_6  BAL12_6  0.37241429372
    R6_6  BAL13_6  0.651623120405
    R6_6  BAL14_6  0.527393556561
    R6_6  BAL17_6  0.712463304969
    R6_6  CAP6  1
    R6_7  COST  8.31230400966
    R6_7  BAL1_7  0.94738158591
    R6_7  BAL4_7  0.463445164525
    R6_7  BAL7_7  0.899476753301
    R6_7  BAL8_7  0.890260679257
    R6_7  BAL12_7  0.37241429372
    R6_7  BAL13_7  0.651623120405
    R6_7  BAL14_7  0.527393556561
    R6_7  BAL17_7  0.712463304969
    R6_7  CAP7  1
    R6_8  COST  8.31230400966
    R6_8  BAL1_8  0.94738158591
    R6_8  BAL4_8  0.463445164525
    R6_8  BAL7_8  0.899476753301
    R6_8  BAL8_8  0.890260679257
    R6_8  BAL12_8  0.37241429372
    R6_8  BAL13_8  0.651623120405
    R6_8  BAL14_8  0.527393556561
    R6_8  BAL17_8  0.712463304969
    R6_8  CAP8  1
    R6_9  COST  8.31230400966
    R6_9  BAL1_9  0.94738158591
    R6_9  BAL4_9  0.463445164525
    R6_9  BAL7_9  0.899476753301
    R6_9  BAL8_9  0.890260679257
    R6_9  BAL12_9  0.37241429372
    R6_9  BAL13_9  0.651623120405
    R6_9  BAL14_9  0.527393556561
    R6_9  BAL17_9  0.712463304969
    R6_9  CAP9  1
    R6_10  COST  8.31230400966
    R6_10  BAL1_10  0.94738158591
    R6_10  BAL4_10  0.463445164525
    R6_10  BAL7_10  0.899476753301
    R6_10  BAL8_10  0.890260679257
    R6_10  BAL12_10  0.37241429372
    R6_10  BAL13_10  0.651623120405
    R6_10  BAL14_10  0.527393556561
    R6_10  BAL17_10  0.712463304969
    R6_10  CAP10  1
    R6_11  COST  8.31230400966
    R6_11  BAL1_11  0.94738158591
    R6_11  BAL4_11  0.463445164525
    R6_11  BAL7_11  0.899476753301
    R6_11  BAL8_11  0.890260679257
    R6_11  BAL12_11  0.37241429372
    R6_11  BAL13_11  0.651623120405
    R6_11  BAL14_11  0.527393556561
    R6_11  BAL17_11  0.712463304969
    R6_11  CAP11  1
    R6_12  COST  8.31230400966
    R6_12  BAL1_12  0.94738158591
    R6_12  BAL4_12  0.463445164525
    R6_12  BAL7_12  0.899476753301
    R6_12  BAL8_12  0.890260679257
    R6_12  BAL12_12  0.37241429372
    R6_12  BAL13_12  0.651623120405
    R6_12  BAL14_12  0.527393556561
    R6_12  BAL17_12  0.712463304969
    R6_12  CAP12  1
    R6_13  COST  8.31230400966
    R6_13  BAL1_13  0.94738158591
    R6_13  BAL4_13  0.463445164525
    R6_13  BAL7_13  0.899476753301
    R6_13  BAL8_13  0.890260679257
    R6_13  BAL12_13  0.37241429372
    R6_13  BAL13_13  0.651623120405
    R6_13  BAL14_13  0.527393556561
    R6_13  BAL17_13  0.712463304969
    R6_13  CAP13  1
    R6_14  COST  8.31230400966
    R6_14  BAL1_14  0.94738158591
    R6_14  BAL4_14  0.463445164525
    R6_14  BAL7_14  0.899476753301
    R6_14  BAL8_14  0.890260679257
    R6_14  BAL12_14  0.37241429372
    R6_14  BAL13_14  0.651623120405
    R6_14  BAL14_14  0.527393556561
    R6_14  BAL17_14  0.712463304969
    R6_14  CAP14  1
    R6_15  COST  8.31230400966
    R6_15  BAL1_15  0.94738158591
    R6_15  BAL4_15  0.463445164525
    R6_15  BAL7_15  0.899476753301
    R6_15  BAL8_15  0.890260679257
    R6_15  BAL12_15  0.37241429372
    R6_15  BAL13_15  0.651623120405
    R6_15  BAL14_15  0.527393556561
    R6_15  BAL17_15  0.712463304969
    R6_15  CAP15  1
    R6_16  COST  8.31230400966
    R6_16  BAL1_16  0.94738158591
    R6_16  BAL4_16  0.463445164525
    R6_16  BAL7_16  0.899476753301
    R6_16  BAL8_16  0.890260679257
    R6_16  BAL12_16  0.37241429372
    R6_16  BAL13_16  0.651623120405
    R6_16  BAL14_16  0.527393556561
    R6_16  BAL17_16  0.712463304969
    R6_16  CAP16  1
    R6_17  COST  8.31230400966
    R6_17  BAL1_17  0.94738158591
    R6_17  BAL4_17  0.463445164525
    R6_17  BAL7_17  0.899476753301
    R6_17  BAL8_17  0.890260679257
    R6_17  BAL12_17  0.37241429372
    R6_17  BAL13_17  0.651623120405
    R6_17  BAL14_17  0.527393556561
    R6_17  BAL17_17  0.712463304969
    R6_17  CAP17  1
    R6_18  COST  8.31230400966
    R6_18  BAL1_18  0.94738158591
    R6_18  BAL4_18  0.463445164525
    R6_18  BAL7_18  0.899476753301
    R6_18  BAL8_18  0.890260679257
    R6_18  BAL12_18  0.37241429372
    R6_18  BAL13_18  0.651623120405
    R6_18  BAL14_18  0.527393556561
    R6_18  BAL17_18  0.712463304969
    R6_18  CAP18  1
    R6_19  COST  8.31230400966
    R6_19  BAL1_19  0.94738158591
    R6_19  BAL4_19  0.463445164525
    R6_19  BAL7_19  0.899476753301
    R6_19  BAL8_19  0.890260679257
    R6_19  BAL12_19  0.37241429372
    R6_19  BAL13_19  0.651623120405
    R6_19  BAL14_19  0.527393556561
    R6_19  BAL17_19  0.712463304969
    R6_19  CAP19  1
    R6_20  COST  8.31230400966
    R6_20  BAL1_20  0.94738158591
    R6_20  BAL4_20  0.463445164525
    R6_20  BAL7_20  0.899476753301
    R6_20  BAL8_20  0.890260679257
    R6_20  BAL12_20  0.37241429372
    R6_20  BAL13_20  0.651623120405
    R6_20  BAL14_20  0.527393556561
    R6_20  BAL17_20  0.712463304969
    R6_20  CAP20  1
    R6_21  COST  8.31230400966
    R6_21  BAL1_21  0.94738158591
    R6_21  BAL4_21  0.463445164525
    R6_21  BAL7_21  0.899476753301
    R6_21  BAL8_21  0.890260679257
    R6_21  BAL12_21  0.37241429372
    R6_21  BAL13_21  0.651623120405
    R6_21  BAL14_21  0.527393556561
    R6_21  BAL17_21  0.712463304969
    R6_21  CAP21  1
    R6_22  COST  8.31230400966
    R6_22  BAL1_22  0.94738158591
    R6_22  BAL4_22  0.463445164525
    R6_22  BAL7_22  0.899476753301
    R6_22  BAL8_22  0.890260679257
    R6_22  BAL12_22  0.37241429372
    R6_22  BAL13_22  0.651623120405
    R6_22  BAL14_22  0.527393556561
    R6_22  BAL17_22  0.712463304969
    R6_22  CAP22  1
    R6_23  COST  8.31230400966
    R6_23  BAL1_23  0.94738158591
    R6_23  BAL4_23  0.463445164525
    R6_23  BAL7_23  0.899476753301
    R6_23  BAL8_23  0.890260679257
    R6_23  BAL12_23  0.37241429372
    R6_23  BAL13_23  0.651623120405
    R6_23  BAL14_23  0.527393556561
    R6_23  BAL17_23  0.712463304969
    R6_23  CAP23  1
    R7_0  COST  15.7347521673
    R7_0  BAL1_0  0.427674520853
    R7_0  BAL2_0  0.521345733874
    R7_0  BAL3_0  0.588245647699
    R7_0  BAL11_0  0.736666849408
    R7_0  BAL16_0  0.518920351911
    R7_0  BAL17_0  0.653428924155
    R7_0  CAP0  1
    R7_1  COST  15.7347521673
    R7_1  BAL1_1  0.427674520853
    R7_1  BAL2_1  0.521345733874
    R7_1  BAL3_1  0.588245647699
    R7_1  BAL11_1  0.736666849408
    R7_1  BAL16_1  0.518920351911
    R7_1  BAL17_1  0.653428924155
    R7_1  CAP1  1
    R7_2  COST  15.7347521673
    R7_2  BAL1_2  0.427674520853
    R7_2  BAL2_2  0.521345733874
    R7_2  BAL3_2  0.588245647699
    R7_2  BAL11_2  0.736666849408
    R7_2  BAL16_2  0.518920351911
    R7_2  BAL17_2  0.653428924155
    R7_2  CAP2  1
    R7_3  COST  15.7347521673
    R7_3  BAL1_3  0.427674520853
    R7_3  BAL2_3  0.521345733874
    R7_3  BAL3_3  0.588245647699
    R7_3  BAL11_3  0.736666849408
    R7_3  BAL16_3  0.518920351911
    R7_3  BAL17_3  0.653428924155
    R7_3  CAP3  1
    R7_4  COST  15.7347521673
    R7_4  BAL1_4  0.427674520853
    R7_4  BAL2_4  0.521345733874
    R7_4  BAL3_4  0.588245647699
    R7_4  BAL11_4  0.736666849408
    R7_4  BAL16_4  0.518920351911
    R7_4  BAL17_4  0.653428924155
    R7_4  CAP4  1
    R7_5  COST  15.7347521673
    R7_5  BAL1_5  0.427674520853
    R7_5  BAL2_5  0.521345733874
    R7_5  BAL3_5  0.588245647699
    R7_5  BAL11_5  0.736666849408
    R7_5  BAL16_5  0.518920351911
    R7_5  BAL17_5  0.653428924155
    R7_5  CAP5  1
    R7_6  COST  15.7347521673
    R7_6  BAL1_6  0.427674520853
    R7_6  BAL2_6  0.521345733874
    R7_6  BAL3_6  0.588245647699
    R7_6  BAL11_6  0.736666849408
    R7_6  BAL16_6  0.518920351911
    R7_6  BAL17_6  0.653428924155
    R7_6  CAP6  1
    R7_7  COST  15.7347521673
    R7_7  BAL1_7  0.427674520853
    R7_7  BAL2_7  0.521345733874
    R7_7  BAL3_7  0.588245647699
    R7_7  BAL11_7  0.736666849408
    R7_7  BAL16_7  0.518920351911
    R7_7  BAL17_7  0.653428924155
    R7_7  CAP7  1
    R7_8  COST  15.7347521673
    R7_8  BAL1_8  0.427674520853
    R7_8  BAL2_8  0.521345733874
    R7_8  BAL3_8  0.588245647699
    R7_8  BAL11_8  0.736666849408
    R7_8  BAL16_8  0.518920351911
    R7_8  BAL17_8  0.653428924155
    R7_8  CAP8  1
    R7_9  COST  15.7347521673
    R7_9  BAL1_9  0.427674520853
    R7_9  BAL2_9  0.521345733874
    R7_9  BAL3_9  0.588245647699
    R7_9  BAL11_9  0.736666849408
    R7_9  BAL16_9  0.518920351911
    R7_9  BAL17_9  0.653428924155
    R7_9  CAP9  1
    R7_10  COST  15.7347521673
    R7_10  BAL1_10  0.427674520853
    R7_10  BAL2_10  0.521345733874
    R7_10  BAL3_10  0.588245647699
    R7_10  BAL11_10  0.736666849408
    R7_10  BAL16_10  0.518920351911
    R7_10  BAL17_10  0.653428924155
    R7_10  CAP10  1
    R7_11  COST  15.7347521673
    R7_11  BAL1_11  0.427674520853
    R7_11  BAL2_11  0.521345733874
    R7_11  BAL3_11  0.588245647699
    R7_11  BAL11_11  0.736666849408
    R7_11  BAL16_11  0.518920351911
    R7_11  BAL17_11  0.653428924155
    R7_11  CAP11  1
    R7_12  COST  15.7347521673
    R7_12  BAL1_12  0.427674520853
    R7_12  BAL2_12  0.521345733874
    R7_12  BAL3_12  0.588245647699
    R7_12  BAL11_12  0.736666849408
    R7_12  BAL16_12  0.518920351911
    R7_12  BAL17_12  0.653428924155
    R7_12  CAP12  1
    R7_13  COST  15.7347521673
    R7_13  BAL1_13  0.427674520853
    R7_13  BAL2_13  0.521345733874
    R7_13  BAL3_13  0.588245647699
    R7_13  BAL11_13  0.736666849408
    R7_13  BAL16_13  0.518920351911
    R7_13  BAL17_13  0.653428924155
    R7_13  CAP13  1
    R7_14  COST  15.7347521673
    R7_14  BAL1_14  0.427674520853
    R7_14  BAL2_14  0.521345733874
    R7_14  BAL3_14  0.588245647699
    R7_14  BAL11_14  0.736666849408
    R7_14  BAL16_14  0.518920351911
    R7_14  BAL17_14  0.653428924155
    R7_14  CAP14  1
    R7_15  COST  15.7347521673
    R7_15  BAL1_15  0.427674520853
    R7_15  BAL2_15  0.521345733874
    R7_15  BAL3_15  0.588245647699
    R7_15  BAL11_15  0.736666849408
    R7_15  BAL16_15  0.518920351911
    R7_15  BAL17_15  0.653428924155
    R7_15  CAP15  1
    R7_16  COST  15.7347521673
    R7_16  BAL1_16  0.427674520853
    R7_16  BAL2_16  0.521345733874
    R7_16  BAL3_16  0.588245647699
    R7_16  BAL11_16  0.736666849408
    R7_16  BAL16_16  0.518920351911
    R7_16  BAL17_16  0.653428924155
    R7_16  CAP16  1
    R7_17  COST  15.7347521673
    R7_17  BAL1_17  0.427674520853
    R7_17  BAL2_17  0.521345733874
    R7_17  BAL3_17  0.588245647699
    R7_17  BAL11_17  0.736666849408
    R7_17  BAL16_17  0.518920351911
    R7_17  BAL17_17  0.653428924155
    R7_17  CAP17  1
    R7_18  COST  15.7347521673
    R7_18  BAL1_18  0.427674520853
    R7_18  BAL2_18  0.521345733874
    R7_18  BAL3_18  0.588245647699
    R7_18  BAL11_18  0.736666849408
    R7_18  BAL16_18  0.518920351911
    R7_18  BAL17_18  0.653428924155
    R7_18  CAP18  1
    R7_19  COST  15.7347521673
    R7_19  BAL1_19  0.427674520853
    R7_19  BAL2_19  0.521345733874
    R7_19  BAL3_19  0.588245647699
    R7_19  BAL11_19  0.736666849408
    R7_19  BAL16_19  0.518920351911
    R7_19  BAL17_19  0.653428924155
    R7_19  CAP19  1
    R7_20  COST  15.7347521673
    R7_20  BAL1_20  0.427674520853
    R7_20  BAL2_20  0.521345733874
    R7_20  BAL3_20  0.588245647699
    R7_20  BAL11_20  0.736666849408
    R7_20  BAL16_20  0.518920351911
    R7_20  BAL17_20  0.653428924155
    R7_20  CAP20  1
    R7_21  COST  15.7347521673
    R7_21  BAL1_21  0.427674520853
    R7_21  BAL2_21  0.521345733874
    R7_21  BAL3_21  0.588245647699
    R7_21  BAL11_21  0.736666849408
    R7_21  BAL16_21  0.518920351911
    R7_21  BAL17_21  0.653428924155
    R7_21  CAP21  1
    R7_22  COST  15.7347521673
    R7_22  BAL1_22  0.427674520853
    R7_22  BAL2_22  0.521345733874
    R7_22  BAL3_22  0.588245647699
    R7_22  BAL11_22  0.736666849408
    R7_22  BAL16_22  0.518920351911
    R7_22  BAL17_22  0.653428924155
    R7_22  CAP22  1
    R7_23  COST  15.7347521673
    R7_23  BAL1_23  0.427674520853
    R7_23  BAL2_23  0.521345733874
    R7_23  BAL3_23  0.588245647699
    R7_23  BAL11_23  0.736666849408
    R7_23  BAL16_23  0.518920351911
    R7_23  BAL17_23  0.653428924155
    R7_23  CAP23  1
    R8_0  COST  19.2640487743
    R8_0  BAL1_0  0.870854866748
    R8_0  BAL3_0  0.515628162415
    R8_0  BAL7_0  0.903396193822
    R8_0  BAL10_0  0.909916702857
    R8_0  BAL12_0  0.527137724931
    R8_0  BAL13_0  0.271734747144
    R8_0  BAL16_0  0.594637612157
    R8_0  CAP0  1
    R8_1  COST  19.2640487743
    R8_1  BAL1_1  0.870854866748
    R8_1  BAL3_1  0.515628162415
    R8_1  BAL7_1  0.903396193822
    R8_1  BAL10_1  0.909916702857
    R8_1  BAL12_1  0.527137724931
    R8_1  BAL13_1  0.271734747144
    R8_1  BAL16_1  0.594637612157
    R8_1  CAP1  1
    R8_2  COST  19.2640487743
    R8_2  BAL1_2  0.870854866748
    R8_2  BAL3_2  0.515628162415
    R8_2  BAL7_2  0.903396193822
    R8_2  BAL10_2  0.909916702857
    R8_2  BAL12_2  0.527137724931
    R8_2  BAL13_2  0.271734747144
    R8_2  BAL16_2  0.594637612157
    R8_2  CAP2  1
    R8_3  COST  19.2640487743
    R8_3  BAL1_3  0.870854866748
    R8_3  BAL3_3  0.515628162415
    R8_3  BAL7_3  0.903396193822
    R8_3  BAL10_3  0.909916702857
    R8_3  BAL12_3  0.527137724931
    R8_3  BAL13_3  0.271734747144
    R8_3  BAL16_3  0.594637612157
    R8_3  CAP3  1
    R8_4  COST  19.2640487743
    R8_4  BAL1_4  0.870854866748
    R8_4  BAL3_4  0.515628162415
    R8_4  BAL7_4  0.903396193822
    R8_4  BAL10_4  0.909916702857
    R8_4  BAL12_4  0.527137724931
    R8_4  BAL13_4  0.271734747144
    R8_4  BAL16_4  0.594637612157
    R8_4  CAP4  1
    R8_5  COST  19.2640487743
    R8_5  BAL1_5  0.870854866748
    R8_5  BAL3_5  0.515628162415
    R8_5  BAL7_5  0.903396193822
    R8_5  BAL10_5  0.909916702857
    R8_5  BAL12_5  0.527137724931
    R8_5  BAL13_5  0.271734747144
    R8_5  BAL16_5  0.594637612157
    R8_5  CAP5  1
    R8_6  COST  19.2640487743
    R8_6  BAL1_6  0.870854866748
    R8_6  BAL3_6  0.515628162415
    R8_6  BAL7_6  0.903396193822
    R8_6  BAL10_6  0.909916702857
    R8_6  BAL12_6  0.527137724931
    R8_6  BAL13_6  0.271734747144
    R8_6  BAL16_6  0.594637612157
    R8_6  CAP6  1
    R8_7  COST  19.2640487743
    R8_7  BAL1_7  0.870854866748
    R8_7  BAL3_7  0.515628162415
    R8_7  BAL7_7  0.903396193822
    R8_7  BAL10_7  0.909916702857
    R8_7  BAL12_7  0.527137724931
    R8_7  BAL13_7  0.271734747144
    R8_7  BAL16_7  0.594637612157
    R8_7  CAP7  1
    R8_8  COST  19.2640487743
    R8_8  BAL1_8  0.870854866748
    R8_8  BAL3_8  0.515628162415
    R8_8  BAL7_8  0.903396193822
    R8_8  BAL10_8  0.909916702857
    R8_8  BAL12_8  0.527137724931
    R8_8  BAL13_8  0.271734747144
    R8_8  BAL16_8  0.594637612157
    R8_8  CAP8  1
    R8_9  COST  19.2640487743
    R8_9  BAL1_9  0.870854866748
    R8_9  BAL3_9  0.515628162415
    R8_9  BAL7_9  0.903396193822
    R8_9  BAL10_9  0.909916702857
    R8_9  BAL12_9  0.527137724931
    R8_9  BAL13_9  0.271734747144
    R8_9  BAL16_9  0.594637612157
    R8_9  CAP9  1
    R8_10  COST  19.2640487743
    R8_10  BAL1_10  0.870854866748
    R8_10  BAL3_10  0.515628162415
    R8_10  BAL7_10  0.903396193822
    R8_10  BAL10_10  0.909916702857
    R8_10  BAL12_10  0.527137724931
    R8_10  BAL13_10  0.271734747144
    R8_10  BAL16_10  0.594637612157
    R8_10  CAP10  1
    R8_11  COST  19.2640487743
    R8_11  BAL1_11  0.870854866748
    R8_11  BAL3_11  0.515628162415
    R8_11  BAL7_11  0.903396193822
    R8_11  BAL10_11  0.909916702857
    R8_11  BAL12_11  0.527137724931
    R8_11  BAL13_11  0.271734747144
    R8_11  BAL16_11  0.594637612157
    R8_11  CAP11  1
    R8_12  COST  19.2640487743
    R8_12  BAL1_12  0.870854866748
    R8_12  BAL3_12  0.515628162415
    R8_12  BAL7_12  0.903396193822
    R8_12  BAL10_12  0.909916702857
    R8_12  BAL12_12  0.527137724931
    R8_12  BAL13_12  0.271734747144
    R8_12  BAL16_12  0.594637612157
    R8_12  CAP12  1
    R8_13  COST  19.2640487743
    R8_13  BAL1_13  0.870854866748
    R8_13  BAL3_13  0.515628162415
    R8_13  BAL7_13  0.903396193822
    R8_13  BAL10_13  0.909916702857
    R8_13  BAL12_13  0.527137724931
    R8_13  BAL13_13  0.271734747144
    R8_13  BAL16_13  0.594637612157
    R8_13  CAP13  1
    R8_14  COST  19.2640487743
    R8_14  BAL1_14  0.870854866748
    R8_14  BAL3_14  0.515628162415
    R8_14  BAL7_14  0.903396193822
    R8_14  BAL10_14  0.909916702857
    R8_14  BAL12_14  0.527137724931
    R8_14  BAL13_14  0.271734747144
    R8_14  BAL16_14  0.594637612157
    R8_14  CAP14  1
    R8_15  COST  19.2640487743
    R8_15  BAL1_15  0.870854866748
    R8_15  BAL3_15  0.515628162415
    R8_15  BAL7_15  0.903396193822
    R8_15  BAL10_15  0.909916702857
    R8_15  BAL12_15  0.527137724931
    R8_15  BAL13_15  0.271734747144
    R8_15  BAL16_15  0.594637612157
    R8_15  CAP15  1
    R8_16  COST  19.2640487743
    R8_16  BAL1_16  0.870854866748
    R8_16  BAL3_16  0.515628162415
    R8_16  BAL7_16  0.903396193822
    R8_16  BAL10_16  0.909916702857
    R8_16  BAL12_16  0.527137724931
    R8_16  BAL13_16  0.271734747144
    R8_16  BAL16_16  0.594637612157
    R8_16  CAP16  1
    R8_17  COST  19.2640487743
    R8_17  BAL1_17  0.870854866748
    R8_17  BAL3_17  0.515628162415
    R8_17  BAL7_17  0.903396193822
    R8_17  BAL10_17  0.909916702857
    R8_17  BAL12_17  0.527137724931
    R8_17  BAL13_17  0.271734747144
    R8_17  BAL16_17  0.594637612157
    R8_17  CAP17  1
    R8_18  COST  19.2640487743
    R8_18  BAL1_18  0.870854866748
    R8_18  BAL3_18  0.515628162415
    R8_18  BAL7_18  0.903396193822
    R8_18  BAL10_18  0.909916702857
    R8_18  BAL12_18  0.527137724931
    R8_18  BAL13_18  0.271734747144
    R8_18  BAL16_18  0.594637612157
    R8_18  CAP18  1
    R8_19  COST  19.2640487743
    R8_19  BAL1_19  0.870854866748
    R8_19  BAL3_19  0.515628162415
    R8_19  BAL7_19  0.903396193822
    R8_19  BAL10_19  0.909916702857
    R8_19  BAL12_19  0.527137724931
    R8_19  BAL13_19  0.271734747144
    R8_19  BAL16_19  0.594637612157
    R8_19  CAP19  1
    R8_20  COST  19.2640487743
    R8_20  BAL1_20  0.870854866748
    R8_20  BAL3_20  0.515628162415
    R8_20  BAL7_20  0.903396193822
    R8_20  BAL10_20  0.909916702857
    R8_20  BAL12_20  0.527137724931
    R8_20  BAL13_20  0.271734747144
    R8_20  BAL16_20  0.594637612157
    R8_20  CAP20  1
    R8_21  COST  19.2640487743
    R8_21  BAL1_21  0.870854866748
    R8_21  BAL3_21  0.515628162415
    R8_21  BAL7_21  0.903396193822
    R8_21  BAL10_21  0.909916702857
    R8_21  BAL12_21  0.527137724931
    R8_21  BAL13_21  0.271734747144
    R8_21  BAL16_21  0.594637612157
    R8_21  CAP21  1
    R8_22  COST  19.2640487743
    R8_22  BAL1_22  0.870854866748
    R8_22  BAL3_22  0.515628162415
    R8_22  BAL7_22  0.903396193822
    R8_22  BAL10_22  0.909916702857
    R8_22  BAL12_22  0.527137724931
    R8_22  BAL13_22  0.271734747144
    R8_22  BAL16_22  0.594637612157
    R8_22  CAP22  1
    R8_23  COST  19.2640487743
    R8_23  BAL1_23  0.870854866748
    R8_23  BAL3_23  0.515628162415
    R8_23  BAL7_23  0.903396193822
    R8_23  BAL10_23  0.909916702857
    R8_23  BAL12_23  0.527137724931
    R8_23  BAL13_23  0.271734747144
    R8_23  BAL16_23  0.594637612157
    R8_23  CAP23  1
    R9_0  COST  13.3223370201
    R9_0  BAL0_0  0.214896359071
    R9_0  BAL1_0  0.304081276184
    R9_0  BAL2_0  0.406124334084
    R9_0  BAL6_0  0.179937222175
    R9_0  BAL7_0  0.653350744361
    R9_0  BAL12_0  0.852759785505
    R9_0  BAL13_0  0.303603376574
    R9_0  BAL14_0  0.696642199599
    R9_0  BAL15_0  0.190196606584
    R9_0  BAL16_0  0.509855112963
    R9_0  CAP0  1
    R9_1  COST  13.3223370201
    R9_1  BAL0_1  0.214896359071
    R9_1  BAL1_1  0.304081276184
    R9_1  BAL2_1  0.406124334084
    R9_1  BAL6_1  0.179937222175
    R9_1  BAL7_1  0.653350744361
    R9_1  BAL12_1  0.852759785505
    R9_1  BAL13_1  0.303603376574
    R9_1  BAL14_1  0.696642199599
    R9_1  BAL15_1  0.190196606584
    R9_1  BAL16_1  0.509855112963
    R9_1  CAP1  1
    R9_2  COST  13.3223370201
    R9_2  BAL0_2  0.214896359071
    R9_2  BAL1_2  0.304081276184
    R9_2  BAL2_2  0.406124334084
    R9_2  BAL6_2  0.179937222175
    R9_2  BAL7_2  0.653350744361
    R9_2  BAL12_2  0.852759785505
    R9_2  BAL13_2  0.303603376574
    R9_2  BAL14_2  0.696642199599
    R9_2  BAL15_2  0.190196606584
    R9_2  BAL16_2  0.509855112963
    R9_2  CAP2  1
    R9_3  COST  13.3223370201
    R9_3  BAL0_3  0.214896359071
    R9_3  BAL1_3  0.304081276184
    R9_3  BAL2_3  0.406124334084
    R9_3  BAL6_3  0.179937222175
    R9_3  BAL7_3  0.653350744361
    R9_3  BAL12_3  0.852759785505
    R9_3  BAL13_3  0.303603376574
    R9_3  BAL14_3  0.696642199599
    R9_3  BAL15_3  0.190196606584
    R9_3  BAL16_3  0.509855112963
    R9_3  CAP3  1
    R9_4  COST  13.3223370201
    R9_4  BAL0_4  0.214896359071
    R9_4  BAL1_4  0.304081276184
    R9_4  BAL2_4  0.406124334084
    R9_4  BAL6_4  0.179937222175
    R9_4  BAL7_4  0.653350744361
    R9_4  BAL12_4  0.852759785505
    R9_4  BAL13_4  0.303603376574
    R9_4  BAL14_4  0.696642199599
    R9_4  BAL15_4  0.190196606584
    R9_4  BAL16_4  0.509855112963
    R9_4  CAP4  1
    R9_5  COST  13.3223370201
    R9_5  BAL0_5  0.214896359071
    R9_5  BAL1_5  0.304081276184
    R9_5  BAL2_5  0.406124334084
    R9_5  BAL6_5  0.179937222175
    R9_5  BAL7_5  0.653350744361
    R9_5  BAL12_5  0.852759785505
    R9_5  BAL13_5  0.303603376574
    R9_5  BAL14_5  0.696642199599
    R9_5  BAL15_5  0.190196606584
    R9_5  BAL16_5  0.509855112963
    R9_5  CAP5  1
    R9_6  COST  13.3223370201
    R9_6  BAL0_6  0.214896359071
    R9_6  BAL1_6  0.304081276184
    R9_6  BAL2_6  0.406124334084
    R9_6  BAL6_6  0.179937222175
    R9_6  BAL7_6  0.653350744361
    R9_6  BAL12_6  0.852759785505
    R9_6  BAL13_6  0.303603376574
    R9_6  BAL14_6  0.696642199599
    R9_6  BAL15_6  0.190196606584
    R9_6  BAL16_6  0.509855112963
    R9_6  CAP6  1
    R9_7  COST  13.3223370201
    R9_7  BAL0_7  0.214896359071
    R9_7  BAL1_7  0.304081276184
    R9_7  BAL2_7  0.406124334084
    R9_7  BAL6_7  0.179937222175
    R9_7  BAL7_7  0.653350744361
    R9_7  BAL12_7  0.852759785505
    R9_7  BAL13_7  0.303603376574
    R9_7  BAL14_7  0.696642199599
    R9_7  BAL15_7  0.190196606584
    R9_7  BAL16_7  0.509855112963
    R9_7  CAP7  1
    R9_8  COST  13.3223370201
    R9_8  BAL0_8  0.214896359071
    R9_8  BAL1_8  0.304081276184
    R9_8  BAL2_8  0.406124334084
    R9_8  BAL6_8  0.179937222175
    R9_8  BAL7_8  0.653350744361
    R9_8  BAL12_8  0.852759785505
    R9_8  BAL13_8  0.303603376574
    R9_8  BAL14_8  0.696642199599
    R9_8  BAL15_8  0.190196606584
    R9_8  BAL16_8  0.509855112963
    R9_8  CAP8  1
    R9_9  COST  13.3223370201
    R9_9  BAL0_9  0.214896359071
    R9_9  BAL1_9  0.304081276184
    R9_9  BAL2_9  0.406124334084
    R9_9  BAL6_9  0.179937222175
    R9_9  BAL7_9  0.653350744361
    R9_9  BAL12_9  0.852759785505
    R9_9  BAL13_9  0.303603376574
    R9_9  BAL14_9  0.696642199599
    R9_9  BAL15_9  0.190196606584
    R9_9  BAL16_9  0.509855112963
    R9_9  CAP9  1
    R9_10  COST  13.3223370201
    R9_10  BAL0_10  0.214896359071
    R9_10  BAL1_10  0.304081276184
    R9_10  BAL2_10  0.406124334084
    R9_10  BAL6_10  0.179937222175
    R9_10  BAL7_10  0.653350744361
    R9_10  BAL12_10  0.852759785505
    R9_10  BAL13_10  0.303603376574
    R9_10  BAL14_10  0.696642199599
    R9_10  BAL15_10  0.190196606584
    R9_10  BAL16_10  0.509855112963
    R9_10  CAP10  1
    R9_11  COST  13.3223370201
    R9_11  BAL0_11  0.214896359071
    R9_11  BAL1_11  0.304081276184
    R9_11  BAL2_11  0.406124334084
    R9_11  BAL6_11  0.179937222175
    R9_11  BAL7_11  0.653350744361
    R9_11  BAL12_11  0.852759785505
    R9_11  BAL13_11  0.303603376574
    R9_11  BAL14_11  0.696642199599
    R9_11  BAL15_11  0.190196606584
    R9_11  BAL16_11  0.509855112963
    R9_11  CAP11  1
    R9_12  COST  13.3223370201
    R9_12  BAL0_12  0.214896359071
    R9_12  BAL1_12  0.304081276184
    R9_12  BAL2_12  0.406124334084
    R9_12  BAL6_12  0.179937222175
    R9_12  BAL7_12  0.653350744361
    R9_12  BAL12_12  0.852759785505
    R9_12  BAL13_12  0.303603376574
    R9_12  BAL14_12  0.696642199599
    R9_12  BAL15_12  0.190196606584
    R9_12  BAL16_12  0.509855112963
    R9_12  CAP12  1
    R9_13  COST  13.3223370201
    R9_13  BAL0_13  0.214896359071
    R9_13  BAL1_13  0.304081276184
    R9_13  BAL2_13  0.406124334084
    R9_13  BAL6_13  0.179937222175
    R9_13  BAL7_13  0.653350744361
    R9_13  BAL12_13  0.852759785505
    R9_13  BAL13_13  0.303603376574
    R9_13  BAL14_13  0.696642199599
    R9_13  BAL15_13  0.190196606584
    R9_13  BAL16_13  0.509855112963
    R9_13  CAP13  1
    R9_14  COST  13.3223370201
    R9_14  BAL0_14  0.214896359071
    R9_14  BAL1_14  0.304081276184
    R9_14  BAL2_14  0.406124334084
    R9_14  BAL6_14  0.179937222175
    R9_14  BAL7_14  0.653350744361
    R9_14  BAL12_14  0.852759785505
    R9_14  BAL13_14  0.303603376574
    R9_14  BAL14_14  0.696642199599
    R9_14  BAL15_14  0.190196606584
    R9_14  BAL16_14  0.509855112963
    R9_14  CAP14  1
    R9_15  COST  13.3223370201
    R9_15  BAL0_15  0.214896359071
    R9_15  BAL1_15  0.304081276184
    R9_15  BAL2_15  0.406124334084
    R9_15  BAL6_15  0.179937222175
    R9_15  BAL7_15  0.653350744361
    R9_15  BAL12_15  0.852759785505
    R9_15  BAL13_15  0.303603376574
    R9_15  BAL14_15  0.696642199599
    R9_15  BAL15_15  0.190196606584
    R9_15  BAL16_15  0.509855112963
    R9_15  CAP15  1
    R9_16  COST  13.3223370201
    R9_16  BAL0_16  0.214896359071
    R9_16  BAL1_16  0.304081276184
    R9_16  BAL2_16  0.406124334084
    R9_16  BAL6_16  0.179937222175
    R9_16  BAL7_16  0.653350744361
    R9_16  BAL12_16  0.852759785505
    R9_16  BAL13_16  0.303603376574
    R9_16  BAL14_16  0.696642199599
    R9_16  BAL15_16  0.190196606584
    R9_16  BAL16_16  0.509855112963
    R9_16  CAP16  1
    R9_17  COST  13.3223370201
    R9_17  BAL0_17  0.214896359071
    R9_17  BAL1_17  0.304081276184
    R9_17  BAL2_17  0.406124334084
    R9_17  BAL6_17  0.179937222175
    R9_17  BAL7_17  0.653350744361
    R9_17  BAL12_17  0.852759785505
    R9_17  BAL13_17  0.303603376574
    R9_17  BAL14_17  0.696642199599
    R9_17  BAL15_17  0.190196606584
    R9_17  BAL16_17  0.509855112963
    R9_17  CAP17  1
    R9_18  COST  13.3223370201
    R9_18  BAL0_18  0.214896359071
    R9_18  BAL1_18  0.304081276184
    R9_18  BAL2_18  0.406124334084
    R9_18  BAL6_18  0.179937222175
    R9_18  BAL7_18  0.653350744361
    R9_18  BAL12_18  0.852759785505
    R9_18  BAL13_18  0.303603376574
    R9_18  BAL14_18  0.696642199599
    R9_18  BAL15_18  0.190196606584
    R9_18  BAL16_18  0.509855112963
    R9_18  CAP18  1
    R9_19  COST  13.3223370201
    R9_19  BAL0_19  0.214896359071
    R9_19  BAL1_19  0.304081276184
    R9_19  BAL2_19  0.406124334084
    R9_19  BAL6_19  0.179937222175
    R9_19  BAL7_19  0.653350744361
    R9_19  BAL12_19  0.852759785505
    R9_19  BAL13_19  0.303603376574
    R9_19  BAL14_19  0.696642199599
    R9_19  BAL15_19  0.190196606584
    R9_19  BAL16_19  0.509855112963
    R9_19  CAP19  1
    R9_20  COST  13.3223370201
    R9_20  BAL0_20  0.214896359071
    R9_20  BAL1_20  0.304081276184
    R9_20  BAL2_20  0.406124334084
    R9_20  BAL6_20  0.179937222175
    R9_20  BAL7_20  0.653350744361
    R9_20  BAL12_20  0.852759785505
    R9_20  BAL13_20  0.303603376574
    R9_20  BAL14_20  0.696642199599
    R9_20  BAL15_20  0.190196606584
    R9_20  BAL16_20  0.509855112963
    R9_20  CAP20  1
    R9_21  COST  13.3223370201
    R9_21  BAL0_21  0.214896359071
    R9_21  BAL1_21  0.304081276184
    R9_21  BAL2_21  0.406124334084
    R9_21  BAL6_21  0.179937222175
    R9_21  BAL7_21  0.653350744361
    R9_21  BAL12_21  0.852759785505
    R9_21  BAL13_21  0.303603376574
    R9_21  BAL14_21  0.696642199599
    R9_21  BAL15_21  0.190196606584
    R9_21  BAL16_21  0.509855112963
    R9_21  CAP21  1
    R9_22  COST  13.3223370201
    R9_22  BAL0_22  0.214896359071
    R9_22  BAL1_22  0.304081276184
    R9_22  BAL2_22  0.406124334084
    R9_22  BAL6_22  0.179937222175
    R9_22  BAL7_22  0.653350744361
    R9_22  BAL12_22  0.852759785505
    R9_22  BAL13_22  0.303603376574
    R9_22  BAL14_22  0.696642199599
    R9_22  BAL15_22  0.190196606584
    R9_22  BAL16_22  0.509855112963
    R9_22  CAP22  1
    R9_23  COST  13.3223370201
    R9_23  BAL0_23  0.214896359071
    R9_23  BAL1_23  0.304081276184
    R9_23  BAL2_23  0.406124334084
    R9_23  BAL6_23  0.179937222175
    R9_23  BAL7_23  0.653350744361
    R9_23  BAL12_23  0.852759785505
    R9_23  BAL13_23  0.303603376574
    R9_23  BAL14_23  0.696642199599
    R9_23  BAL15_23  0.190196606584
    R9_23  BAL16_23  0.509855112963
    R9_23  CAP23  1
    R10_0  COST  20.1793494783
    R10_0  BAL5_0  0.527375226486
    R10_0  BAL6_0  0.722115770723
    R10_0  BAL10_0  0.613812005752
    R10_0  BAL12_0  0.815218503113
    R10_0  BAL13_0  0.254970134222
    R10_0  BAL14_0  0.909280461428
    R10_0  BAL16_0  0.914839870541
    R10_0  CAP0  1
    R10_1  COST  20.1793494783
    R10_1  BAL5_1  0.527375226486
    R10_1  BAL6_1  0.722115770723
    R10_1  BAL10_1  0.613812005752
    R10_1  BAL12_1  0.815218503113
    R10_1  BAL13_1  0.254970134222
    R10_1  BAL14_1  0.909280461428
    R10_1  BAL16_1  0.914839870541
    R10_1  CAP1  1
    R10_2  COST  20.1793494783
    R10_2  BAL5_2  0.527375226486
    R10_2  BAL6_2  0.722115770723
    R10_2  BAL10_2  0.613812005752
    R10_2  BAL12_2  0.815218503113
    R10_2  BAL13_2  0.254970134222
    R10_2  BAL14_2  0.909280461428
    R10_2  BAL16_2  0.914839870541
    R10_2  CAP2  1
    R10_3  COST  20.1793494783
    R10_3  BAL5_3  0.527375226486
    R10_3  BAL6_3  0.722115770723
    R10_3  BAL10_3  0.613812005752
    R10_3  BAL12_3  0.815218503113
    R10_3  BAL13_3  0.254970134222
    R10_3  BAL14_3  0.909280461428
    R10_3  BAL16_3  0.914839870541
    R10_3  CAP3  1
    R10_4  COST  20.1793494783
    R10_4  BAL5_4  0.527375226486
    R10_4  BAL6_4  0.722115770723
    R10_4  BAL10_4  0.613812005752
    R10_4  BAL12_4  0.815218503113
    R10_4  BAL13_4  0.254970134222
    R10_4  BAL14_4  0.909280461428
    R10_4  BAL16_4  0.914839870541
    R10_4  CAP4  1
    R10_5  COST  20.1793494783
    R10_5  BAL5_5  0.527375226486
    R10_5  BAL6_5  0.722115770723
    R10_5  BAL10_5  0.613812005752
    R10_5  BAL12_5  0.815218503113
    R10_5  BAL13_5  0.254970134222
    R10_5  BAL14_5  0.909280461428
    R10_5  BAL16_5  0.914839870541
    R10_5  CAP5  1
    R10_6  COST  20.1793494783
    R10_6  BAL5_6  0.527375226486
    R10_6  BAL6_6  0.722115770723
    R10_6  BAL10_6  0.613812005752
    R10_6  BAL12_6  0.815218503113
    R10_6  BAL13_6  0.254970134222
    R10_6  BAL14_6  0.909280461428
    R10_6  BAL16_6  0.914839870541
    R10_6  CAP6  1
    R10_7  COST  20.1793494783
    R10_7  BAL5_7  0.527375226486
    R10_7  BAL6_7  0.722115770723
    R10_7  BAL10_7  0.613812005752
    R10_7  BAL12_7  0.815218503113
    R10_7  BAL13_7  0.254970134222
    R10_7  BAL14_7  0.909280461428
    R10_7  BAL16_7  0.914839870541
    R10_7  CAP7  1
    R10_8  COST  20.1793494783
    R10_8  BAL5_8  0.527375226486
    R10_8  BAL6_8  0.722115770723
    R10_8  BAL10_8  0.613812005752
    R10_8  BAL12_8  0.815218503113
    R10_8  BAL13_8  0.254970134222
    R10_8  BAL14_8  0.909280461428
    R10_8  BAL16_8  0.914839870541
    R10_8  CAP8  1
    R10_9  COST  20.1793494783
    R10_9  BAL5_9  0.527375226486
    R10_9  BAL6_9  0.722115770723
    R10_9  BAL10_9  0.613812005752
    R10_9  BAL12_9  0.815218503113
    R10_9  BAL13_9  0.254970134222
    R10_9  BAL14_9  0.909280461428
    R10_9  BAL16_9  0.914839870541
    R10_9  CAP9  1
    R10_10  COST  20.1793494783
    R10_10  BAL5_10  0.527375226486
    R10_10  BAL6_10  0.722115770723
    R10_10  BAL10_10  0.613812005752
    R10_10  BAL12_10  0.815218503113
    R10_10  BAL13_10  0.254970134222
    R10_10  BAL14_10  0.909280461428
    R10_10  BAL16_10  0.914839870541
    R10_10  CAP10  1
    R10_11  COST  20.1793494783
    R10_11  BAL5_11  0.527375226486
    R10_11  BAL6_11  0.722115770723
    R10_11  BAL10_11  0.613812005752
    R10_11  BAL12_11  0.815218503113
    R10_11  BAL13_11  0.254970134222
    R10_11  BAL14_11  0.909280461428
    R10_11  BAL16_11  0.914839870541
    R10_11  CAP11  1
    R10_12  COST  20.1793494783
    R10_12  BAL5_12  0.527375226486
    R10_12  BAL6_12  0.722115770723
    R10_12  BAL10_12  0.613812005752
    R10_12  BAL12_12  0.815218503113
    R10_12  BAL13_12  0.254970134222
    R10_12  BAL14_12  0.909280461428
    R10_12  BAL16_12  0.914839870541
    R10_12  CAP12  1
    R10_13  COST  20.1793494783
    R10_13  BAL5_13  0.527375226486
    R10_13  BAL6_13  0.722115770723
    R10_13  BAL10_13  0.613812005752
    R10_13  BAL12_13  0.815218503113
    R10_13  BAL13_13  0.254970134222
    R10_13  BAL14_13  0.909280461428
    R10_13  BAL16_13  0.914839870541
    R10_13  CAP13  1
    R10_14  COST  20.1793494783
    R10_14  BAL5_14  0.527375226486
    R10_14  BAL6_14  0.722115770723
    R10_14  BAL10_14  0.613812005752
    R10_14  BAL12_14  0.815218503113
    R10_14  BAL13_14  0.254970134222
    R10_14  BAL14_14  0.909280461428
    R10_14  BAL16_14  0.914839870541
    R10_14  CAP14  1
    R10_15  COST  20.1793494783
    R10_15  BAL5_15  0.527375226486
    R10_15  BAL6_15  0.722115770723
    R10_15  BAL10_15  0.613812005752
    R10_15  BAL12_15  0.815218503113
    R10_15  BAL13_15  0.254970134222
    R10_15  BAL14_15  0.909280461428
    R10_15  BAL16_15  0.914839870541
    R10_15  CAP15  1
    R10_16  COST  20.1793494783
    R10_16  BAL5_16  0.527375226486
    R10_16  BAL6_16  0.722115770723
    R10_16  BAL10_16  0.613812005752
    R10_16  BAL12_16  0.815218503113
    R10_16  BAL13_16  0.254970134222
    R10_16  BAL14_16  0.909280461428
    R10_16  BAL16_16  0.914839870541
    R10_16  CAP16  1
    R10_17  COST  20.1793494783
    R10_17  BAL5_17  0.527375226486
    R10_17  BAL6_17  0.722115770723
    R10_17  BAL10_17  0.613812005752
    R10_17  BAL12_17  0.815218503113
    R10_17  BAL13_17  0.254970134222
    R10_17  BAL14_17  0.909280461428
    R10_17  BAL16_17  0.914839870541
    R10_17  CAP17  1
    R10_18  COST  20.1793494783
    R10_18  BAL5_18  0.527375226486
    R10_18  BAL6_18  0.722115770723
    R10_18  BAL10_18  0.613812005752
    R10_18  BAL12_18  0.815218503113
    R10_18  BAL13_18  0.254970134222
    R10_18  BAL14_18  0.909280461428
    R10_18  BAL16_18  0.914839870541
    R10_18  CAP18  1
    R10_19  COST  20.1793494783
    R10_19  BAL5_19  0.527375226486
    R10_19  BAL6_19  0.722115770723
    R10_19  BAL10_19  0.613812005752
    R10_19  BAL12_19  0.815218503113
    R10_19  BAL13_19  0.254970134222
    R10_19  BAL14_19  0.909280461428
    R10_19  BAL16_19  0.914839870541
    R10_19  CAP19  1
    R10_20  COST  20.1793494783
    R10_20  BAL5_20  0.527375226486
    R10_20  BAL6_20  0.722115770723
    R10_20  BAL10_20  0.613812005752
    R10_20  BAL12_20  0.815218503113
    R10_20  BAL13_20  0.254970134222
    R10_20  BAL14_20  0.909280461428
    R10_20  BAL16_20  0.914839870541
    R10_20  CAP20  1
    R10_21  COST  20.1793494783
    R10_21  BAL5_21  0.527375226486
    R10_21  BAL6_21  0.722115770723
    R10_21  BAL10_21  0.613812005752
    R10_21  BAL12_21  0.815218503113
    R10_21  BAL13_21  0.254970134222
    R10_21  BAL14_21  0.909280461428
    R10_21  BAL16_21  0.914839870541
    R10_21  CAP21  1
    R10_22  COST  20.1793494783
    R10_22  BAL5_22  0.527375226486
    R10_22  BAL6_22  0.722115770723
    R10_22  BAL10_22  0.613812005752
    R10_22  BAL12_22  0.815218503113
    R10_22  BAL13_22  0.254970134222
    R10_22  BAL14_22  0.909280461428
    R10_22  BAL16_22  0.914839870541
    R10_22  CAP22  1
    R10_23  COST  20.1793494783
    R10_23  BAL5_23  0.527375226486
    R10_23  BAL6_23  0.722115770723
    R10_23  BAL10_23  0.613812005752
    R10_23  BAL12_23  0.815218503113
    R10_23  BAL13_23  0.254970134222
    R10_23  BAL14_23  0.909280461428
    R10_23  BAL16_23  0.914839870541
    R10_23  CAP23  1
    R11_0  COST  17.1484223833
    R11_0  BAL3_0  0.317923299179
    R11_0  BAL5_0  0.944375777576
    R11_0  BAL8_0  0.87504764074
    R11_0  BAL9_0  0.390112879108
    R11_0  BAL11_0  0.52621796572
    R11_0  BAL13_0  0.609030537475
    R11_0  BAL14_0  0.744194140134
    R11_0  BAL15_0  0.182334312889
    R11_0  CAP0  1
    R11_1  COST  17.1484223833
    R11_1  BAL3_1  0.317923299179
    R11_1  BAL5_1  0.944375777576
    R11_1  BAL8_1  0.87504764074
    R11_1  BAL9_1  0.390112879108
    R11_1  BAL11_1  0.52621796572
    R11_1  BAL13_1  0.609030537475
    R11_1  BAL14_1  0.744194140134
    R11_1  BAL15_1  0.182334312889
    R11_1  CAP1  1
    R11_2  COST  17.1484223833
    R11_2  BAL3_2  0.317923299179
    R11_2  BAL5_2  0.944375777576
    R11_2  BAL8_2  0.87504764074
    R11_2  BAL9_2  0.390112879108
    R11_2  BAL11_2  0.52621796572
    R11_2  BAL13_2  0.609030537475
    R11_2  BAL14_2  0.744194140134
    R11_2  BAL15_2  0.182334312889
    R11_2  CAP2  1
    R11_3  COST  17.1484223833
    R11_3  BAL3_3  0.317923299179
    R11_3  BAL5_3  0.944375777576
    R11_3  BAL8_3  0.87504764074
    R11_3  BAL9_3  0.390112879108
    R11_3  BAL11_3  0.52621796572
    R11_3  BAL13_3  0.609030537475
    R11_3  BAL14_3  0.744194140134
    R11_3  BAL15_3  0.182334312889
    R11_3  CAP3  1
    R11_4  COST  17.1484223833
    R11_4  BAL3_4  0.317923299179
    R11_4  BAL5_4  0.944375777576
    R11_4  BAL8_4  0.87504764074
    R11_4  BAL9_4  0.390112879108
    R11_4  BAL11_4  0.52621796572
    R11_4  BAL13_4  0.609030537475
    R11_4  BAL14_4  0.744194140134
    R11_4  BAL15_4  0.182334312889
    R11_4  CAP4  1
    R11_5  COST  17.1484223833
    R11_5  BAL3_5  0.317923299179
    R11_5  BAL5_5  0.944375777576
    R11_5  BAL8_5  0.87504764074
    R11_5  BAL9_5  0.390112879108
    R11_5  BAL11_5  0.52621796572
    R11_5  BAL13_5  0.609030537475
    R11_5  BAL14_5  0.744194140134
    R11_5  BAL15_5  0.182334312889
    R11_5  CAP5  1
    R11_6  COST  17.1484223833
    R11_6  BAL3_6  0.317923299179
    R11_6  BAL5_6  0.944375777576
    R11_6  BAL8_6  0.87504764074
    R11_6  BAL9_6  0.390112879108
    R11_6  BAL11_6  0.52621796572
    R11_6  BAL13_6  0.609030537475
    R11_6  BAL14_6  0.744194140134
    R11_6  BAL15_6  0.182334312889
    R11_6  CAP6  1
    R11_7  COST  17.1484223833
    R11_7  BAL3_7  0.317923299179
    R11_7  BAL5_7  0.944375777576
    R11_7  BAL8_7  0.87504764074
    R11_7  BAL9_7  0.390112879108
    R11_7  BAL11_7  0.52621796572
    R11_7  BAL13_7  0.609030537475
    R11_7  BAL14_7  0.744194140134
    R11_7  BAL15_7  0.182334312889
    R11_7  CAP7  1
    R11_8  COST  17.1484223833
    R11_8  BAL3_8  0.317923299179
    R11_8  BAL5_8  0.944375777576
    R11_8  BAL8_8  0.87504764074
    R11_8  BAL9_8  0.390112879108
    R11_8  BAL11_8  0.52621796572
    R11_8  BAL13_8  0.609030537475
    R11_8  BAL14_8  0.744194140134
    R11_8  BAL15_8  0.182334312889
    R11_8  CAP8  1
    R11_9  COST  17.1484223833
    R11_9  BAL3_9  0.317923299179
    R11_9  BAL5_9  0.944375777576
    R11_9  BAL8_9  0.87504764074
    R11_9  BAL9_9  0.390112879108
    R11_9  BAL11_9  0.52621796572
    R11_9  BAL13_9  0.609030537475
    R11_9  BAL14_9  0.744194140134
    R11_9  BAL15_9  0.182334312889
    R11_9  CAP9  1
    R11_10  COST  17.1484223833
    R11_10  BAL3_10  0.317923299179
    R11_10  BAL5_10  0.944375777576
    R11_10  BAL8_10  0.87504764074
    R11_10  BAL9_10  0.390112879108
    R11_10  BAL11_10  0.52621796572
    R11_10  BAL13_10  0.609030537475
    R11_10  BAL14_10  0.744194140134
    R11_10  BAL15_10  0.182334312889
    R11_10  CAP10  1
    R11_11  COST  17.1484223833
    R11_11  BAL3_11  0.317923299179
    R11_11  BAL5_11  0.944375777576
    R11_11  BAL8_11  0.87504764074
    R11_11  BAL9_11  0.390112879108
    R11_11  BAL11_11  0.52621796572
    R11_11  BAL13_11  0.609030537475
    R11_11  BAL14_11  0.744194140134
    R11_11  BAL15_11  0.182334312889
    R11_11  CAP11  1
    R11_12  COST  17.1484223833
    R11_12  BAL3_12  0.317923299179
    R11_12  BAL5_12  0.944375777576
    R11_12  BAL8_12  0.87504764074
    R11_12  BAL9_12  0.390112879108
    R11_12  BAL11_12  0.52621796572
    R11_12  BAL13_12  0.609030537475
    R11_12  BAL14_12  0.744194140134
    R11_12  BAL15_12  0.182334312889
    R11_12  CAP12  1
    R11_13  COST  17.1484223833
    R11_13  BAL3_13  0.317923299179
    R11_13  BAL5_13  0.944375777576
    R11_13  BAL8_13  0.87504764074
    R11_13  BAL9_13  0.390112879108
    R11_13  BAL11_13  0.52621796572
    R11_13  BAL13_13  0.609030537475
    R11_13  BAL14_13  0.744194140134
    R11_13  BAL15_13  0.182334312889
    R11_13  CAP13  1
    R11_14  COST  17.1484223833
    R11_14  BAL3_14  0.317923299179
    R11_14  BAL5_14  0.944375777576
    R11_14  BAL8_14  0.87504764074
    R11_14  BAL9_14  0.390112879108
    R11_14  BAL11_14  0.52621796572
    R11_14  BAL13_14  0.609030537475
    R11_14  BAL14_14  0.744194140134
    R11_14  BAL15_14  0.182334312889
    R11_14  CAP14  1
    R11_15  COST  17.1484223833
    R11_15  BAL3_15  0.317923299179
    R11_15  BAL5_15  0.944375777576
    R11_15  BAL8_15  0.87504764074
    R11_15  BAL9_15  0.390112879108
    R11_15  BAL11_15  0.52621796572
    R11_15  BAL13_15  0.609030537475
    R11_15  BAL14_15  0.744194140134
    R11_15  BAL15_15  0.182334312889
    R11_15  CAP15  1
    R11_16  COST  17.1484223833
    R11_16  BAL3_16  0.317923299179
    R11_16  BAL5_16  0.944375777576
    R11_16  BAL8_16  0.87504764074
    R11_16  BAL9_16  0.390112879108
    R11_16  BAL11_16  0.52621796572
    R11_16  BAL13_16  0.609030537475
    R11_16  BAL14_16  0.744194140134
    R11_16  BAL15_16  0.182334312889
    R11_16  CAP16  1
    R11_17  COST  17.1484223833
    R11_17  BAL3_17  0.317923299179
    R11_17  BAL5_17  0.944375777576
    R11_17  BAL8_17  0.87504764074
    R11_17  BAL9_17  0.390112879108
    R11_17  BAL11_17  0.52621796572
    R11_17  BAL13_17  0.609030537475
    R11_17  BAL14_17  0.744194140134
    R11_17  BAL15_17  0.182334312889
    R11_17  CAP17  1
    R11_18  COST  17.1484223833
    R11_18  BAL3_18  0.317923299179
    R11_18  BAL5_18  0.944375777576
    R11_18  BAL8_18  0.87504764074
    R11_18  BAL9_18  0.390112879108
    R11_18  BAL11_18  0.52621796572
    R11_18  BAL13_18  0.609030537475
    R11_18  BAL14_18  0.744194140134
    R11_18  BAL15_18  0.182334312889
    R11_18  CAP18  1
    R11_19  COST  17.1484223833
    R11_19  BAL3_19  0.317923299179
    R11_19  BAL5_19  0.944375777576
    R11_19  BAL8_19  0.87504764074
    R11_19  BAL9_19  0.390112879108
    R11_19  BAL11_19  0.52621796572
    R11_19  BAL13_19  0.609030537475
    R11_19  BAL14_19  0.744194140134
    R11_19  BAL15_19  0.182334312889
    R11_19  CAP19  1
    R11_20  COST  17.1484223833
    R11_20  BAL3_20  0.317923299179
    R11_20  BAL5_20  0.944375777576
    R11_20  BAL8_20  0.87504764074
    R11_20  BAL9_20  0.390112879108
    R11_20  BAL11_20  0.52621796572
    R11_20  BAL13_20  0.609030537475
    R11_20  BAL14_20  0.744194140134
    R11_20  BAL15_20  0.182334312889
    R11_20  CAP20  1
    R11_21  COST  17.1484223833
    R11_21  BAL3_21  0.317923299179
    R11_21  BAL5_21  0.944375777576
    R11_21  BAL8_21  0.87504764074
    R11_21  BAL9_21  0.390112879108
    R11_21  BAL11_21  0.52621796572
    R11_21  BAL13_21  0.609030537475
    R11_21  BAL14_21  0.744194140134
    R11_21  BAL15_21  0.182334312889
    R11_21  CAP21  1
    R11_22  COST  17.1484223833
    R11_22  BAL3_22  0.317923299179
    R11_22  BAL5_22  0.944375777576
    R11_22  BAL8_22  0.87504764074
    R11_22  BAL9_22  0.390112879108
    R11_22  BAL11_22  0.52621796572
    R11_22  BAL13_22  0.609030537475
    R11_22  BAL14_22  0.744194140134
    R11_22  BAL15_22  0.182334312889
    R11_22  CAP22  1
    R11_23  COST  17.1484223833
    R11_23  BAL3_23  0.317923299179
    R11_23  BAL5_23  0.944375777576
    R11_23  BAL8_23  0.87504764074
    R11_23  BAL9_23  0.390112879108
    R11_23  BAL11_23  0.52621796572
    R11_23  BAL13_23  0.609030537475
    R11_23  BAL14_23  0.744194140134
    R11_23  BAL15_23  0.182334312889
    R11_23  CAP23  1
    R12_0  COST  18.0805657985
    R12_0  BAL1_0  0.597740114116
    R12_0  BAL2_0  0.201133314065
    R12_0  BAL5_0  0.666935044595
    R12_0  BAL6_0  0.494598726996
    R12_0  BAL7_0  0.922146189144
    R12_0  BAL8_0  0.545557510467
    R12_0  BAL9_0  0.214574989904
    R12_0  BAL14_0  0.74712971781
    R12_0  BAL15_0  0.677513571191
    R12_0  BAL17_0  0.213724059266
    R12_0  CAP0  1
    R12_1  COST  18.0805657985
    R12_1  BAL1_1  0.597740114116
    R12_1  BAL2_1  0.201133314065
    R12_1  BAL5_1  0.666935044595
    R12_1  BAL6_1  0.494598726996
    R12_1  BAL7_1  0.922146189144
    R12_1  BAL8_1  0.545557510467
    R12_1  BAL9_1  0.214574989904
    R12_1  BAL14_1  0.74712971781
    R12_1  BAL15_1  0.677513571191
    R12_1  BAL17_1  0.213724059266
    R12_1  CAP1  1
    R12_2  COST  18.0805657985
    R12_2  BAL1_2  0.597740114116
    R12_2  BAL2_2  0.201133314065
    R12_2  BAL5_2  0.666935044595
    R12_2  BAL6_2  0.494598726996
    R12_2  BAL7_2  0.922146189144
    R12_2  BAL8_2  0.545557510467
    R12_2  BAL9_2  0.214574989904
    R12_2  BAL14_2  0.74712971781
    R12_2  BAL15_2  0.677513571191
    R12_2  BAL17_2  0.213724059266
    R12_2  CAP2  1
    R12_3  COST  18.0805657985
    R12_3  BAL1_3  0.597740114116
    R12_3  BAL2_3  0.201133314065
    R12_3  BAL5_3  0.666935044595
    R12_3  BAL6_3  0.494598726996
    R12_3  BAL7_3  0.922146189144
    R12_3  BAL8_3  0.545557510467
    R12_3  BAL9_3  0.214574989904
    R12_3  BAL14_3  0.74712971781
    R12_3  BAL15_3  0.677513571191
    R12_3  BAL17_3  0.213724059266
    R12_3  CAP3  1
    R12_4  COST  18.0805657985
    R12_4  BAL1_4  0.597740114116
    R12_4  BAL2_4  0.201133314065
    R12_4  BAL5_4  0.666935044595
    R12_4  BAL6_4  0.494598726996
    R12_4  BAL7_4  0.922146189144
    R12_4  BAL8_4  0.545557510467
    R12_4  BAL9_4  0.214574989904
    R12_4  BAL14_4  0.74712971781
    R12_4  BAL15_4  0.677513571191
    R12_4  BAL17_4  0.213724059266
    R12_4  CAP4  1
    R12_5  COST  18.0805657985
    R12_5  BAL1_5  0.597740114116
    R12_5  BAL2_5  0.201133314065
    R12_5  BAL5_5  0.666935044595
    R12_5  BAL6_5  0.494598726996
    R12_5  BAL7_5  0.922146189144
    R12_5  BAL8_5  0.545557510467
    R12_5  BAL9_5  0.214574989904
    R12_5  BAL14_5  0.74712971781
    R12_5  BAL15_5  0.677513571191
    R12_5  BAL17_5  0.213724059266
    R12_5  CAP5  1
    R12_6  COST  18.0805657985
    R12_6  BAL1_6  0.597740114116
    R12_6  BAL2_6  0.201133314065
    R12_6  BAL5_6  0.666935044595
    R12_6  BAL6_6  0.494598726996
    R12_6  BAL7_6  0.922146189144
    R12_6  BAL8_6  0.545557510467
    R12_6  BAL9_6  0.214574989904
    R12_6  BAL14_6  0.74712971781
    R12_6  BAL15_6  0.677513571191
    R12_6  BAL17_6  0.213724059266
    R12_6  CAP6  1
    R12_7  COST  18.0805657985
    R12_7  BAL1_7  0.597740114116
    R12_7  BAL2_7  0.201133314065
    R12_7  BAL5_7  0.666935044595
    R12_7  BAL6_7  0.494598726996
    R12_7  BAL7_7  0.922146189144
    R12_7  BAL8_7  0.545557510467
    R12_7  BAL9_7  0.214574989904
    R12_7  BAL14_7  0.74712971781
    R12_7  BAL15_7  0.677513571191
    R12_7  BAL17_7  0.213724059266
    R12_7  CAP7  1
    R12_8  COST  18.0805657985
    R12_8  BAL1_8  0.597740114116
    R12_8  BAL2_8  0.201133314065
    R12_8  BAL5_8  0.666935044595
    R12_8  BAL6_8  0.494598726996
    R12_8  BAL7_8  0.922146189144
    R12_8  BAL8_8  0.545557510467
    R12_8  BAL9_8  0.214574989904
    R12_8  BAL14_8  0.74712971781
    R12_8  BAL15_8  0.677513571191
    R12_8  BAL17_8  0.213724059266
    R12_8  CAP8  1
    R12_9  COST  18.0805657985
    R12_9  BAL1_9  0.597740114116
    R12_9  BAL2_9  0.201133314065
    R12_9  BAL5_9  0.666935044595
    R12_9  BAL6_9  0.494598726996
    R12_9  BAL7_9  0.922146189144
    R12_9  BAL8_9  0.545557510467
    R12_9  BAL9_9  0.214574989904
    R12_9  BAL14_9  0.74712971781
    R12_9  BAL15_9  0.677513571191
    R12_9  BAL17_9  0.213724059266
    R12_9  CAP9  1
    R12_10  COST  18.0805657985
    R12_10  BAL1_10  0.597740114116
    R12_10  BAL2_10  0.201133314065
    R12_10  BAL5_10  0.666935044595
    R12_10  BAL6_10  0.494598726996
    R12_10  BAL7_10  0.922146189144
    R12_10  BAL8_10  0.545557510467
    R12_10  BAL9_10  0.214574989904
    R12_10  BAL14_10  0.74712971781
    R12_10  BAL15_10  0.677513571191
    R12_10  BAL17_10  0.213724059266
    R12_10  CAP10  1
    R12_11  COST  18.0805657985
    R12_11  BAL1_11  0.597740114116
    R12_11  BAL2_11  0.201133314065
    R12_11  BAL5_11  0.666935044595
    R12_11  BAL6_11  0.494598726996
    R12_11  BAL7_11  0.922146189144
    R12_11  BAL8_11  0.545557510467
    R12_11  BAL9_11  0.214574989904
    R12_11  BAL14_11  0.74712971781
    R12_11  BAL15_11  0.677513571191
    R12_11  BAL17_11  0.213724059266
    R12_11  CAP11  1
    R12_12  COST  18.0805657985
    R12_12  BAL1_12  0.597740114116
    R12_12  BAL2_12  0.201133314065
    R12_12  BAL5_12  0.666935044595
    R12_12  BAL6_12  0.494598726996
    R12_12  BAL7_12  0.922146189144
    R12_12  BAL8_12  0.545557510467
    R12_12  BAL9_12  0.214574989904
    R12_12  BAL14_12  0.74712971781
    R12_12  BAL15_12  0.677513571191
    R12_12  BAL17_12  0.213724059266
    R12_12  CAP12  1
    R12_13  COST  18.0805657985
    R12_13  BAL1_13  0.597740114116
    R12_13  BAL2_13  0.201133314065
    R12_13  BAL5_13  0.666935044595
    R12_13  BAL6_13  0.494598726996
    R12_13  BAL7_13  0.922146189144
    R12_13  BAL8_13  0.545557510467
    R12_13  BAL9_13  0.214574989904
    R12_13  BAL14_13  0.74712971781
    R12_13  BAL15_13  0.677513571191
    R12_13  BAL17_13  0.213724059266
    R12_13  CAP13  1
    R12_14  COST  18.0805657985
    R12_14  BAL1_14  0.597740114116
    R12_14  BAL2_14  0.201133314065
    R12_14  BAL5_14  0.666935044595
    R12_14  BAL6_14  0.494598726996
    R12_14  BAL7_14  0.922146189144
    R12_14  BAL8_14  0.545557510467
    R12_14  BAL9_14  0.214574989904
    R12_14  BAL14_14  0.74712971781
    R12_14  BAL15_14  0.677513571191
    R12_14  BAL17_14  0.213724059266
    R12_14  CAP14  1
    R12_15  COST  18.0805657985
    R12_15  BAL1_15  0.597740114116
    R12_15  BAL2_15  0.201133314065
    R12_15  BAL5_15  0.666935044595
    R12_15  BAL6_15  0.494598726996
    R12_15  BAL7_15  0.922146189144
    R12_15  BAL8_15  0.545557510467
    R12_15  BAL9_15  0.214574989904
    R12_15  BAL14_15  0.74712971781
    R12_15  BAL15_15  0.677513571191
    R12_15  BAL17_15  0.213724059266
    R12_15  CAP15  1
    R12_16  COST  18.0805657985
    R12_16  BAL1_16  0.597740114116
    R12_16  BAL2_16  0.201133314065
    R12_16  BAL5_16  0.666935044595
    R12_16  BAL6_16  0.494598726996
    R12_16  BAL7_16  0.922146189144
    R12_16  BAL8_16  0.545557510467
    R12_16  BAL9_16  0.214574989904
    R12_16  BAL14_16  0.74712971781
    R12_16  BAL15_16  0.677513571191
    R12_16  BAL17_16  0.213724059266
    R12_16  CAP16  1
    R12_17  COST  18.0805657985
    R12_17  BAL1_17  0.597740114116
    R12_17  BAL2_17  0.201133314065
    R12_17  BAL5_17  0.666935044595
    R12_17  BAL6_17  0.494598726996
    R12_17  BAL7_17  0.922146189144
    R12_17  BAL8_17  0.545557510467
    R12_17  BAL9_17  0.214574989904
    R12_17  BAL14_17  0.74712971781
    R12_17  BAL15_17  0.677513571191
    R12_17  BAL17_17  0.213724059266
    R12_17  CAP17  1
    R12_18  COST  18.0805657985
    R12_18  BAL1_18  0.597740114116
    R12_18  BAL2_18  0.201133314065
    R12_18  BAL5_18  0.666935044595
    R12_18  BAL6_18  0.494598726996
    R12_18  BAL7_18  0.922146189144
    R12_18  BAL8_18  0.545557510467
    R12_18  BAL9_18  0.214574989904
    R12_18  BAL14_18  0.74712971781
    R12_18  BAL15_18  0.677513571191
    R12_18  BAL17_18  0.213724059266
    R12_18  CAP18  1
    R12_19  COST  18.0805657985
    R12_19  BAL1_19  0.597740114116
    R12_19  BAL2_19  0.201133314065
    R12_19  BAL5_19  0.666935044595
    R12_19  BAL6_19  0.494598726996
    R12_19  BAL7_19  0.922146189144
    R12_19  BAL8_19  0.545557510467
    R12_19  BAL9_19  0.214574989904
    R12_19  BAL14_19  0.74712971781
    R12_19  BAL15_19  0.677513571191
    R12_19  BAL17_19  0.213724059266
    R12_19  CAP19  1
    R12_20  COST  18.0805657985
    R12_20  BAL1_20  0.597740114116
    R12_20  BAL2_20  0.201133314065
    R12_20  BAL5_20  0.666935044595
    R12_20  BAL6_20  0.494598726996
    R12_20  BAL7_20  0.922146189144
    R12_20  BAL8_20  0.545557510467
    R12_20  BAL9_20  0.214574989904
    R12_20  BAL14_20  0.74712971781
    R12_20  BAL15_20  0.677513571191
    R12_20  BAL17_20  0.213724059266
    R12_20  CAP20  1
    R12_21  COST  18.0805657985
    R12_21  BAL1_21  0.597740114116
    R12_21  BAL2_21  0.201133314065
    R12_21  BAL5_21  0.666935044595
    R12_21  BAL6_21  0.494598726996
    R12_21  BAL7_21  0.922146189144
    R12_21  BAL8_21  0.545557510467
    R12_21  BAL9_21  0.214574989904
    R12_21  BAL14_21  0.74712971781
    R12_21  BAL15_21  0.677513571191
    R12_21  BAL17_21  0.213724059266
    R12_21  CAP21  1
    R12_22  COST  18.0805657985
    R12_22  BAL1_22  0.597740114116
    R12_22  BAL2_22  0.201133314065
    R12_22  BAL5_22  0.666935044595
    R12_22  BAL6_22  0.494598726996
    R12_22  BAL7_22  0.922146189144
    R12_22  BAL8_22  0.545557510467
    R12_22  BAL9_22  0.214574989904
    R12_22  BAL14_22  0.74712971781
    R12_22  BAL15_22  0.677513571191
    R12_22  BAL17_22  0.213724059266
    R12_22  CAP22  1
    R12_23  COST  18.0805657985
    R12_23  BAL1_23  0.597740114116
    R12_23  BAL2_23  0.201133314065
    R12_23  BAL5_23  0.666935044595
    R12_23  BAL6_23  0.494598726996
    R12_23  BAL7_23  0.922146189144
    R12_23  BAL8_23  0.545557510467
    R12_23  BAL9_23  0.214574989904
    R12_23  BAL14_23  0.74712971781
    R12_23  BAL15_23  0.677513571191
    R12_23  BAL17_23  0.213724059266
    R12_23  CAP23  1
    R13_0  COST  18.845389142
    R13_0  BAL1_0  0.564864555457
    R13_0  BAL3_0  0.302459025179
    R13_0  BAL4_0  0.815343833159
    R13_0  BAL8_0  0.241366043431
    R13_0  BAL10_0  0.768839770659
    R13_0  BAL12_0  0.826805154694
    R13_0  BAL13_0  0.864765419771
    R13_0  BAL16_0  0.378668418179
    R13_0  CAP0  1
    R13_1  COST  18.845389142
    R13_1  BAL1_1  0.564864555457
    R13_1  BAL3_1  0.302459025179
    R13_1  BAL4_1  0.815343833159
    R13_1  BAL8_1  0.241366043431
    R13_1  BAL10_1  0.768839770659
    R13_1  BAL12_1  0.826805154694
    R13_1  BAL13_1  0.864765419771
    R13_1  BAL16_1  0.378668418179
    R13_1  CAP1  1
    R13_2  COST  18.845389142
    R13_2  BAL1_2  0.564864555457
    R13_2  BAL3_2  0.302459025179
    R13_2  BAL4_2  0.815343833159
    R13_2  BAL8_2  0.241366043431
    R13_2  BAL10_2  0.768839770659
    R13_2  BAL12_2  0.826805154694
    R13_2  BAL13_2  0.864765419771
    R13_2  BAL16_2  0.378668418179
    R13_2  CAP2  1
    R13_3  COST  18.845389142
    R13_3  BAL1_3  0.564864555457
    R13_3  BAL3_3  0.302459025179
    R13_3  BAL4_3  0.815343833159
    R13_3  BAL8_3  0.241366043431
    R13_3  BAL10_3  0.768839770659
    R13_3  BAL12_3  0.826805154694
    R13_3  BAL13_3  0.864765419771
    R13_3  BAL16_3  0.378668418179
    R13_3  CAP3  1
    R13_4  COST  18.845389142
    R13_4  BAL1_4  0.564864555457
    R13_4  BAL3_4  0.302459025179
    R13_4  BAL4_4  0.815343833159
    R13_4  BAL8_4  0.241366043431
    R13_4  BAL10_4  0.768839770659
    R13_4  BAL12_4  0.826805154694
    R13_4  BAL13_4  0.864765419771
    R13_4  BAL16_4  0.378668418179
    R13_4  CAP4  1
    R13_5  COST  18.845389142
    R13_5  BAL1_5  0.564864555457
    R13_5  BAL3_5  0.302459025179
    R13_5  BAL4_5  0.815343833159
    R13_5  BAL8_5  0.241366043431
    R13_5  BAL10_5  0.768839770659
    R13_5  BAL12_5  0.826805154694
    R13_5  BAL13_5  0.864765419771
    R13_5  BAL16_5  0.378668418179
    R13_5  CAP5  1
    R13_6  COST  18.845389142
    R13_6  BAL1_6  0.564864555457
    R13_6  BAL3_6  0.302459025179
    R13_6  BAL4_6  0.815343833159
    R13_6  BAL8_6  0.241366043431
    R13_6  BAL10_6  0.768839770659
    R13_6  BAL12_6  0.826805154694
    R13_6  BAL13_6  0.864765419771
    R13_6  BAL16_6  0.378668418179
    R13_6  CAP6  1
    R13_7  COST  18.845389142
    R13_7  BAL1_7  0.564864555457
    R13_7  BAL3_7  0.302459025179
    R13_7  BAL4_7  0.815343833159
    R13_7  BAL8_7  0.241366043431
    R13_7  BAL10_7  0.768839770659
    R13_7  BAL12_7  0.826805154694
    R13_7  BAL13_7  0.864765419771
    R13_7  BAL16_7  0.378668418179
    R13_7  CAP7  1
    R13_8  COST  18.845389142
    R13_8  BAL1_8  0.564864555457
    R13_8  BAL3_8  0.302459025179
    R13_8  BAL4_8  0.815343833159
    R13_8  BAL8_8  0.241366043431
    R13_8  BAL10_8  0.768839770659
    R13_8  BAL12_8  0.826805154694
    R13_8  BAL13_8  0.864765419771
    R13_8  BAL16_8  0.378668418179
    R13_8  CAP8  1
    R13_9  COST  18.845389142
    R13_9  BAL1_9  0.564864555457
    R13_9  BAL3_9  0.302459025179
    R13_9  BAL4_9  0.815343833159
    R13_9  BAL8_9  0.241366043431
    R13_9  BAL10_9  0.768839770659
    R13_9  BAL12_9  0.826805154694
    R13_9  BAL13_9  0.864765419771
    R13_9  BAL16_9  0.378668418179
    R13_9  CAP9  1
    R13_10  COST  18.845389142
    R13_10  BAL1_10  0.564864555457
    R13_10  BAL3_10  0.302459025179
    R13_10  BAL4_10  0.815343833159
    R13_10  BAL8_10  0.241366043431
    R13_10  BAL10_10  0.768839770659
    R13_10  BAL12_10  0.826805154694
    R13_10  BAL13_10  0.864765419771
    R13_10  BAL16_10  0.378668418179
    R13_10  CAP10  1
    R13_11  COST  18.845389142
    R13_11  BAL1_11  0.564864555457
    R13_11  BAL3_11  0.302459025179
    R13_11  BAL4_11  0.815343833159
    R13_11  BAL8_11  0.241366043431
    R13_11  BAL10_11  0.768839770659
    R13_11  BAL12_11  0.826805154694
    R13_11  BAL13_11  0.864765419771
    R13_11  BAL16_11  0.378668418179
    R13_11  CAP11  1
    R13_12  COST  18.845389142
    R13_12  BAL1_12  0.564864555457
    R13_12  BAL3_12  0.302459025179
    R13_12  BAL4_12  0.815343833159
    R13_12  BAL8_12  0.241366043431
    R13_12  BAL10_12  0.768839770659
    R13_12  BAL12_12  0.826805154694
    R13_12  BAL13_12  0.864765419771
    R13_12  BAL16_12  0.378668418179
    R13_12  CAP12  1
    R13_13  COST  18.845389142
    R13_13  BAL1_13  0.564864555457
    R13_13  BAL3_13  0.302459025179
    R13_13  BAL4_13  0.815343833159
    R13_13  BAL8_13  0.241366043431
    R13_13  BAL10_13  0.768839770659
    R13_13  BAL12_13  0.826805154694
    R13_13  BAL13_13  0.864765419771
    R13_13  BAL16_13  0.378668418179
    R13_13  CAP13  1
    R13_14  COST  18.845389142
    R13_14  BAL1_14  0.564864555457
    R13_14  BAL3_14  0.302459025179
    R13_14  BAL4_14  0.815343833159
    R13_14  BAL8_14  0.241366043431
    R13_14  BAL10_14  0.768839770659
    R13_14  BAL12_14  0.826805154694
    R13_14  BAL13_14  0.864765419771
    R13_14  BAL16_14  0.378668418179
    R13_14  CAP14  1
    R13_15  COST  18.845389142
    R13_15  BAL1_15  0.564864555457
    R13_15  BAL3_15  0.302459025179
    R13_15  BAL4_15  0.815343833159
    R13_15  BAL8_15  0.241366043431
    R13_15  BAL10_15  0.768839770659
    R13_15  BAL12_15  0.826805154694
    R13_15  BAL13_15  0.864765419771
    R13_15  BAL16_15  0.378668418179
    R13_15  CAP15  1
    R13_16  COST  18.845389142
    R13_16  BAL1_16  0.564864555457
    R13_16  BAL3_16  0.302459025179
    R13_16  BAL4_16  0.815343833159
    R13_16  BAL8_16  0.241366043431
    R13_16  BAL10_16  0.768839770659
    R13_16  BAL12_16  0.826805154694
    R13_16  BAL13_16  0.864765419771
    R13_16  BAL16_16  0.378668418179
    R13_16  CAP16  1
    R13_17  COST  18.845389142
    R13_17  BAL1_17  0.564864555457
    R13_17  BAL3_17  0.302459025179
    R13_17  BAL4_17  0.815343833159
    R13_17  BAL8_17  0.241366043431
    R13_17  BAL10_17  0.768839770659
    R13_17  BAL12_17  0.826805154694
    R13_17  BAL13_17  0.864765419771
    R13_17  BAL16_17  0.378668418179
    R13_17  CAP17  1
    R13_18  COST  18.845389142
    R13_18  BAL1_18  0.564864555457
    R13_18  BAL3_18  0.302459025179
    R13_18  BAL4_18  0.815343833159
    R13_18  BAL8_18  0.241366043431
    R13_18  BAL10_18  0.768839770659
    R13_18  BAL12_18  0.826805154694
    R13_18  BAL13_18  0.864765419771
    R13_18  BAL16_18  0.378668418179
    R13_18  CAP18  1
    R13_19  COST  18.845389142
    R13_19  BAL1_19  0.564864555457
    R13_19  BAL3_19  0.302459025179
    R13_19  BAL4_19  0.815343833159
    R13_19  BAL8_19  0.241366043431
    R13_19  BAL10_19  0.768839770659
    R13_19  BAL12_19  0.826805154694
    R13_19  BAL13_19  0.864765419771
    R13_19  BAL16_19  0.378668418179
    R13_19  CAP19  1
    R13_20  COST  18.845389142
    R13_20  BAL1_20  0.564864555457
    R13_20  BAL3_20  0.302459025179
    R13_20  BAL4_20  0.815343833159
    R13_20  BAL8_20  0.241366043431
    R13_20  BAL10_20  0.768839770659
    R13_20  BAL12_20  0.826805154694
    R13_20  BAL13_20  0.864765419771
    R13_20  BAL16_20  0.378668418179
    R13_20  CAP20  1
    R13_21  COST  18.845389142
    R13_21  BAL1_21  0.564864555457
    R13_21  BAL3_21  0.302459025179
    R13_21  BAL4_21  0.815343833159
    R13_21  BAL8_21  0.241366043431
    R13_21  BAL10_21  0.768839770659
    R13_21  BAL12_21  0.826805154694
    R13_21  BAL13_21  0.864765419771
    R13_21  BAL16_21  0.378668418179
    R13_21  CAP21  1
    R13_22  COST  18.845389142
    R13_22  BAL1_22  0.564864555457
    R13_22  BAL3_22  0.302459025179
    R13_22  BAL4_22  0.815343833159
    R13_22  BAL8_22  0.241366043431
    R13_22  BAL10_22  0.768839770659
    R13_22  BAL12_22  0.826805154694
    R13_22  BAL13_22  0.864765419771
    R13_22  BAL16_22  0.378668418179
    R13_22  CAP22  1
    R13_23  COST  18.845389142
    R13_23  BAL1_23  0.564864555457
    R13_23  BAL3_23  0.302459025179
    R13_23  BAL4_23  0.815343833159
    R13_23  BAL8_23  0.241366043431
    R13_23  BAL10_23  0.768839770659
    R13_23  BAL12_23  0.826805154694
    R13_23  BAL13_23  0.864765419771
    R13_23  BAL16_23  0.378668418179
    R13_23  CAP23  1
    R14_0  COST  7.95068953278
    R14_0  BAL1_0  0.580693345975
    R14_0  BAL4_0  0.574753106138
    R14_0  BAL6_0  0.458712721718
    R14_0  BAL8_0  0.498468858937
    R14_0  BAL10_0  0.233577814366
    R14_0  BAL13_0  0.72334830977
    R14_0  BAL16_0  0.929526174215
    R14_0  CAP0  1
    R14_1  COST  7.95068953278
    R14_1  BAL1_1  0.580693345975
    R14_1  BAL4_1  0.574753106138
    R14_1  BAL6_1  0.458712721718
    R14_1  BAL8_1  0.498468858937
    R14_1  BAL10_1  0.233577814366
    R14_1  BAL13_1  0.72334830977
    R14_1  BAL16_1  0.929526174215
    R14_1  CAP1  1
    R14_2  COST  7.95068953278
    R14_2  BAL1_2  0.580693345975
    R14_2  BAL4_2  0.574753106138
    R14_2  BAL6_2  0.458712721718
    R14_2  BAL8_2  0.498468858937
    R14_2  BAL10_2  0.233577814366
    R14_2  BAL13_2  0.72334830977
    R14_2  BAL16_2  0.929526174215
    R14_2  CAP2  1
    R14_3  COST  7.95068953278
    R14_3  BAL1_3  0.580693345975
    R14_3  BAL4_3  0.574753106138
    R14_3  BAL6_3  0.458712721718
    R14_3  BAL8_3  0.498468858937
    R14_3  BAL10_3  0.233577814366
    R14_3  BAL13_3  0.72334830977
    R14_3  BAL16_3  0.929526174215
    R14_3  CAP3  1
    R14_4  COST  7.95068953278
    R14_4  BAL1_4  0.580693345975
    R14_4  BAL4_4  0.574753106138
    R14_4  BAL6_4  0.458712721718
    R14_4  BAL8_4  0.498468858937
    R14_4  BAL10_4  0.233577814366
    R14_4  BAL13_4  0.72334830977
    R14_4  BAL16_4  0.929526174215
    R14_4  CAP4  1
    R14_5  COST  7.95068953278
    R14_5  BAL1_5  0.580693345975
    R14_5  BAL4_5  0.574753106138
    R14_5  BAL6_5  0.458712721718
    R14_5  BAL8_5  0.498468858937
    R14_5  BAL10_5  0.233577814366
    R14_5  BAL13_5  0.72334830977
    R14_5  BAL16_5  0.929526174215
    R14_5  CAP5  1
    R14_6  COST  7.95068953278
    R14_6  BAL1_6  0.580693345975
    R14_6  BAL4_6  0.574753106138
    R14_6  BAL6_6  0.458712721718
    R14_6  BAL8_6  0.498468858937
    R14_6  BAL10_6  0.233577814366
    R14_6  BAL13_6  0.72334830977
    R14_6  BAL16_6  0.929526174215
    R14_6  CAP6  1
    R14_7  COST  7.95068953278
    R14_7  BAL1_7  0.580693345975
    R14_7  BAL4_7  0.574753106138
    R14_7  BAL6_7  0.458712721718
    R14_7  BAL8_7  0.498468858937
    R14_7  BAL10_7  0.233577814366
    R14_7  BAL13_7  0.72334830977
    R14_7  BAL16_7  0.929526174215
    R14_7  CAP7  1
    R14_8  COST  7.95068953278
    R14_8  BAL1_8  0.580693345975
    R14_8  BAL4_8  0.574753106138
    R14_8  BAL6_8  0.458712721718
    R14_8  BAL8_8  0.498468858937
    R14_8  BAL10_8  0.233577814366
    R14_8  BAL13_8  0.72334830977
    R14_8  BAL16_8  0.929526174215
    R14_8  CAP8  1
    R14_9  COST  7.95068953278
    R14_9  BAL1_9  0.580693345975
    R14_9  BAL4_9  0.574753106138
    R14_9  BAL6_9  0.458712721718
    R14_9  BAL8_9  0.498468858937
    R14_9  BAL10_9  0.233577814366
    R14_9  BAL13_9  0.72334830977
    R14_9  BAL16_9  0.929526174215
    R14_9  CAP9  1
    R14_10  COST  7.95068953278
    R14_10  BAL1_10  0.580693345975
    R14_10  BAL4_10  0.574753106138
    R14_10  BAL6_10  0.458712721718
    R14_10  BAL8_10  0.498468858937
    R14_10  BAL10_10  0.233577814366
    R14_10  BAL13_10  0.72334830977
    R14_10  BAL16_10  0.929526174215
    R14_10  CAP10  1
    R14_11  COST  7.95068953278
    R14_11  BAL1_11  0.580693345975
    R14_11  BAL4_11  0.574753106138
    R14_11  BAL6_11  0.458712721718
    R14_11  BAL8_11  0.498468858937
    R14_11  BAL10_11  0.233577814366
    R14_11  BAL13_11  0.72334830977
    R14_11  BAL16_11  0.929526174215
    R14_11  CAP11  1
    R14_12  COST  7.95068953278
    R14_12  BAL1_12  0.580693345975
    R14_12  BAL4_12  0.574753106138
    R14_12  BAL6_12  0.458712721718
    R14_12  BAL8_12  0.498468858937
    R14_12  BAL10_12  0.233577814366
    R14_12  BAL13_12  0.72334830977
    R14_12  BAL16_12  0.929526174215
    R14_12  CAP12  1
    R14_13  COST  7.95068953278
    R14_13  BAL1_13  0.580693345975
    R14_13  BAL4_13  0.574753106138
    R14_13  BAL6_13  0.458712721718
    R14_13  BAL8_13  0.498468858937
    R14_13  BAL10_13  0.233577814366
    R14_13  BAL13_13  0.72334830977
    R14_13  BAL16_13  0.929526174215
    R14_13  CAP13  1
    R14_14  COST  7.95068953278
    R14_14  BAL1_14  0.580693345975
    R14_14  BAL4_14  0.574753106138
    R14_14  BAL6_14  0.458712721718
    R14_14  BAL8_14  0.498468858937
    R14_14  BAL10_14  0.233577814366
    R14_14  BAL13_14  0.72334830977
    R14_14  BAL16_14  0.929526174215
    R14_14  CAP14  1
    R14_15  COST  7.95068953278
    R14_15  BAL1_15  0.580693345975
    R14_15  BAL4_15  0.574753106138
    R14_15  BAL6_15  0.458712721718
    R14_15  BAL8_15  0.498468858937
    R14_15  BAL10_15  0.233577814366
    R14_15  BAL13_15  0.72334830977
    R14_15  BAL16_15  0.929526174215
    R14_15  CAP15  1
    R14_16  COST  7.95068953278
    R14_16  BAL1_16  0.580693345975
    R14_16  BAL4_16  0.574753106138
    R14_16  BAL6_16  0.458712721718
    R14_16  BAL8_16  0.498468858937
    R14_16  BAL10_16  0.233577814366
    R14_16  BAL13_16  0.72334830977
    R14_16  BAL16_16  0.929526174215
    R14_16  CAP16  1
    R14_17  COST  7.95068953278
    R14_17  BAL1_17  0.580693345975
    R14_17  BAL4_17  0.574753106138
    R14_17  BAL6_17  0.458712721718
    R14_17  BAL8_17  0.498468858937
    R14_17  BAL10_17  0.233577814366
    R14_17  BAL13_17  0.72334830977
    R14_17  BAL16_17  0.929526174215
    R14_17  CAP17  1
    R14_18  COST  7.95068953278
    R14_18  BAL1_18  0.580693345975
    R14_18  BAL4_18  0.574753106138
    R14_18  BAL6_18  0.458712721718
    R14_18  BAL8_18  0.498468858937
    R14_18  BAL10_18  0.233577814366
    R14_18  BAL13_18  0.72334830977
    R14_18  BAL16_18  0.929526174215
    R14_18  CAP18  1
    R14_19  COST  7.95068953278
    R14_19  BAL1_19  0.580693345975
    R14_19  BAL4_19  0.574753106138
    R14_19  BAL6_19  0.458712721718
    R14_19  BAL8_19  0.498468858937
    R14_19  BAL10_19  0.233577814366
    R14_19  BAL13_19  0.72334830977
    R14_19  BAL16_19  0.929526174215
    R14_19  CAP19  1
    R14_20  COST  7.95068953278
    R14_20  BAL1_20  0.580693345975
    R14_20  BAL4_20  0.574753106138
    R14_20  BAL6_20  0.458712721718
    R14_20  BAL8_20  0.498468858937
    R14_20  BAL10_20  0.233577814366
    R14_20  BAL13_20  0.72334830977
    R14_20  BAL16_20  0.929526174215
    R14_20  CAP20  1
    R14_21  COST  7.95068953278
    R14_21  BAL1_21  0.580693345975
    R14_21  BAL4_21  0.574753106138
    R14_21  BAL6_21  0.458712721718
    R14_21  BAL8_21  0.498468858937
    R14_21  BAL10_21  0.233577814366
    R14_21  BAL13_21  0.72334830977
    R14_21  BAL16_21  0.929526174215
    R14_21  CAP21  1
    R14_22  COST  7.95068953278
    R14_22  BAL1_22  0.580693345975
    R14_22  BAL4_22  0.574753106138
    R14_22  BAL6_22  0.458712721718
    R14_22  BAL8_22  0.498468858937
    R14_22  BAL10_22  0.233577814366
    R14_22  BAL13_22  0.72334830977
    R14_22  BAL16_22  0.929526174215
    R14_22  CAP22  1
    R14_23  COST  7.95068953278
    R14_23  BAL1_23  0.580693345975
    R14_23  BAL4_23  0.574753106138
    R14_23  BAL6_23  0.458712721718
    R14_23  BAL8_23  0.498468858937
    R14_23  BAL10_23  0.233577814366
    R14_23  BAL13_23  0.72334830977
    R14_23  BAL16_23  0.929526174215
    R14_23  CAP23  1
    R15_0  COST  16.02715129
    R15_0  BAL2_0  0.683407784609
    R15_0  BAL5_0  0.603934060593
    R15_0  BAL6_0  0.305520750502
    R15_0  BAL7_0  0.572633994954
    R15_0  BAL10_0  0.791650296032
    R15_0  BAL11_0  0.513896823679
    R15_0  CAP0  1
    R15_1  COST  16.02715129
    R15_1  BAL2_1  0.683407784609
    R15_1  BAL5_1  0.603934060593
    R15_1  BAL6_1  0.305520750502
    R15_1  BAL7_1  0.572633994954
    R15_1  BAL10_1  0.791650296032
    R15_1  BAL11_1  0.513896823679
    R15_1  CAP1  1
    R15_2  COST  16.02715129
    R15_2  BAL2_2  0.683407784609
    R15_2  BAL5_2  0.603934060593
    R15_2  BAL6_2  0.305520750502
    R15_2  BAL7_2  0.572633994954
    R15_2  BAL10_2  0.791650296032
    R15_2  BAL11_2  0.513896823679
    R15_2  CAP2  1
    R15_3  COST  16.02715129
    R15_3  BAL2_3  0.683407784609
    R15_3  BAL5_3  0.603934060593
    R15_3  BAL6_3  0.305520750502
    R15_3  BAL7_3  0.572633994954
    R15_3  BAL10_3  0.791650296032
    R15_3  BAL11_3  0.513896823679
    R15_3  CAP3  1
    R15_4  COST  16.02715129
    R15_4  BAL2_4  0.683407784609
    R15_4  BAL5_4  0.603934060593
    R15_4  BAL6_4  0.305520750502
    R15_4  BAL7_4  0.572633994954
    R15_4  BAL10_4  0.791650296032
    R15_4  BAL11_4  0.513896823679
    R15_4  CAP4  1
    R15_5  COST  16.02715129
    R15_5  BAL2_5  0.683407784609
    R15_5  BAL5_5  0.603934060593
    R15_5  BAL6_5  0.305520750502
    R15_5  BAL7_5  0.572633994954
    R15_5  BAL10_5  0.791650296032
    R15_5  BAL11_5  0.513896823679
    R15_5  CAP5  1
    R15_6  COST  16.02715129
    R15_6  BAL2_6  0.683407784609
    R15_6  BAL5_6  0.603934060593
    R15_6  BAL6_6  0.305520750502
    R15_6  BAL7_6  0.572633994954
    R15_6  BAL10_6  0.791650296032
    R15_6  BAL11_6  0.513896823679
    R15_6  CAP6  1
    R15_7  COST  16.02715129
    R15_7  BAL2_7  0.683407784609
    R15_7  BAL5_7  0.603934060593
    R15_7  BAL6_7  0.305520750502
    R15_7  BAL7_7  0.572633994954
    R15_7  BAL10_7  0.791650296032
    R15_7  BAL11_7  0.513896823679
    R15_7  CAP7  1
    R15_8  COST  16.02715129
    R15_8  BAL2_8  0.683407784609
    R15_8  BAL5_8  0.603934060593
    R15_8  BAL6_8  0.305520750502
    R15_8  BAL7_8  0.572633994954
    R15_8  BAL10_8  0.791650296032
    R15_8  BAL11_8  0.513896823679
    R15_8  CAP8  1
    R15_9  COST  16.02715129
    R15_9  BAL2_9  0.683407784609
    R15_9  BAL5_9  0.603934060593
    R15_9  BAL6_9  0.305520750502
    R15_9  BAL7_9  0.572633994954
    R15_9  BAL10_9  0.791650296032
    R15_9  BAL11_9  0.513896823679
    R15_9  CAP9  1
    R15_10  COST  16.02715129
    R15_10  BAL2_10  0.683407784609
    R15_10  BAL5_10  0.603934060593
    R15_10  BAL6_10  0.305520750502
    R15_10  BAL7_10  0.572633994954
    R15_10  BAL10_10  0.791650296032
    R15_10  BAL11_10  0.513896823679
    R15_10  CAP10  1
    R15_11  COST  16.02715129
    R15_11  BAL2_11  0.683407784609
    R15_11  BAL5_11  0.603934060593
    R15_11  BAL6_11  0.305520750502
    R15_11  BAL7_11  0.572633994954
    R15_11  BAL10_11  0.791650296032
    R15_11  BAL11_11  0.513896823679
    R15_11  CAP11  1
    R15_12  COST  16.02715129
    R15_12  BAL2_12  0.683407784609
    R15_12  BAL5_12  0.603934060593
    R15_12  BAL6_12  0.305520750502
    R15_12  BAL7_12  0.572633994954
    R15_12  BAL10_12  0.791650296032
    R15_12  BAL11_12  0.513896823679
    R15_12  CAP12  1
    R15_13  COST  16.02715129
    R15_13  BAL2_13  0.683407784609
    R15_13  BAL5_13  0.603934060593
    R15_13  BAL6_13  0.305520750502
    R15_13  BAL7_13  0.572633994954
    R15_13  BAL10_13  0.791650296032
    R15_13  BAL11_13  0.513896823679
    R15_13  CAP13  1
    R15_14  COST  16.02715129
    R15_14  BAL2_14  0.683407784609
    R15_14  BAL5_14  0.603934060593
    R15_14  BAL6_14  0.305520750502
    R15_14  BAL7_14  0.572633994954
    R15_14  BAL10_14  0.791650296032
    R15_14  BAL11_14  0.513896823679
    R15_14  CAP14  1
    R15_15  COST  16.02715129
    R15_15  BAL2_15  0.683407784609
    R15_15  BAL5_15  0.603934060593
    R15_15  BAL6_15  0.305520750502
    R15_15  BAL7_15  0.572633994954
    R15_15  BAL10_15  0.791650296032
    R15_15  BAL11_15  0.513896823679
    R15_15  CAP15  1
    R15_16  COST  16.02715129
    R15_16  BAL2_16  0.683407784609
    R15_16  BAL5_16  0.603934060593
    R15_16  BAL6_16  0.305520750502
    R15_16  BAL7_16  0.572633994954
    R15_16  BAL10_16  0.791650296032
    R15_16  BAL11_16  0.513896823679
    R15_16  CAP16  1
    R15_17  COST  16.02715129
    R15_17  BAL2_17  0.683407784609
    R15_17  BAL5_17  0.603934060593
    R15_17  BAL6_17  0.305520750502
    R15_17  BAL7_17  0.572633994954
    R15_17  BAL10_17  0.791650296032
    R15_17  BAL11_17  0.513896823679
    R15_17  CAP17  1
    R15_18  COST  16.02715129
    R15_18  BAL2_18  0.683407784609
    R15_18  BAL5_18  0.603934060593
    R15_18  BAL6_18  0.305520750502
    R15_18  BAL7_18  0.572633994954
    R15_18  BAL10_18  0.791650296032
    R15_18  BAL11_18  0.513896823679
    R15_18  CAP18  1
    R15_19  COST  16.02715129
    R15_19  BAL2_19  0.683407784609
    R15_19  BAL5_19  0.603934060593
    R15_19  BAL6_19  0.305520750502
    R15_19  BAL7_19  0.572633994954
    R15_19  BAL10_19  0.791650296032
    R15_19  BAL11_19  0.513896823679
    R15_19  CAP19  1
    R15_20  COST  16.02715129
    R15_20  BAL2_20  0.683407784609
    R15_20  BAL5_20  0.603934060593
    R15_20  BAL6_20  0.305520750502
    R15_20  BAL7_20  0.572633994954
    R15_20  BAL10_20  0.791650296032
    R15_20  BAL11_20  0.513896823679
    R15_20  CAP20  1
    R15_21  COST  16.02715129
    R15_21  BAL2_21  0.683407784609
    R15_21  BAL5_21  0.603934060593
    R15_21  BAL6_21  0.305520750502
    R15_21  BAL7_21  0.572633994954
    R15_21  BAL10_21  0.791650296032
    R15_21  BAL11_21  0.513896823679
    R15_21  CAP21  1
    R15_22  COST  16.02715129
    R15_22  BAL2_22  0.683407784609
    R15_22  BAL5_22  0.603934060593
    R15_22  BAL6_22  0.305520750502
    R15_22  BAL7_22  0.572633994954
    R15_22  BAL10_22  0.791650296032
    R15_22  BAL11_22  0.513896823679
    R15_22  CAP22  1
    R15_23  COST  16.02715129
    R15_23  BAL2_23  0.683407784609
    R15_23  BAL5_23  0.603934060593
    R15_23  BAL6_23  0.305520750502
    R15_23  BAL7_23  0.572633994954
    R15_23  BAL10_23  0.791650296032
    R15_23  BAL11_23  0.513896823679
    R15_23  CAP23  1
    R16_0  COST  8.09244820911
    R16_0  BAL3_0  0.373590014195
    R16_0  BAL7_0  0.401745639493
    R16_0  BAL9_0  0.920665778454
    R16_0  BAL11_0  0.925060165089
    R16_0  BAL12_0  0.354797674102
    R16_0  BAL13_0  0.579563513025
    R16_0  BAL15_0  0.488216643275
    R16_0  BAL17_0  0.226633650248
    R16_0  CAP0  1
    R16_1  COST  8.09244820911
    R16_1  BAL3_1  0.373590014195
    R16_1  BAL7_1  0.401745639493
    R16_1  BAL9_1  0.920665778454
    R16_1  BAL11_1  0.925060165089
    R16_1  BAL12_1  0.354797674102
    R16_1  BAL13_1  0.579563513025
    R16_1  BAL15_1  0.488216643275
    R16_1  BAL17_1  0.226633650248
    R16_1  CAP1  1
    R16_2  COST  8.09244820911
    R16_2  BAL3_2  0.373590014195
    R16_2  BAL7_2  0.401745639493
    R16_2  BAL9_2  0.920665778454
    R16_2  BAL11_2  0.925060165089
    R16_2  BAL12_2  0.354797674102
    R16_2  BAL13_2  0.579563513025
    R16_2  BAL15_2  0.488216643275
    R16_2  BAL17_2  0.226633650248
    R16_2  CAP2  1
    R16_3  COST  8.09244820911
    R16_3  BAL3_3  0.373590014195
    R16_3  BAL7_3  0.401745639493
    R16_3  BAL9_3  0.920665778454
    R16_3  BAL11_3  0.925060165089
    R16_3  BAL12_3  0.354797674102
    R16_3  BAL13_3  0.579563513025
    R16_3  BAL15_3  0.488216643275
    R16_3  BAL17_3  0.226633650248
    R16_3  CAP3  1
    R16_4  COST  8.09244820911
    R16_4  BAL3_4  0.373590014195
    R16_4  BAL7_4  0.401745639493
    R16_4  BAL9_4  0.920665778454
    R16_4  BAL11_4  0.925060165089
    R16_4  BAL12_4  0.354797674102
    R16_4  BAL13_4  0.579563513025
    R16_4  BAL15_4  0.488216643275
    R16_4  BAL17_4  0.226633650248
    R16_4  CAP4  1
    R16_5  COST  8.09244820911
    R16_5  BAL3_5  0.373590014195
    R16_5  BAL7_5  0.401745639493
    R16_5  BAL9_5  0.920665778454
    R16_5  BAL11_5  0.925060165089
    R16_5  BAL12_5  0.354797674102
    R16_5  BAL13_5  0.579563513025
    R16_5  BAL15_5  0.488216643275
    R16_5  BAL17_5  0.226633650248
    R16_5  CAP5  1
    R16_6  COST  8.09244820911
    R16_6  BAL3_6  0.373590014195
    R16_6  BAL7_6  0.401745639493
    R16_6  BAL9_6  0.920665778454
    R16_6  BAL11_6  0.925060165089
    R16_6  BAL12_6  0.354797674102
    R16_6  BAL13_6  0.579563513025
    R16_6  BAL15_6  0.488216643275
    R16_6  BAL17_6  0.226633650248
    R16_6  CAP6  1
    R16_7  COST  8.09244820911
    R16_7  BAL3_7  0.373590014195
    R16_7  BAL7_7  0.401745639493
    R16_7  BAL9_7  0.920665778454
    R16_7  BAL11_7  0.925060165089
    R16_7  BAL12_7  0.354797674102
    R16_7  BAL13_7  0.579563513025
    R16_7  BAL15_7  0.488216643275
    R16_7  BAL17_7  0.226633650248
    R16_7  CAP7  1
    R16_8  COST  8.09244820911
    R16_8  BAL3_8  0.373590014195
    R16_8  BAL7_8  0.401745639493
    R16_8  BAL9_8  0.920665778454
    R16_8  BAL11_8  0.925060165089
    R16_8  BAL12_8  0.354797674102
    R16_8  BAL13_8  0.579563513025
    R16_8  BAL15_8  0.488216643275
    R16_8  BAL17_8  0.226633650248
    R16_8  CAP8  1
    R16_9  COST  8.09244820911
    R16_9  BAL3_9  0.373590014195
    R16_9  BAL7_9  0.401745639493
    R16_9  BAL9_9  0.920665778454
    R16_9  BAL11_9  0.925060165089
    R16_9  BAL12_9  0.354797674102
    R16_9  BAL13_9  0.579563513025
    R16_9  BAL15_9  0.488216643275
    R16_9  BAL17_9  0.226633650248
    R16_9  CAP9  1
    R16_10  COST  8.09244820911
    R16_10  BAL3_10  0.373590014195
    R16_10  BAL7_10  0.401745639493
    R16_10  BAL9_10  0.920665778454
    R16_10  BAL11_10  0.925060165089
    R16_10  BAL12_10  0.354797674102
    R16_10  BAL13_10  0.579563513025
    R16_10  BAL15_10  0.488216643275
    R16_10  BAL17_10  0.226633650248
    R16_10  CAP10  1
    R16_11  COST  8.09244820911
    R16_11  BAL3_11  0.373590014195
    R16_11  BAL7_11  0.401745639493
    R16_11  BAL9_11  0.920665778454
    R16_11  BAL11_11  0.925060165089
    R16_11  BAL12_11  0.354797674102
    R16_11  BAL13_11  0.579563513025
    R16_11  BAL15_11  0.488216643275
    R16_11  BAL17_11  0.226633650248
    R16_11  CAP11  1
    R16_12  COST  8.09244820911
    R16_12  BAL3_12  0.373590014195
    R16_12  BAL7_12  0.401745639493
    R16_12  BAL9_12  0.920665778454
    R16_12  BAL11_12  0.925060165089
    R16_12  BAL12_12  0.354797674102
    R16_12  BAL13_12  0.579563513025
    R16_12  BAL15_12  0.488216643275
    R16_12  BAL17_12  0.226633650248
    R16_12  CAP12  1
    R16_13  COST  8.09244820911
    R16_13  BAL3_13  0.373590014195
    R16_13  BAL7_13  0.401745639493
    R16_13  BAL9_13  0.920665778454
    R16_13  BAL11_13  0.925060165089
    R16_13  BAL12_13  0.354797674102
    R16_13  BAL13_13  0.579563513025
    R16_13  BAL15_13  0.488216643275
    R16_13  BAL17_13  0.226633650248
    R16_13  CAP13  1
    R16_14  COST  8.09244820911
    R16_14  BAL3_14  0.373590014195
    R16_14  BAL7_14  0.401745639493
    R16_14  BAL9_14  0.920665778454
    R16_14  BAL11_14  0.925060165089
    R16_14  BAL12_14  0.354797674102
    R16_14  BAL13_14  0.579563513025
    R16_14  BAL15_14  0.488216643275
    R16_14  BAL17_14  0.226633650248
    R16_14  CAP14  1
    R16_15  COST  8.09244820911
    R16_15  BAL3_15  0.373590014195
    R16_15  BAL7_15  0.401745639493
    R16_15  BAL9_15  0.920665778454
    R16_15  BAL11_15  0.925060165089
    R16_15  BAL12_15  0.354797674102
    R16_15  BAL13_15  0.579563513025
    R16_15  BAL15_15  0.488216643275
    R16_15  BAL17_15  0.226633650248
    R16_15  CAP15  1
    R16_16  COST  8.09244820911
    R16_16  BAL3_16  0.373590014195
    R16_16  BAL7_16  0.401745639493
    R16_16  BAL9_16  0.920665778454
    R16_16  BAL11_16  0.925060165089
    R16_16  BAL12_16  0.354797674102
    R16_16  BAL13_16  0.579563513025
    R16_16  BAL15_16  0.488216643275
    R16_16  BAL17_16  0.226633650248
    R16_16  CAP16  1
    R16_17  COST  8.09244820911
    R16_17  BAL3_17  0.373590014195
    R16_17  BAL7_17  0.401745639493
    R16_17  BAL9_17  0.920665778454
    R16_17  BAL11_17  0.925060165089
    R16_17  BAL12_17  0.354797674102
    R16_17  BAL13_17  0.579563513025
    R16_17  BAL15_17  0.488216643275
    R16_17  BAL17_17  0.226633650248
    R16_17  CAP17  1
    R16_18  COST  8.09244820911
    R16_18  BAL3_18  0.373590014195
    R16_18  BAL7_18  0.401745639493
    R16_18  BAL9_18  0.920665778454
    R16_18  BAL11_18  0.925060165089
    R16_18  BAL12_18  0.354797674102
    R16_18  BAL13_18  0.579563513025
    R16_18  BAL15_18  0.488216643275
    R16_18  BAL17_18  0.226633650248
    R16_18  CAP18  1
    R16_19  COST  8.09244820911
    R16_19  BAL3_19  0.373590014195
    R16_19  BAL7_19  0.401745639493
    R16_19  BAL9_19  0.920665778454
    R16_19  BAL11_19  0.925060165089
    R16_19  BAL12_19  0.354797674102
    R16_19  BAL13_19  0.579563513025
    R16_19  BAL15_19  0.488216643275
    R16_19  BAL17_19  0.226633650248
    R16_19  CAP19  1
    R16_20  COST  8.09244820911
    R16_20  BAL3_20  0.373590014195
    R16_20  BAL7_20  0.401745639493
    R16_20  BAL9_20  0.920665778454
    R16_20  BAL11_20  0.925060165089
    R16_20  BAL12_20  0.354797674102
    R16_20  BAL13_20  0.579563513025
    R16_20  BAL15_20  0.488216643275
    R16_20  BAL17_20  0.226633650248
    R16_20  CAP20  1
    R16_21  COST  8.09244820911
    R16_21  BAL3_21  0.373590014195
    R16_21  BAL7_21  0.401745639493
    R16_21  BAL9_21  0.920665778454
    R16_21  BAL11_21  0.925060165089
    R16_21  BAL12_21  0.354797674102
    R16_21  BAL13_21  0.579563513025
    R16_21  BAL15_21  0.488216643275
    R16_21  BAL17_21  0.226633650248
    R16_21  CAP21  1
    R16_22  COST  8.09244820911
    R16_22  BAL3_22  0.373590014195
    R16_22  BAL7_22  0.401745639493
    R16_22  BAL9_22  0.920665778454
    R16_22  BAL11_22  0.925060165089
    R16_22  BAL12_22  0.354797674102
    R16_22  BAL13_22  0.579563513025
    R16_22  BAL15_22  0.488216643275
    R16_22  BAL17_22  0.226633650248
    R16_22  CAP22  1
    R16_23  COST  8.09244820911
    R16_23  BAL3_23  0.373590014195
    R16_23  BAL7_23  0.401745639493
    R16_23  BAL9_23  0.920665778454
    R16_23  BAL11_23  0.925060165089
    R16_23  BAL12_23  0.354797674102
    R16_23  BAL13_23  0.579563513025
    R16_23  BAL15_23  0.488216643275
    R16_23  BAL17_23  0.226633650248
    R16_23  CAP23  1
    R17_0  COST  7.96805868663
    R17_0  BAL5_0  0.776762115954
    R17_0  BAL6_0  0.742233486383
    R17_0  BAL7_0  0.866698277387
    R17_0  BAL9_0  0.234836422471
    R17_0  BAL15_0  0.686993459317
    R17_0  BAL16_0  0.409731787128
    R17_0  BAL17_0  0.505731166942
    R17_0  CAP0  1
    R17_1  COST  7.96805868663
    R17_1  BAL5_1  0.776762115954
    R17_1  BAL6_1  0.742233486383
    R17_1  BAL7_1  0.866698277387
    R17_1  BAL9_1  0.234836422471
    R17_1  BAL15_1  0.686993459317
    R17_1  BAL16_1  0.409731787128
    R17_1  BAL17_1  0.505731166942
    R17_1  CAP1  1
    R17_2  COST  7.96805868663
    R17_2  BAL5_2  0.776762115954
    R17_2  BAL6_2  0.742233486383
    R17_2  BAL7_2  0.866698277387
    R17_2  BAL9_2  0.234836422471
    R17_2  BAL15_2  0.686993459317
    R17_2  BAL16_2  0.409731787128
    R17_2  BAL17_2  0.505731166942
    R17_2  CAP2  1
    R17_3  COST  7.96805868663
    R17_3  BAL5_3  0.776762115954
    R17_3  BAL6_3  0.742233486383
    R17_3  BAL7_3  0.866698277387
    R17_3  BAL9_3  0.234836422471
    R17_3  BAL15_3  0.686993459317
    R17_3  BAL16_3  0.409731787128
    R17_3  BAL17_3  0.505731166942
    R17_3  CAP3  1
    R17_4  COST  7.96805868663
    R17_4  BAL5_4  0.776762115954
    R17_4  BAL6_4  0.742233486383
    R17_4  BAL7_4  0.866698277387
    R17_4  BAL9_4  0.234836422471
    R17_4  BAL15_4  0.686993459317
    R17_4  BAL16_4  0.409731787128
    R17_4  BAL17_4  0.505731166942
    R17_4  CAP4  1
    R17_5  COST  7.96805868663
    R17_5  BAL5_5  0.776762115954
    R17_5  BAL6_5  0.742233486383
    R17_5  BAL7_5  0.866698277387
    R17_5  BAL9_5  0.234836422471
    R17_5  BAL15_5  0.686993459317
    R17_5  BAL16_5  0.409731787128
    R17_5  BAL17_5  0.505731166942
    R17_5  CAP5  1
    R17_6  COST  7.96805868663
    R17_6  BAL5_6  0.776762115954
    R17_6  BAL6_6  0.742233486383
    R17_6  BAL7_6  0.866698277387
    R17_6  BAL9_6  0.234836422471
    R17_6  BAL15_6  0.686993459317
    R17_6  BAL16_6  0.409731787128
    R17_6  BAL17_6  0.505731166942
    R17_6  CAP6  1
    R17_7  COST  7.96805868663
    R17_7  BAL5_7  0.776762115954
    R17_7  BAL6_7  0.742233486383
    R17_7  BAL7_7  0.866698277387
    R17_7  BAL9_7  0.234836422471
    R17_7  BAL15_7  0.686993459317
    R17_7  BAL16_7  0.409731787128
    R17_7  BAL17_7  0.505731166942
    R17_7  CAP7  1
    R17_8  COST  7.96805868663
    R17_8  BAL5_8  0.776762115954
    R17_8  BAL6_8  0.742233486383
    R17_8  BAL7_8  0.866698277387
    R17_8  BAL9_8  0.234836422471
    R17_8  BAL15_8  0.686993459317
    R17_8  BAL16_8  0.409731787128
    R17_8  BAL17_8  0.505731166942
    R17_8  CAP8  1
    R17_9  COST  7.96805868663
    R17_9  BAL5_9  0.776762115954
    R17_9  BAL6_9  0.742233486383
    R17_9  BAL7_9  0.866698277387
    R17_9  BAL9_9  0.234836422471
    R17_9  BAL15_9  0.686993459317
    R17_9  BAL16_9  0.409731787128
    R17_9  BAL17_9  0.505731166942
    R17_9  CAP9  1
    R17_10  COST  7.96805868663
    R17_10  BAL5_10  0.776762115954
    R17_10  BAL6_10  0.742233486383
    R17_10  BAL7_10  0.866698277387
    R17_10  BAL9_10  0.234836422471
    R17_10  BAL15_10  0.686993459317
    R17_10  BAL16_10  0.409731787128
    R17_10  BAL17_10  0.505731166942
    R17_10  CAP10  1
    R17_11  COST  7.96805868663
    R17_11  BAL5_11  0.776762115954
    R17_11  BAL6_11  0.742233486383
    R17_11  BAL7_11  0.866698277387
    R17_11  BAL9_11  0.234836422471
    R17_11  BAL15_11  0.686993459317
    R17_11  BAL16_11  0.409731787128
    R17_11  BAL17_11  0.505731166942
    R17_11  CAP11  1
    R17_12  COST  7.96805868663
    R17_12  BAL5_12  0.776762115954
    R17_12  BAL6_12  0.742233486383
    R17_12  BAL7_12  0.866698277387
    R17_12  BAL9_12  0.234836422471
    R17_12  BAL15_12  0.686993459317
    R17_12  BAL16_12  0.409731787128
    R17_12  BAL17_12  0.505731166942
    R17_12  CAP12  1
    R17_13  COST  7.96805868663
    R17_13  BAL5_13  0.776762115954
    R17_13  BAL6_13  0.742233486383
    R17_13  BAL7_13  0.866698277387
    R17_13  BAL9_13  0.234836422471
    R17_13  BAL15_13  0.686993459317
    R17_13  BAL16_13  0.409731787128
    R17_13  BAL17_13  0.505731166942
    R17_13  CAP13  1
    R17_14  COST  7.96805868663
    R17_14  BAL5_14  0.776762115954
    R17_14  BAL6_14  0.742233486383
    R17_14  BAL7_14  0.866698277387
    R17_14  BAL9_14  0.234836422471
    R17_14  BAL15_14  0.686993459317
    R17_14  BAL16_14  0.409731787128
    R17_14  BAL17_14  0.505731166942
    R17_14  CAP14  1
    R17_15  COST  7.96805868663
    R17_15  BAL5_15  0.776762115954
    R17_15  BAL6_15  0.742233486383
    R17_15  BAL7_15  0.866698277387
    R17_15  BAL9_15  0.234836422471
    R17_15  BAL15_15  0.686993459317
    R17_15  BAL16_15  0.409731787128
    R17_15  BAL17_15  0.505731166942
    R17_15  CAP15  1
    R17_16  COST  7.96805868663
    R17_16  BAL5_16  0.776762115954
    R17_16  BAL6_16  0.742233486383
    R17_16  BAL7_16  0.866698277387
    R17_16  BAL9_16  0.234836422471
    R17_16  BAL15_16  0.686993459317
    R17_16  BAL16_16  0.409731787128
    R17_16  BAL17_16  0.505731166942
    R17_16  CAP16  1
    R17_17  COST  7.96805868663
    R17_17  BAL5_17  0.776762115954
    R17_17  BAL6_17  0.742233486383
    R17_17  BAL7_17  0.866698277387
    R17_17  BAL9_17  0.234836422471
    R17_17  BAL15_17  0.686993459317
    R17_17  BAL16_17  0.409731787128
    R17_17  BAL17_17  0.505731166942
    R17_17  CAP17  1
    R17_18  COST  7.96805868663
    R17_18  BAL5_18  0.776762115954
    R17_18  BAL6_18  0.742233486383
    R17_18  BAL7_18  0.866698277387
    R17_18  BAL9_18  0.234836422471
    R17_18  BAL15_18  0.686993459317
    R17_18  BAL16_18  0.409731787128
    R17_18  BAL17_18  0.505731166942
    R17_18  CAP18  1
    R17_19  COST  7.96805868663
    R17_19  BAL5_19  0.776762115954
    R17_19  BAL6_19  0.742233486383
    R17_19  BAL7_19  0.866698277387
    R17_19  BAL9_19  0.234836422471
    R17_19  BAL15_19  0.686993459317
    R17_19  BAL16_19  0.409731787128
    R17_19  BAL17_19  0.505731166942
    R17_19  CAP19  1
    R17_20  COST  7.96805868663
    R17_20  BAL5_20  0.776762115954
    R17_20  BAL6_20  0.742233486383
    R17_20  BAL7_20  0.866698277387
    R17_20  BAL9_20  0.234836422471
    R17_20  BAL15_20  0.686993459317
    R17_20  BAL16_20  0.409731787128
    R17_20  BAL17_20  0.505731166942
    R17_20  CAP20  1
    R17_21  COST  7.96805868663
    R17_21  BAL5_21  0.776762115954
    R17_21  BAL6_21  0.742233486383
    R17_21  BAL7_21  0.866698277387
    R17_21  BAL9_21  0.234836422471
    R17_21  BAL15_21  0.686993459317
    R17_21  BAL16_21  0.409731787128
    R17_21  BAL17_21  0.505731166942
    R17_21  CAP21  1
    R17_22  COST  7.96805868663
    R17_22  BAL5_22  0.776762115954
    R17_22  BAL6_22  0.742233486383
    R17_22  BAL7_22  0.866698277387
    R17_22  BAL9_22  0.234836422471
    R17_22  BAL15_22  0.686993459317
    R17_22  BAL16_22  0.409731787128
    R17_22  BAL17_22  0.505731166942
    R17_22  CAP22  1
    R17_23  COST  7.96805868663
    R17_23  BAL5_23  0.776762115954
    R17_23  BAL6_23  0.742233486383
    R17_23  BAL7_23  0.866698277387
    R17_23  BAL9_23  0.234836422471
    R17_23  BAL15_23  0.686993459317
    R17_23  BAL16_23  0.409731787128
    R17_23  BAL17_23  0.505731166942
    R17_23  CAP23  1
    R18_0  COST  13.7559918486
    R18_0  BAL0_0  0.920521667261
    R18_0  BAL1_0  0.857681960646
    R18_0  BAL2_0  0.510452335573
    R18_0  BAL4_0  0.195141358004
    R18_0  BAL6_0  0.804587531495
    R18_0  BAL14_0  0.460151735441
    R18_0  BAL15_0  0.79340527868
    R18_0  CAP0  1
    R18_1  COST  13.7559918486
    R18_1  BAL0_1  0.920521667261
    R18_1  BAL1_1  0.857681960646
    R18_1  BAL2_1  0.510452335573
    R18_1  BAL4_1  0.195141358004
    R18_1  BAL6_1  0.804587531495
    R18_1  BAL14_1  0.460151735441
    R18_1  BAL15_1  0.79340527868
    R18_1  CAP1  1
    R18_2  COST  13.7559918486
    R18_2  BAL0_2  0.920521667261
    R18_2  BAL1_2  0.857681960646
    R18_2  BAL2_2  0.510452335573
    R18_2  BAL4_2  0.195141358004
    R18_2  BAL6_2  0.804587531495
    R18_2  BAL14_2  0.460151735441
    R18_2  BAL15_2  0.79340527868
    R18_2  CAP2  1
    R18_3  COST  13.7559918486
    R18_3  BAL0_3  0.920521667261
    R18_3  BAL1_3  0.857681960646
    R18_3  BAL2_3  0.510452335573
    R18_3  BAL4_3  0.195141358004
    R18_3  BAL6_3  0.804587531495
    R18_3  BAL14_3  0.460151735441
    R18_3  BAL15_3  0.79340527868
    R18_3  CAP3  1
    R18_4  COST  13.7559918486
    R18_4  BAL0_4  0.920521667261
    R18_4  BAL1_4  0.857681960646
    R18_4  BAL2_4  0.510452335573
    R18_4  BAL4_4  0.195141358004
    R18_4  BAL6_4  0.804587531495
    R18_4  BAL14_4  0.460151735441
    R18_4  BAL15_4  0.79340527868
    R18_4  CAP4  1
    R18_5  COST  13.7559918486
    R18_5  BAL0_5  0.920521667261
    R18_5  BAL1_5  0.857681960646
    R18_5  BAL2_5  0.510452335573
    R18_5  BAL4_5  0.195141358004
    R18_5  BAL6_5  0.804587531495
    R18_5  BAL14_5  0.460151735441
    R18_5  BAL15_5  0.79340527868
    R18_5  CAP5  1
    R18_6  COST  13.7559918486
    R18_6  BAL0_6  0.920521667261
    R18_6  BAL1_6  0.857681960646
    R18_6  BAL2_6  0.510452335573
    R18_6  BAL4_6  0.195141358004
    R18_6  BAL6_6  0.804587531495
    R18_6  BAL14_6  0.460151735441
    R18_6  BAL15_6  0.79340527868
    R18_6  CAP6  1
    R18_7  COST  13.7559918486
    R18_7  BAL0_7  0.920521667261
    R18_7  BAL1_7  0.857681960646
    R18_7  BAL2_7  0.510452335573
    R18_7  BAL4_7  0.195141358004
    R18_7  BAL6_7  0.804587531495
    R18_7  BAL14_7  0.460151735441
    R18_7  BAL15_7  0.79340527868
    R18_7  CAP7  1
    R18_8  COST  13.7559918486
    R18_8  BAL0_8  0.920521667261
    R18_8  BAL1_8  0.857681960646
    R18_8  BAL2_8  0.510452335573
    R18_8  BAL4_8  0.195141358004
    R18_8  BAL6_8  0.804587531495
    R18_8  BAL14_8  0.460151735441
    R18_8  BAL15_8  0.79340527868
    R18_8  CAP8  1
    R18_9  COST  13.7559918486
    R18_9  BAL0_9  0.920521667261
    R18_9  BAL1_9  0.857681960646
    R18_9  BAL2_9  0.510452335573
    R18_9  BAL4_9  0.195141358004
    R18_9  BAL6_9  0.804587531495
    R18_9  BAL14_9  0.460151735441
    R18_9  BAL15_9  0.79340527868
    R18_9  CAP9  1
    R18_10  COST  13.7559918486
    R18_10  BAL0_10  0.920521667261
    R18_10  BAL1_10  0.857681960646
    R18_10  BAL2_10  0.510452335573
    R18_10  BAL4_10  0.195141358004
    R18_10  BAL6_10  0.804587531495
    R18_10  BAL14_10  0.460151735441
    R18_10  BAL15_10  0.79340527868
    R18_10  CAP10  1
    R18_11  COST  13.7559918486
    R18_11  BAL0_11  0.920521667261
    R18_11  BAL1_11  0.857681960646
    R18_11  BAL2_11  0.510452335573
    R18_11  BAL4_11  0.195141358004
    R18_11  BAL6_11  0.804587531495
    R18_11  BAL14_11  0.460151735441
    R18_11  BAL15_11  0.79340527868
    R18_11  CAP11  1
    R18_12  COST  13.7559918486
    R18_12  BAL0_12  0.920521667261
    R18_12  BAL1_12  0.857681960646
    R18_12  BAL2_12  0.510452335573
    R18_12  BAL4_12  0.195141358004
    R18_12  BAL6_12  0.804587531495
    R18_12  BAL14_12  0.460151735441
    R18_12  BAL15_12  0.79340527868
    R18_12  CAP12  1
    R18_13  COST  13.7559918486
    R18_13  BAL0_13  0.920521667261
    R18_13  BAL1_13  0.857681960646
    R18_13  BAL2_13  0.510452335573
    R18_13  BAL4_13  0.195141358004
    R18_13  BAL6_13  0.804587531495
    R18_13  BAL14_13  0.460151735441
    R18_13  BAL15_13  0.79340527868
    R18_13  CAP13  1
    R18_14  COST  13.7559918486
    R18_14  BAL0_14  0.920521667261
    R18_14  BAL1_14  0.857681960646
    R18_14  BAL2_14  0.510452335573
    R18_14  BAL4_14  0.195141358004
    R18_14  BAL6_14  0.804587531495
    R18_14  BAL14_14  0.460151735441
    R18_14  BAL15_14  0.79340527868
    R18_14  CAP14  1
    R18_15  COST  13.7559918486
    R18_15  BAL0_15  0.920521667261
    R18_15  BAL1_15  0.857681960646
    R18_15  BAL2_15  0.510452335573
    R18_15  BAL4_15  0.195141358004
    R18_15  BAL6_15  0.804587531495
    R18_15  BAL14_15  0.460151735441
    R18_15  BAL15_15  0.79340527868
    R18_15  CAP15  1
    R18_16  COST  13.7559918486
    R18_16  BAL0_16  0.920521667261
    R18_16  BAL1_16  0.857681960646
    R18_16  BAL2_16  0.510452335573
    R18_16  BAL4_16  0.195141358004
    R18_16  BAL6_16  0.804587531495
    R18_16  BAL14_16  0.460151735441
    R18_16  BAL15_16  0.79340527868
    R18_16  CAP16  1
    R18_17  COST  13.7559918486
    R18_17  BAL0_17  0.920521667261
    R18_17  BAL1_17  0.857681960646
    R18_17  BAL2_17  0.510452335573
    R18_17  BAL4_17  0.195141358004
    R18_17  BAL6_17  0.804587531495
    R18_17  BAL14_17  0.460151735441
    R18_17  BAL15_17  0.79340527868
    R18_17  CAP17  1
    R18_18  COST  13.7559918486
    R18_18  BAL0_18  0.920521667261
    R18_18  BAL1_18  0.857681960646
    R18_18  BAL2_18  0.510452335573
    R18_18  BAL4_18  0.195141358004
    R18_18  BAL6_18  0.804587531495
    R18_18  BAL14_18  0.460151735441
    R18_18  BAL15_18  0.79340527868
    R18_18  CAP18  1
    R18_19  COST  13.7559918486
    R18_19  BAL0_19  0.920521667261
    R18_19  BAL1_19  0.857681960646
    R18_19  BAL2_19  0.510452335573
    R18_19  BAL4_19  0.195141358004
    R18_19  BAL6_19  0.804587531495
    R18_19  BAL14_19  0.460151735441
    R18_19  BAL15_19  0.79340527868
    R18_19  CAP19  1
    R18_20  COST  13.7559918486
    R18_20  BAL0_20  0.920521667261
    R18_20  BAL1_20  0.857681960646
    R18_20  BAL2_20  0.510452335573
    R18_20  BAL4_20  0.195141358004
    R18_20  BAL6_20  0.804587531495
    R18_20  BAL14_20  0.460151735441
    R18_20  BAL15_20  0.79340527868
    R18_20  CAP20  1
    R18_21  COST  13.7559918486
    R18_21  BAL0_21  0.920521667261
    R18_21  BAL1_21  0.857681960646
    R18_21  BAL2_21  0.510452335573
    R18_21  BAL4_21  0.195141358004
    R18_21  BAL6_21  0.804587531495
    R18_21  BAL14_21  0.460151735441
    R18_21  BAL15_21  0.79340527868
    R18_21  CAP21  1
    R18_22  COST  13.7559918486
    R18_22  BAL0_22  0.920521667261
    R18_22  BAL1_22  0.857681960646
    R18_22  BAL2_22  0.510452335573
    R18_22  BAL4_22  0.195141358004
    R18_22  BAL6_22  0.804587531495
    R18_22  BAL14_22  0.460151735441
    R18_22  BAL15_22  0.79340527868
    R18_22  CAP22  1
    R18_23  COST  13.7559918486
    R18_23  BAL0_23  0.920521667261
    R18_23  BAL1_23  0.857681960646
    R18_23  BAL2_23  0.510452335573
    R18_23  BAL4_23  0.195141358004
    R18_23  BAL6_23  0.804587531495
    R18_23  BAL14_23  0.460151735441
    R18_23  BAL15_23  0.79340527868
    R18_23  CAP23  1
    R19_0  COST  20.1860144237
    R19_0  BAL2_0  0.167668811285
    R19_0  BAL13_0  0.358967297118
    R19_0  CAP0  1
    R19_1  COST  20.1860144237
    R19_1  BAL2_1  0.167668811285
    R19_1  BAL13_1  0.358967297118
    R19_1  CAP1  1
    R19_2  COST  20.1860144237
    R19_2  BAL2_2  0.167668811285
    R19_2  BAL13_2  0.358967297118
    R19_2  CAP2  1
    R19_3  COST  20.1860144237
    R19_3  BAL2_3  0.167668811285
    R19_3  BAL13_3  0.358967297118
    R19_3  CAP3  1
    R19_4  COST  20.1860144237
    R19_4  BAL2_4  0.167668811285
    R19_4  BAL13_4  0.358967297118
    R19_4  CAP4  1
    R19_5  COST  20.1860144237
    R19_5  BAL2_5  0.167668811285
    R19_5  BAL13_5  0.358967297118
    R19_5  CAP5  1
    R19_6  COST  20.1860144237
    R19_6  BAL2_6  0.167668811285
    R19_6  BAL13_6  0.358967297118
    R19_6  CAP6  1
    R19_7  COST  20.1860144237
    R19_7  BAL2_7  0.167668811285
    R19_7  BAL13_7  0.358967297118
    R19_7  CAP7  1
    R19_8  COST  20.1860144237
    R19_8  BAL2_8  0.167668811285
    R19_8  BAL13_8  0.358967297118
    R19_8  CAP8  1
    R19_9  COST  20.1860144237
    R19_9  BAL2_9  0.167668811285
    R19_9  BAL13_9  0.358967297118
    R19_9  CAP9  1
    R19_10  COST  20.1860144237
    R19_10  BAL2_10  0.167668811285
    R19_10  BAL13_10  0.358967297118
    R19_10  CAP10  1
    R19_11  COST  20.1860144237
    R19_11  BAL2_11  0.167668811285
    R19_11  BAL13_11  0.358967297118
    R19_11  CAP11  1
    R19_12  COST  20.1860144237
    R19_12  BAL2_12  0.167668811285
    R19_12  BAL13_12  0.358967297118
    R19_12  CAP12  1
    R19_13  COST  20.1860144237
    R19_13  BAL2_13  0.167668811285
    R19_13  BAL13_13  0.358967297118
    R19_13  CAP13  1
    R19_14  COST  20.1860144237
    R19_14  BAL2_14  0.167668811285
    R19_14  BAL13_14  0.358967297118
    R19_14  CAP14  1
    R19_15  COST  20.1860144237
    R19_15  BAL2_15  0.167668811285
    R19_15  BAL13_15  0.358967297118
    R19_15  CAP15  1
    R19_16  COST  20.1860144237
    R19_16  BAL2_16  0.167668811285
    R19_16  BAL13_16  0.358967297118
    R19_16  CAP16  1
    R19_17  COST  20.1860144237
    R19_17  BAL2_17  0.167668811285
    R19_17  BAL13_17  0.358967297118
    R19_17  CAP17  1
    R19_18  COST  20.1860144237
    R19_18  BAL2_18  0.167668811285
    R19_18  BAL13_18  0.358967297118
    R19_18  CAP18  1
    R19_19  COST  20.1860144237
    R19_19  BAL2_19  0.167668811285
    R19_19  BAL13_19  0.358967297118
    R19_19  CAP19  1
    R19_20  COST  20.1860144237
    R19_20  BAL2_20  0.167668811285
    R19_20  BAL13_20  0.358967297118
    R19_20  CAP20  1
    R19_21  COST  20.1860144237
    R19_21  BAL2_21  0.167668811285
    R19_21  BAL13_21  0.358967297118
    R19_21  CAP21  1
    R19_22  COST  20.1860144237
    R19_22  BAL2_22  0.167668811285
    R19_22  BAL13_22  0.358967297118
    R19_22  CAP22  1
    R19_23  COST  20.1860144237
    R19_23  BAL2_23  0.167668811285
    R19_23  BAL13_23  0.358967297118
    R19_23  CAP23  1
    R20_0  COST  18.8003525278
    R20_0  BAL0_0  0.789366245272
    R20_0  BAL1_0  0.402919812462
    R20_0  BAL4_0  0.192312440327
    R20_0  BAL6_0  0.592672616304
    R20_0  BAL7_0  0.690411555271
    R20_0  BAL8_0  0.170635856518
    R20_0  BAL9_0  0.623845015664
    R20_0  BAL11_0  0.941810026038
    R20_0  BAL12_0  0.770177933031
    R20_0  CAP0  1
    R20_1  COST  18.8003525278
    R20_1  BAL0_1  0.789366245272
    R20_1  BAL1_1  0.402919812462
    R20_1  BAL4_1  0.192312440327
    R20_1  BAL6_1  0.592672616304
    R20_1  BAL7_1  0.690411555271
    R20_1  BAL8_1  0.170635856518
    R20_1  BAL9_1  0.623845015664
    R20_1  BAL11_1  0.941810026038
    R20_1  BAL12_1  0.770177933031
    R20_1  CAP1  1
    R20_2  COST  18.8003525278
    R20_2  BAL0_2  0.789366245272
    R20_2  BAL1_2  0.402919812462
    R20_2  BAL4_2  0.192312440327
    R20_2  BAL6_2  0.592672616304
    R20_2  BAL7_2  0.690411555271
    R20_2  BAL8_2  0.170635856518
    R20_2  BAL9_2  0.623845015664
    R20_2  BAL11_2  0.941810026038
    R20_2  BAL12_2  0.770177933031
    R20_2  CAP2  1
    R20_3  COST  18.8003525278
    R20_3  BAL0_3  0.789366245272
    R20_3  BAL1_3  0.402919812462
    R20_3  BAL4_3  0.192312440327
    R20_3  BAL6_3  0.592672616304
    R20_3  BAL7_3  0.690411555271
    R20_3  BAL8_3  0.170635856518
    R20_3  BAL9_3  0.623845015664
    R20_3  BAL11_3  0.941810026038
    R20_3  BAL12_3  0.770177933031
    R20_3  CAP3  1
    R20_4  COST  18.8003525278
    R20_4  BAL0_4  0.789366245272
    R20_4  BAL1_4  0.402919812462
    R20_4  BAL4_4  0.192312440327
    R20_4  BAL6_4  0.592672616304
    R20_4  BAL7_4  0.690411555271
    R20_4  BAL8_4  0.170635856518
    R20_4  BAL9_4  0.623845015664
    R20_4  BAL11_4  0.941810026038
    R20_4  BAL12_4  0.770177933031
    R20_4  CAP4  1
    R20_5  COST  18.8003525278
    R20_5  BAL0_5  0.789366245272
    R20_5  BAL1_5  0.402919812462
    R20_5  BAL4_5  0.192312440327
    R20_5  BAL6_5  0.592672616304
    R20_5  BAL7_5  0.690411555271
    R20_5  BAL8_5  0.170635856518
    R20_5  BAL9_5  0.623845015664
    R20_5  BAL11_5  0.941810026038
    R20_5  BAL12_5  0.770177933031
    R20_5  CAP5  1
    R20_6  COST  18.8003525278
    R20_6  BAL0_6  0.789366245272
    R20_6  BAL1_6  0.402919812462
    R20_6  BAL4_6  0.192312440327
    R20_6  BAL6_6  0.592672616304
    R20_6  BAL7_6  0.690411555271
    R20_6  BAL8_6  0.170635856518
    R20_6  BAL9_6  0.623845015664
    R20_6  BAL11_6  0.941810026038
    R20_6  BAL12_6  0.770177933031
    R20_6  CAP6  1
    R20_7  COST  18.8003525278
    R20_7  BAL0_7  0.789366245272
    R20_7  BAL1_7  0.402919812462
    R20_7  BAL4_7  0.192312440327
    R20_7  BAL6_7  0.592672616304
    R20_7  BAL7_7  0.690411555271
    R20_7  BAL8_7  0.170635856518
    R20_7  BAL9_7  0.623845015664
    R20_7  BAL11_7  0.941810026038
    R20_7  BAL12_7  0.770177933031
    R20_7  CAP7  1
    R20_8  COST  18.8003525278
    R20_8  BAL0_8  0.789366245272
    R20_8  BAL1_8  0.402919812462
    R20_8  BAL4_8  0.192312440327
    R20_8  BAL6_8  0.592672616304
    R20_8  BAL7_8  0.690411555271
    R20_8  BAL8_8  0.170635856518
    R20_8  BAL9_8  0.623845015664
    R20_8  BAL11_8  0.941810026038
    R20_8  BAL12_8  0.770177933031
    R20_8  CAP8  1
    R20_9  COST  18.8003525278
    R20_9  BAL0_9  0.789366245272
    R20_9  BAL1_9  0.402919812462
    R20_9  BAL4_9  0.192312440327
    R20_9  BAL6_9  0.592672616304
    R20_9  BAL7_9  0.690411555271
    R20_9  BAL8_9  0.170635856518
    R20_9  BAL9_9  0.623845015664
    R20_9  BAL11_9  0.941810026038
    R20_9  BAL12_9  0.770177933031
    R20_9  CAP9  1
    R20_10  COST  18.8003525278
    R20_10  BAL0_10  0.789366245272
    R20_10  BAL1_10  0.402919812462
    R20_10  BAL4_10  0.192312440327
    R20_10  BAL6_10  0.592672616304
    R20_10  BAL7_10  0.690411555271
    R20_10  BAL8_10  0.170635856518
    R20_10  BAL9_10  0.623845015664
    R20_10  BAL11_10  0.941810026038
    R20_10  BAL12_10  0.770177933031
    R20_10  CAP10  1
    R20_11  COST  18.8003525278
    R20_11  BAL0_11  0.789366245272
    R20_11  BAL1_11  0.402919812462
    R20_11  BAL4_11  0.192312440327
    R20_11  BAL6_11  0.592672616304
    R20_11  BAL7_11  0.690411555271
    R20_11  BAL8_11  0.170635856518
    R20_11  BAL9_11  0.623845015664
    R20_11  BAL11_11  0.941810026038
    R20_11  BAL12_11  0.770177933031
    R20_11  CAP11  1
    R20_12  COST  18.8003525278
    R20_12  BAL0_12  0.789366245272
    R20_12  BAL1_12  0.402919812462
    R20_12  BAL4_12  0.192312440327
    R20_12  BAL6_12  0.592672616304
    R20_12  BAL7_12  0.690411555271
    R20_12  BAL8_12  0.170635856518
    R20_12  BAL9_12  0.623845015664
    R20_12  BAL11_12  0.941810026038
    R20_12  BAL12_12  0.770177933031
    R20_12  CAP12  1
    R20_13  COST  18.8003525278
    R20_13  BAL0_13  0.789366245272
    R20_13  BAL1_13  0.402919812462
    R20_13  BAL4_13  0.192312440327
    R20_13  BAL6_13  0.592672616304
    R20_13  BAL7_13  0.690411555271
    R20_13  BAL8_13  0.170635856518
    R20_13  BAL9_13  0.623845015664
    R20_13  BAL11_13  0.941810026038
    R20_13  BAL12_13  0.770177933031
    R20_13  CAP13  1
    R20_14  COST  18.8003525278
    R20_14  BAL0_14  0.789366245272
    R20_14  BAL1_14  0.402919812462
    R20_14  BAL4_14  0.192312440327
    R20_14  BAL6_14  0.592672616304
    R20_14  BAL7_14  0.690411555271
    R20_14  BAL8_14  0.170635856518
    R20_14  BAL9_14  0.623845015664
    R20_14  BAL11_14  0.941810026038
    R20_14  BAL12_14  0.770177933031
    R20_14  CAP14  1
    R20_15  COST  18.8003525278
    R20_15  BAL0_15  0.789366245272
    R20_15  BAL1_15  0.402919812462
    R20_15  BAL4_15  0.192312440327
    R20_15  BAL6_15  0.592672616304
    R20_15  BAL7_15  0.690411555271
    R20_15  BAL8_15  0.170635856518
    R20_15  BAL9_15  0.623845015664
    R20_15  BAL11_15  0.941810026038
    R20_15  BAL12_15  0.770177933031
    R20_15  CAP15  1
    R20_16  COST  18.8003525278
    R20_16  BAL0_16  0.789366245272
    R20_16  BAL1_16  0.402919812462
    R20_16  BAL4_16  0.192312440327
    R20_16  BAL6_16  0.592672616304
    R20_16  BAL7_16  0.690411555271
    R20_16  BAL8_16  0.170635856518
    R20_16  BAL9_16  0.623845015664
    R20_16  BAL11_16  0.941810026038
    R20_16  BAL12_16  0.770177933031
    R20_16  CAP16  1
    R20_17  COST  18.8003525278
    R20_17  BAL0_17  0.789366245272
    R20_17  BAL1_17  0.402919812462
    R20_17  BAL4_17  0.192312440327
    R20_17  BAL6_17  0.592672616304
    R20_17  BAL7_17  0.690411555271
    R20_17  BAL8_17  0.170635856518
    R20_17  BAL9_17  0.623845015664
    R20_17  BAL11_17  0.941810026038
    R20_17  BAL12_17  0.770177933031
    R20_17  CAP17  1
    R20_18  COST  18.8003525278
    R20_18  BAL0_18  0.789366245272
    R20_18  BAL1_18  0.402919812462
    R20_18  BAL4_18  0.192312440327
    R20_18  BAL6_18  0.592672616304
    R20_18  BAL7_18  0.690411555271
    R20_18  BAL8_18  0.170635856518
    R20_18  BAL9_18  0.623845015664
    R20_18  BAL11_18  0.941810026038
    R20_18  BAL12_18  0.770177933031
    R20_18  CAP18  1
    R20_19  COST  18.8003525278
    R20_19  BAL0_19  0.789366245272
    R20_19  BAL1_19  0.402919812462
    R20_19  BAL4_19  0.192312440327
    R20_19  BAL6_19  0.592672616304
    R20_19  BAL7_19  0.690411555271
    R20_19  BAL8_19  0.170635856518
    R20_19  BAL9_19  0.623845015664
    R20_19  BAL11_19  0.941810026038
    R20_19  BAL12_19  0.770177933031
    R20_19  CAP19  1
    R20_20  COST  18.8003525278
    R20_20  BAL0_20  0.789366245272
    R20_20  BAL1_20  0.402919812462
    R20_20  BAL4_20  0.192312440327
    R20_20  BAL6_20  0.592672616304
    R20_20  BAL7_20  0.690411555271
    R20_20  BAL8_20  0.170635856518
    R20_20  BAL9_20  0.623845015664
    R20_20  BAL11_20  0.941810026038
    R20_20  BAL12_20  0.770177933031
    R20_20  CAP20  1
    R20_21  COST  18.8003525278
    R20_21  BAL0_21  0.789366245272
    R20_21  BAL1_21  0.402919812462
    R20_21  BAL4_21  0.192312440327
    R20_21  BAL6_21  0.592672616304
    R20_21  BAL7_21  0.690411555271
    R20_21  BAL8_21  0.170635856518
    R20_21  BAL9_21  0.623845015664
    R20_21  BAL11_21  0.941810026038
    R20_21  BAL12_21  0.770177933031
    R20_21  CAP21  1
    R20_22  COST  18.8003525278
    R20_22  BAL0_22  0.789366245272
    R20_22  BAL1_22  0.402919812462
    R20_22  BAL4_22  0.192312440327
    R20_22  BAL6_22  0.592672616304
    R20_22  BAL7_22  0.690411555271
    R20_22  BAL8_22  0.170635856518
    R20_22  BAL9_22  0.623845015664
    R20_22  BAL11_22  0.941810026038
    R20_22  BAL12_22  0.770177933031
    R20_22  CAP22  1
    R20_23  COST  18.8003525278
    R20_23  BAL0_23  0.789366245272
    R20_23  BAL1_23  0.402919812462
    R20_23  BAL4_23  0.192312440327
    R20_23  BAL6_23  0.592672616304
    R20_23  BAL7_23  0.690411555271
    R20_23  BAL8_23  0.170635856518
    R20_23  BAL9_23  0.623845015664
    R20_23  BAL11_23  0.941810026038
    R20_23  BAL12_23  0.770177933031
    R20_23  CAP23  1
    R21_0  COST  13.651425533
    R21_0  BAL0_0  0.92677728893
    R21_0  BAL5_0  0.703204495938
    R21_0  BAL7_0  0.716678131804
    R21_0  BAL8_0  0.694741747579
    R21_0  BAL12_0  0.888373573105
    R21_0  BAL13_0  0.660281314999
    R21_0  BAL14_0  0.683424002612
    R21_0  BAL15_0  0.216142548819
    R21_0  BAL16_0  0.707711348415
    R21_0  CAP0  1
    R21_1  COST  13.651425533
    R21_1  BAL0_1  0.92677728893
    R21_1  BAL5_1  0.703204495938
    R21_1  BAL7_1  0.716678131804
    R21_1  BAL8_1  0.694741747579
    R21_1  BAL12_1  0.888373573105
    R21_1  BAL13_1  0.660281314999
    R21_1  BAL14_1  0.683424002612
    R21_1  BAL15_1  0.216142548819
    R21_1  BAL16_1  0.707711348415
    R21_1  CAP1  1
    R21_2  COST  13.651425533
    R21_2  BAL0_2  0.92677728893
    R21_2  BAL5_2  0.703204495938
    R21_2  BAL7_2  0.716678131804
    R21_2  BAL8_2  0.694741747579
    R21_2  BAL12_2  0.888373573105
    R21_2  BAL13_2  0.660281314999
    R21_2  BAL14_2  0.683424002612
    R21_2  BAL15_2  0.216142548819
    R21_2  BAL16_2  0.707711348415
    R21_2  CAP2  1
    R21_3  COST  13.651425533
    R21_3  BAL0_3  0.92677728893
    R21_3  BAL5_3  0.703204495938
    R21_3  BAL7_3  0.716678131804
    R21_3  BAL8_3  0.694741747579
    R21_3  BAL12_3  0.888373573105
    R21_3  BAL13_3  0.660281314999
    R21_3  BAL14_3  0.683424002612
    R21_3  BAL15_3  0.216142548819
    R21_3  BAL16_3  0.707711348415
    R21_3  CAP3  1
    R21_4  COST  13.651425533
    R21_4  BAL0_4  0.92677728893
    R21_4  BAL5_4  0.703204495938
    R21_4  BAL7_4  0.716678131804
    R21_4  BAL8_4  0.694741747579
    R21_4  BAL12_4  0.888373573105
    R21_4  BAL13_4  0.660281314999
    R21_4  BAL14_4  0.683424002612
    R21_4  BAL15_4  0.216142548819
    R21_4  BAL16_4  0.707711348415
    R21_4  CAP4  1
    R21_5  COST  13.651425533
    R21_5  BAL0_5  0.92677728893
    R21_5  BAL5_5  0.703204495938
    R21_5  BAL7_5  0.716678131804
    R21_5  BAL8_5  0.694741747579
    R21_5  BAL12_5  0.888373573105
    R21_5  BAL13_5  0.660281314999
    R21_5  BAL14_5  0.683424002612
    R21_5  BAL15_5  0.216142548819
    R21_5  BAL16_5  0.707711348415
    R21_5  CAP5  1
    R21_6  COST  13.651425533
    R21_6  BAL0_6  0.92677728893
    R21_6  BAL5_6  0.703204495938
    R21_6  BAL7_6  0.716678131804
    R21_6  BAL8_6  0.694741747579
    R21_6  BAL12_6  0.888373573105
    R21_6  BAL13_6  0.660281314999
    R21_6  BAL14_6  0.683424002612
    R21_6  BAL15_6  0.216142548819
    R21_6  BAL16_6  0.707711348415
    R21_6  CAP6  1
    R21_7  COST  13.651425533
    R21_7  BAL0_7  0.92677728893
    R21_7  BAL5_7  0.703204495938
    R21_7  BAL7_7  0.716678131804
    R21_7  BAL8_7  0.694741747579
    R21_7  BAL12_7  0.888373573105
    R21_7  BAL13_7  0.660281314999
    R21_7  BAL14_7  0.683424002612
    R21_7  BAL15_7  0.216142548819
    R21_7  BAL16_7  0.707711348415
    R21_7  CAP7  1
    R21_8  COST  13.651425533
    R21_8  BAL0_8  0.92677728893
    R21_8  BAL5_8  0.703204495938
    R21_8  BAL7_8  0.716678131804
    R21_8  BAL8_8  0.694741747579
    R21_8  BAL12_8  0.888373573105
    R21_8  BAL13_8  0.660281314999
    R21_8  BAL14_8  0.683424002612
    R21_8  BAL15_8  0.216142548819
    R21_8  BAL16_8  0.707711348415
    R21_8  CAP8  1
    R21_9  COST  13.651425533
    R21_9  BAL0_9  0.92677728893
    R21_9  BAL5_9  0.703204495938
    R21_9  BAL7_9  0.716678131804
    R21_9  BAL8_9  0.694741747579
    R21_9  BAL12_9  0.888373573105
    R21_9  BAL13_9  0.660281314999
    R21_9  BAL14_9  0.683424002612
    R21_9  BAL15_9  0.216142548819
    R21_9  BAL16_9  0.707711348415
    R21_9  CAP9  1
    R21_10  COST  13.651425533
    R21_10  BAL0_10  0.92677728893
    R21_10  BAL5_10  0.703204495938
    R21_10  BAL7_10  0.716678131804
    R21_10  BAL8_10  0.694741747579
    R21_10  BAL12_10  0.888373573105
    R21_10  BAL13_10  0.660281314999
    R21_10  BAL14_10  0.683424002612
    R21_10  BAL15_10  0.216142548819
    R21_10  BAL16_10  0.707711348415
    R21_10  CAP10  1
    R21_11  COST  13.651425533
    R21_11  BAL0_11  0.92677728893
    R21_11  BAL5_11  0.703204495938
    R21_11  BAL7_11  0.716678131804
    R21_11  BAL8_11  0.694741747579
    R21_11  BAL12_11  0.888373573105
    R21_11  BAL13_11  0.660281314999
    R21_11  BAL14_11  0.683424002612
    R21_11  BAL15_11  0.216142548819
    R21_11  BAL16_11  0.707711348415
    R21_11  CAP11  1
    R21_12  COST  13.651425533
    R21_12  BAL0_12  0.92677728893
    R21_12  BAL5_12  0.703204495938
    R21_12  BAL7_12  0.716678131804
    R21_12  BAL8_12  0.694741747579
    R21_12  BAL12_12  0.888373573105
    R21_12  BAL13_12  0.660281314999
    R21_12  BAL14_12  0.683424002612
    R21_12  BAL15_12  0.216142548819
    R21_12  BAL16_12  0.707711348415
    R21_12  CAP12  1
    R21_13  COST  13.651425533
    R21_13  BAL0_13  0.92677728893
    R21_13  BAL5_13  0.703204495938
    R21_13  BAL7_13  0.716678131804
    R21_13  BAL8_13  0.694741747579
    R21_13  BAL12_13  0.888373573105
    R21_13  BAL13_13  0.660281314999
    R21_13  BAL14_13  0.683424002612
    R21_13  BAL15_13  0.216142548819
    R21_13  BAL16_13  0.707711348415
    R21_13  CAP13  1
    R21_14  COST  13.651425533
    R21_14  BAL0_14  0.92677728893
    R21_14  BAL5_14  0.703204495938
    R21_14  BAL7_14  0.716678131804
    R21_14  BAL8_14  0.694741747579
    R21_14  BAL12_14  0.888373573105
    R21_14  BAL13_14  0.660281314999
    R21_14  BAL14_14  0.683424002612
    R21_14  BAL15_14  0.216142548819
    R21_14  BAL16_14  0.707711348415
    R21_14  CAP14  1
    R21_15  COST  13.651425533
    R21_15  BAL0_15  0.92677728893
    R21_15  BAL5_15  0.703204495938
    R21_15  BAL7_15  0.716678131804
    R21_15  BAL8_15  0.694741747579
    R21_15  BAL12_15  0.888373573105
    R21_15  BAL13_15  0.660281314999
    R21_15  BAL14_15  0.683424002612
    R21_15  BAL15_15  0.216142548819
    R21_15  BAL16_15  0.707711348415
    R21_15  CAP15  1
    R21_16  COST  13.651425533
    R21_16  BAL0_16  0.92677728893
    R21_16  BAL5_16  0.703204495938
    R21_16  BAL7_16  0.716678131804
    R21_16  BAL8_16  0.694741747579
    R21_16  BAL12_16  0.888373573105
    R21_16  BAL13_16  0.660281314999
    R21_16  BAL14_16  0.683424002612
    R21_16  BAL15_16  0.216142548819
    R21_16  BAL16_16  0.707711348415
    R21_16  CAP16  1
    R21_17  COST  13.651425533
    R21_17  BAL0_17  0.92677728893
    R21_17  BAL5_17  0.703204495938
    R21_17  BAL7_17  0.716678131804
    R21_17  BAL8_17  0.694741747579
    R21_17  BAL12_17  0.888373573105
    R21_17  BAL13_17  0.660281314999
    R21_17  BAL14_17  0.683424002612
    R21_17  BAL15_17  0.216142548819
    R21_17  BAL16_17  0.707711348415
    R21_17  CAP17  1
    R21_18  COST  13.651425533
    R21_18  BAL0_18  0.92677728893
    R21_18  BAL5_18  0.703204495938
    R21_18  BAL7_18  0.716678131804
    R21_18  BAL8_18  0.694741747579
    R21_18  BAL12_18  0.888373573105
    R21_18  BAL13_18  0.660281314999
    R21_18  BAL14_18  0.683424002612
    R21_18  BAL15_18  0.216142548819
    R21_18  BAL16_18  0.707711348415
    R21_18  CAP18  1
    R21_19  COST  13.651425533
    R21_19  BAL0_19  0.92677728893
    R21_19  BAL5_19  0.703204495938
    R21_19  BAL7_19  0.716678131804
    R21_19  BAL8_19  0.694741747579
    R21_19  BAL12_19  0.888373573105
    R21_19  BAL13_19  0.660281314999
    R21_19  BAL14_19  0.683424002612
    R21_19  BAL15_19  0.216142548819
    R21_19  BAL16_19  0.707711348415
    R21_19  CAP19  1
    R21_20  COST  13.651425533
    R21_20  BAL0_20  0.92677728893
    R21_20  BAL5_20  0.703204495938
    R21_20  BAL7_20  0.716678131804
    R21_20  BAL8_20  0.694741747579
    R21_20  BAL12_20  0.888373573105
    R21_20  BAL13_20  0.660281314999
    R21_20  BAL14_20  0.683424002612
    R21_20  BAL15_20  0.216142548819
    R21_20  BAL16_20  0.707711348415
    R21_20  CAP20  1
    R21_21  COST  13.651425533
    R21_21  BAL0_21  0.92677728893
    R21_21  BAL5_21  0.703204495938
    R21_21  BAL7_21  0.716678131804
    R21_21  BAL8_21  0.694741747579
    R21_21  BAL12_21  0.888373573105
    R21_21  BAL13_21  0.660281314999
    R21_21  BAL14_21  0.683424002612
    R21_21  BAL15_21  0.216142548819
    R21_21  BAL16_21  0.707711348415
    R21_21  CAP21  1
    R21_22  COST  13.651425533
    R21_22  BAL0_22  0.92677728893
    R21_22  BAL5_22  0.703204495938
    R21_22  BAL7_22  0.716678131804
    R21_22  BAL8_22  0.694741747579
    R21_22  BAL12_22  0.888373573105
    R21_22  BAL13_22  0.660281314999
    R21_22  BAL14_22  0.683424002612
    R21_22  BAL15_22  0.216142548819
    R21_22  BAL16_22  0.707711348415
    R21_22  CAP22  1
    R21_23  COST  13.651425533
    R21_23  BAL0_23  0.92677728893
    R21_23  BAL5_23  0.703204495938
    R21_23  BAL7_23  0.716678131804
    R21_23  BAL8_23  0.694741747579
    R21_23  BAL12_23  0.888373573105
    R21_23  BAL13_23  0.660281314999
    R21_23  BAL14_23  0.683424002612
    R21_23  BAL15_23  0.216142548819
    R21_23  BAL16_23  0.707711348415
    R21_23  CAP23  1
    R22_0  COST  5.36044885211
    R22_0  BAL0_0  0.488752785741
    R22_0  BAL4_0  0.486140462823
    R22_0  BAL7_0  0.872083166261
    R22_0  BAL12_0  0.687993352151
    R22_0  BAL17_0  0.47291229443
    R22_0  CAP0  1
    R22_1  COST  5.36044885211
    R22_1  BAL0_1  0.488752785741
    R22_1  BAL4_1  0.486140462823
    R22_1  BAL7_1  0.872083166261
    R22_1  BAL12_1  0.687993352151
    R22_1  BAL17_1  0.47291229443
    R22_1  CAP1  1
    R22_2  COST  5.36044885211
    R22_2  BAL0_2  0.488752785741
    R22_2  BAL4_2  0.486140462823
    R22_2  BAL7_2  0.872083166261
    R22_2  BAL12_2  0.687993352151
    R22_2  BAL17_2  0.47291229443
    R22_2  CAP2  1
    R22_3  COST  5.36044885211
    R22_3  BAL0_3  0.488752785741
    R22_3  BAL4_3  0.486140462823
    R22_3  BAL7_3  0.872083166261
    R22_3  BAL12_3  0.687993352151
    R22_3  BAL17_3  0.47291229443
    R22_3  CAP3  1
    R22_4  COST  5.36044885211
    R22_4  BAL0_4  0.488752785741
    R22_4  BAL4_4  0.486140462823
    R22_4  BAL7_4  0.872083166261
    R22_4  BAL12_4  0.687993352151
    R22_4  BAL17_4  0.47291229443
    R22_4  CAP4  1
    R22_5  COST  5.36044885211
    R22_5  BAL0_5  0.488752785741
    R22_5  BAL4_5  0.486140462823
    R22_5  BAL7_5  0.872083166261
    R22_5  BAL12_5  0.687993352151
    R22_5  BAL17_5  0.47291229443
    R22_5  CAP5  1
    R22_6  COST  5.36044885211
    R22_6  BAL0_6  0.488752785741
    R22_6  BAL4_6  0.486140462823
    R22_6  BAL7_6  0.872083166261
    R22_6  BAL12_6  0.687993352151
    R22_6  BAL17_6  0.47291229443
    R22_6  CAP6  1
    R22_7  COST  5.36044885211
    R22_7  BAL0_7  0.488752785741
    R22_7  BAL4_7  0.486140462823
    R22_7  BAL7_7  0.872083166261
    R22_7  BAL12_7  0.687993352151
    R22_7  BAL17_7  0.47291229443
    R22_7  CAP7  1
    R22_8  COST  5.36044885211
    R22_8  BAL0_8  0.488752785741
    R22_8  BAL4_8  0.486140462823
    R22_8  BAL7_8  0.872083166261
    R22_8  BAL12_8  0.687993352151
    R22_8  BAL17_8  0.47291229443
    R22_8  CAP8  1
    R22_9  COST  5.36044885211
    R22_9  BAL0_9  0.488752785741
    R22_9  BAL4_9  0.486140462823
    R22_9  BAL7_9  0.872083166261
    R22_9  BAL12_9  0.687993352151
    R22_9  BAL17_9  0.47291229443
    R22_9  CAP9  1
    R22_10  COST  5.36044885211
    R22_10  BAL0_10  0.488752785741
    R22_10  BAL4_10  0.486140462823
    R22_10  BAL7_10  0.872083166261
    R22_10  BAL12_10  0.687993352151
    R22_10  BAL17_10  0.47291229443
    R22_10  CAP10  1
    R22_11  COST  5.36044885211
    R22_11  BAL0_11  0.488752785741
    R22_11  BAL4_11  0.486140462823
    R22_11  BAL7_11  0.872083166261
    R22_11  BAL12_11  0.687993352151
    R22_11  BAL17_11  0.47291229443
    R22_11  CAP11  1
    R22_12  COST  5.36044885211
    R22_12  BAL0_12  0.488752785741
    R22_12  BAL4_12  0.486140462823
    R22_12  BAL7_12  0.872083166261
    R22_12  BAL12_12  0.687993352151
    R22_12  BAL17_12  0.47291229443
    R22_12  CAP12  1
    R22_13  COST  5.36044885211
    R22_13  BAL0_13  0.488752785741
    R22_13  BAL4_13  0.486140462823
    R22_13  BAL7_13  0.872083166261
    R22_13  BAL12_13  0.687993352151
    R22_13  BAL17_13  0.47291229443
    R22_13  CAP13  1
    R22_14  COST  5.36044885211
    R22_14  BAL0_14  0.488752785741
    R22_14  BAL4_14  0.486140462823
    R22_14  BAL7_14  0.872083166261
    R22_14  BAL12_14  0.687993352151
    R22_14  BAL17_14  0.47291229443
    R22_14  CAP14  1
    R22_15  COST  5.36044885211
    R22_15  BAL0_15  0.488752785741
    R22_15  BAL4_15  0.486140462823
    R22_15  BAL7_15  0.872083166261
    R22_15  BAL12_15  0.687993352151
    R22_15  BAL17_15  0.47291229443
    R22_15  CAP15  1
    R22_16  COST  5.36044885211
    R22_16  BAL0_16  0.488752785741
    R22_16  BAL4_16  0.486140462823
    R22_16  BAL7_16  0.872083166261
    R22_16  BAL12_16  0.687993352151
    R22_16  BAL17_16  0.47291229443
    R22_16  CAP16  1
    R22_17  COST  5.36044885211
    R22_17  BAL0_17  0.488752785741
    R22_17  BAL4_17  0.486140462823
    R22_17  BAL7_17  0.872083166261
    R22_17  BAL12_17  0.687993352151
    R22_17  BAL17_17  0.47291229443
    R22_17  CAP17  1
    R22_18  COST  5.36044885211
    R22_18  BAL0_18  0.488752785741
    R22_18  BAL4_18  0.486140462823
    R22_18  BAL7_18  0.872083166261
    R22_18  BAL12_18  0.687993352151
    R22_18  BAL17_18  0.47291229443
    R22_18  CAP18  1
    R22_19  COST  5.36044885211
    R22_19  BAL0_19  0.488752785741
    R22_19  BAL4_19  0.486140462823
    R22_19  BAL7_19  0.872083166261
    R22_19  BAL12_19  0.687993352151
    R22_19  BAL17_19  0.47291229443
    R22_19  CAP19  1
    R22_20  COST  5.36044885211
    R22_20  BAL0_20  0.488752785741
    R22_20  BAL4_20  0.486140462823
    R22_20  BAL7_20  0.872083166261
    R22_20  BAL12_20  0.687993352151
    R22_20  BAL17_20  0.47291229443
    R22_20  CAP20  1
    R22_21  COST  5.36044885211
    R22_21  BAL0_21  0.488752785741
    R22_21  BAL4_21  0.486140462823
    R22_21  BAL7_21  0.872083166261
    R22_21  BAL12_21  0.687993352151
    R22_21  BAL17_21  0.47291229443
    R22_21  CAP21  1
    R22_22  COST  5.36044885211
    R22_22  BAL0_22  0.488752785741
    R22_22  BAL4_22  0.486140462823
    R22_22  BAL7_22  0.872083166261
    R22_22  BAL12_22  0.687993352151
    R22_22  BAL17_22  0.47291229443
    R22_22  CAP22  1
    R22_23  COST  5.36044885211
    R22_23  BAL0_23  0.488752785741
    R22_23  BAL4_23  0.486140462823
    R22_23  BAL7_23  0.872083166261
    R22_23  BAL12_23  0.687993352151
    R22_23  BAL17_23  0.47291229443
    R22_23  CAP23  1
    R23_0  COST  18.7898702242
    R23_0  BAL4_0  0.456341762142
    R23_0  BAL5_0  0.456551775878
    R23_0  BAL8_0  0.160953455241
    R23_0  BAL11_0  0.54076126609
    R23_0  BAL13_0  0.43260627916
    R23_0  BAL14_0  0.467808172271
    R23_0  BAL17_0  0.590137990648
    R23_0  CAP0  1
    R23_1  COST  18.7898702242
    R23_1  BAL4_1  0.456341762142
    R23_1  BAL5_1  0.456551775878
    R23_1  BAL8_1  0.160953455241
    R23_1  BAL11_1  0.54076126609
    R23_1  BAL13_1  0.43260627916
    R23_1  BAL14_1  0.467808172271
    R23_1  BAL17_1  0.590137990648
    R23_1  CAP1  1
    R23_2  COST  18.7898702242
    R23_2  BAL4_2  0.456341762142
    R23_2  BAL5_2  0.456551775878
    R23_2  BAL8_2  0.160953455241
    R23_2  BAL11_2  0.54076126609
    R23_2  BAL13_2  0.43260627916
    R23_2  BAL14_2  0.467808172271
    R23_2  BAL17_2  0.590137990648
    R23_2  CAP2  1
    R23_3  COST  18.7898702242
    R23_3  BAL4_3  0.456341762142
    R23_3  BAL5_3  0.456551775878
    R23_3  BAL8_3  0.160953455241
    R23_3  BAL11_3  0.54076126609
    R23_3  BAL13_3  0.43260627916
    R23_3  BAL14_3  0.467808172271
    R23_3  BAL17_3  0.590137990648
    R23_3  CAP3  1
    R23_4  COST  18.7898702242
    R23_4  BAL4_4  0.456341762142
    R23_4  BAL5_4  0.456551775878
    R23_4  BAL8_4  0.160953455241
    R23_4  BAL11_4  0.54076126609
    R23_4  BAL13_4  0.43260627916
    R23_4  BAL14_4  0.467808172271
    R23_4  BAL17_4  0.590137990648
    R23_4  CAP4  1
    R23_5  COST  18.7898702242
    R23_5  BAL4_5  0.456341762142
    R23_5  BAL5_5  0.456551775878
    R23_5  BAL8_5  0.160953455241
    R23_5  BAL11_5  0.54076126609
    R23_5  BAL13_5  0.43260627916
    R23_5  BAL14_5  0.467808172271
    R23_5  BAL17_5  0.590137990648
    R23_5  CAP5  1
    R23_6  COST  18.7898702242
    R23_6  BAL4_6  0.456341762142
    R23_6  BAL5_6  0.456551775878
    R23_6  BAL8_6  0.160953455241
    R23_6  BAL11_6  0.54076126609
    R23_6  BAL13_6  0.43260627916
    R23_6  BAL14_6  0.467808172271
    R23_6  BAL17_6  0.590137990648
    R23_6  CAP6  1
    R23_7  COST  18.7898702242
    R23_7  BAL4_7  0.456341762142
    R23_7  BAL5_7  0.456551775878
    R23_7  BAL8_7  0.160953455241
    R23_7  BAL11_7  0.54076126609
    R23_7  BAL13_7  0.43260627916
    R23_7  BAL14_7  0.467808172271
    R23_7  BAL17_7  0.590137990648
    R23_7  CAP7  1
    R23_8  COST  18.7898702242
    R23_8  BAL4_8  0.456341762142
    R23_8  BAL5_8  0.456551775878
    R23_8  BAL8_8  0.160953455241
    R23_8  BAL11_8  0.54076126609
    R23_8  BAL13_8  0.43260627916
    R23_8  BAL14_8  0.467808172271
    R23_8  BAL17_8  0.590137990648
    R23_8  CAP8  1
    R23_9  COST  18.7898702242
    R23_9  BAL4_9  0.456341762142
    R23_9  BAL5_9  0.456551775878
    R23_9  BAL8_9  0.160953455241
    R23_9  BAL11_9  0.54076126609
    R23_9  BAL13_9  0.43260627916
    R23_9  BAL14_9  0.467808172271
    R23_9  BAL17_9  0.590137990648
    R23_9  CAP9  1
    R23_10  COST  18.7898702242
    R23_10  BAL4_10  0.456341762142
    R23_10  BAL5_10  0.456551775878
    R23_10  BAL8_10  0.160953455241
    R23_10  BAL11_10  0.54076126609
    R23_10  BAL13_10  0.43260627916
    R23_10  BAL14_10  0.467808172271
    R23_10  BAL17_10  0.590137990648
    R23_10  CAP10  1
    R23_11  COST  18.7898702242
    R23_11  BAL4_11  0.456341762142
    R23_11  BAL5_11  0.456551775878
    R23_11  BAL8_11  0.160953455241
    R23_11  BAL11_11  0.54076126609
    R23_11  BAL13_11  0.43260627916
    R23_11  BAL14_11  0.467808172271
    R23_11  BAL17_11  0.590137990648
    R23_11  CAP11  1
    R23_12  COST  18.7898702242
    R23_12  BAL4_12  0.456341762142
    R23_12  BAL5_12  0.456551775878
    R23_12  BAL8_12  0.160953455241
    R23_12  BAL11_12  0.54076126609
    R23_12  BAL13_12  0.43260627916
    R23_12  BAL14_12  0.467808172271
    R23_12  BAL17_12  0.590137990648
    R23_12  CAP12  1
    R23_13  COST  18.7898702242
    R23_13  BAL4_13  0.456341762142
    R23_13  BAL5_13  0.456551775878
    R23_13  BAL8_13  0.160953455241
    R23_13  BAL11_13  0.54076126609
    R23_13  BAL13_13  0.43260627916
    R23_13  BAL14_13  0.467808172271
    R23_13  BAL17_13  0.590137990648
    R23_13  CAP13  1
    R23_14  COST  18.7898702242
    R23_14  BAL4_14  0.456341762142
    R23_14  BAL5_14  0.456551775878
    R23_14  BAL8_14  0.160953455241
    R23_14  BAL11_14  0.54076126609
    R23_14  BAL13_14  0.43260627916
    R23_14  BAL14_14  0.467808172271
    R23_14  BAL17_14  0.590137990648
    R23_14  CAP14  1
    R23_15  COST  18.7898702242
    R23_15  BAL4_15  0.456341762142
    R23_15  BAL5_15  0.456551775878
    R23_15  BAL8_15  0.160953455241
    R23_15  BAL11_15  0.54076126609
    R23_15  BAL13_15  0.43260627916
    R23_15  BAL14_15  0.467808172271
    R23_15  BAL17_15  0.590137990648
    R23_15  CAP15  1
    R23_16  COST  18.7898702242
    R23_16  BAL4_16  0.456341762142
    R23_16  BAL5_16  0.456551775878
    R23_16  BAL8_16  0.160953455241
    R23_16  BAL11_16  0.54076126609
    R23_16  BAL13_16  0.43260627916
    R23_16  BAL14_16  0.467808172271
    R23_16  BAL17_16  0.590137990648
    R23_16  CAP16  1
    R23_17  COST  18.7898702242
    R23_17  BAL4_17  0.456341762142
    R23_17  BAL5_17  0.456551775878
    R23_17  BAL8_17  0.160953455241
    R23_17  BAL11_17  0.54076126609
    R23_17  BAL13_17  0.43260627916
    R23_17  BAL14_17  0.467808172271
    R23_17  BAL17_17  0.590137990648
    R23_17  CAP17  1
    R23_18  COST  18.7898702242
    R23_18  BAL4_18  0.456341762142
    R23_18  BAL5_18  0.456551775878
    R23_18  BAL8_18  0.160953455241
    R23_18  BAL11_18  0.54076126609
    R23_18  BAL13_18  0.43260627916
    R23_18  BAL14_18  0.467808172271
    R23_18  BAL17_18  0.590137990648
    R23_18  CAP18  1
    R23_19  COST  18.7898702242
    R23_19  BAL4_19  0.456341762142
    R23_19  BAL5_19  0.456551775878
    R23_19  BAL8_19  0.160953455241
    R23_19  BAL11_19  0.54076126609
    R23_19  BAL13_19  0.43260627916
    R23_19  BAL14_19  0.467808172271
    R23_19  BAL17_19  0.590137990648
    R23_19  CAP19  1
    R23_20  COST  18.7898702242
    R23_20  BAL4_20  0.456341762142
    R23_20  BAL5_20  0.456551775878
    R23_20  BAL8_20  0.160953455241
    R23_20  BAL11_20  0.54076126609
    R23_20  BAL13_20  0.43260627916
    R23_20  BAL14_20  0.467808172271
    R23_20  BAL17_20  0.590137990648
    R23_20  CAP20  1
    R23_21  COST  18.7898702242
    R23_21  BAL4_21  0.456341762142
    R23_21  BAL5_21  0.456551775878
    R23_21  BAL8_21  0.160953455241
    R23_21  BAL11_21  0.54076126609
    R23_21  BAL13_21  0.43260627916
    R23_21  BAL14_21  0.467808172271
    R23_21  BAL17_21  0.590137990648
    R23_21  CAP21  1
    R23_22  COST  18.7898702242
    R23_22  BAL4_22  0.456341762142
    R23_22  BAL5_22  0.456551775878
    R23_22  BAL8_22  0.160953455241
    R23_22  BAL11_22  0.54076126609
    R23_22  BAL13_22  0.43260627916
    R23_22  BAL14_22  0.467808172271
    R23_22  BAL17_22  0.590137990648
    R23_22  CAP22  1
    R23_23  COST  18.7898702242
    R23_23  BAL4_23  0.456341762142
    R23_23  BAL5_23  0.456551775878
    R23_23  BAL8_23  0.160953455241
    R23_23  BAL11_23  0.54076126609
    R23_23  BAL13_23  0.43260627916
    R23_23  BAL14_23  0.467808172271
    R23_23  BAL17_23  0.590137990648
    R23_23  CAP23  1
    R24_0  COST  17.4505079995
    R24_0  BAL0_0  0.42002909423
    R24_0  BAL1_0  0.864155703388
    R24_0  BAL5_0  0.461554206343
    R24_0  BAL7_0  0.528277259623
    R24_0  BAL13_0  0.837831585751
    R24_0  BAL14_0  0.523031540121
    R24_0  BAL15_0  0.804794025867
    R24_0  CAP0  1
    R24_1  COST  17.4505079995
    R24_1  BAL0_1  0.42002909423
    R24_1  BAL1_1  0.864155703388
    R24_1  BAL5_1  0.461554206343
    R24_1  BAL7_1  0.528277259623
    R24_1  BAL13_1  0.837831585751
    R24_1  BAL14_1  0.523031540121
    R24_1  BAL15_1  0.804794025867
    R24_1  CAP1  1
    R24_2  COST  17.4505079995
    R24_2  BAL0_2  0.42002909423
    R24_2  BAL1_2  0.864155703388
    R24_2  BAL5_2  0.461554206343
    R24_2  BAL7_2  0.528277259623
    R24_2  BAL13_2  0.837831585751
    R24_2  BAL14_2  0.523031540121
    R24_2  BAL15_2  0.804794025867
    R24_2  CAP2  1
    R24_3  COST  17.4505079995
    R24_3  BAL0_3  0.42002909423
    R24_3  BAL1_3  0.864155703388
    R24_3  BAL5_3  0.461554206343
    R24_3  BAL7_3  0.528277259623
    R24_3  BAL13_3  0.837831585751
    R24_3  BAL14_3  0.523031540121
    R24_3  BAL15_3  0.804794025867
    R24_3  CAP3  1
    R24_4  COST  17.4505079995
    R24_4  BAL0_4  0.42002909423
    R24_4  BAL1_4  0.864155703388
    R24_4  BAL5_4  0.461554206343
    R24_4  BAL7_4  0.528277259623
    R24_4  BAL13_4  0.837831585751
    R24_4  BAL14_4  0.523031540121
    R24_4  BAL15_4  0.804794025867
    R24_4  CAP4  1
    R24_5  COST  17.4505079995
    R24_5  BAL0_5  0.42002909423
    R24_5  BAL1_5  0.864155703388
    R24_5  BAL5_5  0.461554206343
    R24_5  BAL7_5  0.528277259623
    R24_5  BAL13_5  0.837831585751
    R24_5  BAL14_5  0.523031540121
    R24_5  BAL15_5  0.804794025867
    R24_5  CAP5  1
    R24_6  COST  17.4505079995
    R24_6  BAL0_6  0.42002909423
    R24_6  BAL1_6  0.864155703388
    R24_6  BAL5_6  0.461554206343
    R24_6  BAL7_6  0.528277259623
    R24_6  BAL13_6  0.837831585751
    R24_6  BAL14_6  0.523031540121
    R24_6  BAL15_6  0.804794025867
    R24_6  CAP6  1
    R24_7  COST  17.4505079995
    R24_7  BAL0_7  0.42002909423
    R24_7  BAL1_7  0.864155703388
    R24_7  BAL5_7  0.461554206343
    R24_7  BAL7_7  0.528277259623
    R24_7  BAL13_7  0.837831585751
    R24_7  BAL14_7  0.523031540121
    R24_7  BAL15_7  0.804794025867
    R24_7  CAP7  1
    R24_8  COST  17.4505079995
    R24_8  BAL0_8  0.42002909423
    R24_8  BAL1_8  0.864155703388
    R24_8  BAL5_8  0.461554206343
    R24_8  BAL7_8  0.528277259623
    R24_8  BAL13_8  0.837831585751
    R24_8  BAL14_8  0.523031540121
    R24_8  BAL15_8  0.804794025867
    R24_8  CAP8  1
    R24_9  COST  17.4505079995
    R24_9  BAL0_9  0.42002909423
    R24_9  BAL1_9  0.864155703388
    R24_9  BAL5_9  0.461554206343
    R24_9  BAL7_9  0.528277259623
    R24_9  BAL13_9  0.837831585751
    R24_9  BAL14_9  0.523031540121
    R24_9  BAL15_9  0.804794025867
    R24_9  CAP9  1
    R24_10  COST  17.4505079995
    R24_10  BAL0_10  0.42002909423
    R24_10  BAL1_10  0.864155703388
    R24_10  BAL5_10  0.461554206343
    R24_10  BAL7_10  0.528277259623
    R24_10  BAL13_10  0.837831585751
    R24_10  BAL14_10  0.523031540121
    R24_10  BAL15_10  0.804794025867
    R24_10  CAP10  1
    R24_11  COST  17.4505079995
    R24_11  BAL0_11  0.42002909423
    R24_11  BAL1_11  0.864155703388
    R24_11  BAL5_11  0.461554206343
    R24_11  BAL7_11  0.528277259623
    R24_11  BAL13_11  0.837831585751
    R24_11  BAL14_11  0.523031540121
    R24_11  BAL15_11  0.804794025867
    R24_11  CAP11  1
    R24_12  COST  17.4505079995
    R24_12  BAL0_12  0.42002909423
    R24_12  BAL1_12  0.864155703388
    R24_12  BAL5_12  0.461554206343
    R24_12  BAL7_12  0.528277259623
    R24_12  BAL13_12  0.837831585751
    R24_12  BAL14_12  0.523031540121
    R24_12  BAL15_12  0.804794025867
    R24_12  CAP12  1
    R24_13  COST  17.4505079995
    R24_13  BAL0_13  0.42002909423
    R24_13  BAL1_13  0.864155703388
    R24_13  BAL5_13  0.461554206343
    R24_13  BAL7_13  0.528277259623
    R24_13  BAL13_13  0.837831585751
    R24_13  BAL14_13  0.523031540121
    R24_13  BAL15_13  0.804794025867
    R24_13  CAP13  1
    R24_14  COST  17.4505079995
    R24_14  BAL0_14  0.42002909423
    R24_14  BAL1_14  0.864155703388
    R24_14  BAL5_14  0.461554206343
    R24_14  BAL7_14  0.528277259623
    R24_14  BAL13_14  0.837831585751
    R24_14  BAL14_14  0.523031540121
    R24_14  BAL15_14  0.804794025867
    R24_14  CAP14  1
    R24_15  COST  17.4505079995
    R24_15  BAL0_15  0.42002909423
    R24_15  BAL1_15  0.864155703388
    R24_15  BAL5_15  0.461554206343
    R24_15  BAL7_15  0.528277259623
    R24_15  BAL13_15  0.837831585751
    R24_15  BAL14_15  0.523031540121
    R24_15  BAL15_15  0.804794025867
    R24_15  CAP15  1
    R24_16  COST  17.4505079995
    R24_16  BAL0_16  0.42002909423
    R24_16  BAL1_16  0.864155703388
    R24_16  BAL5_16  0.461554206343
    R24_16  BAL7_16  0.528277259623
    R24_16  BAL13_16  0.837831585751
    R24_16  BAL14_16  0.523031540121
    R24_16  BAL15_16  0.804794025867
    R24_16  CAP16  1
    R24_17  COST  17.4505079995
    R24_17  BAL0_17  0.42002909423
    R24_17  BAL1_17  0.864155703388
    R24_17  BAL5_17  0.461554206343
    R24_17  BAL7_17  0.528277259623
    R24_17  BAL13_17  0.837831585751
    R24_17  BAL14_17  0.523031540121
    R24_17  BAL15_17  0.804794025867
    R24_17  CAP17  1
    R24_18  COST  17.4505079995
    R24_18  BAL0_18  0.42002909423
    R24_18  BAL1_18  0.864155703388
    R24_18  BAL5_18  0.461554206343
    R24_18  BAL7_18  0.528277259623
    R24_18  BAL13_18  0.837831585751
    R24_18  BAL14_18  0.523031540121
    R24_18  BAL15_18  0.804794025867
    R24_18  CAP18  1
    R24_19  COST  17.4505079995
    R24_19  BAL0_19  0.42002909423
    R24_19  BAL1_19  0.864155703388
    R24_19  BAL5_19  0.461554206343
    R24_19  BAL7_19  0.528277259623
    R24_19  BAL13_19  0.837831585751
    R24_19  BAL14_19  0.523031540121
    R24_19  BAL15_19  0.804794025867
    R24_19  CAP19  1
    R24_20  COST  17.4505079995
    R24_20  BAL0_20  0.42002909423
    R24_20  BAL1_20  0.864155703388
    R24_20  BAL5_20  0.461554206343
    R24_20  BAL7_20  0.528277259623
    R24_20  BAL13_20  0.837831585751
    R24_20  BAL14_20  0.523031540121
    R24_20  BAL15_20  0.804794025867
    R24_20  CAP20  1
    R24_21  COST  17.4505079995
    R24_21  BAL0_21  0.42002909423
    R24_21  BAL1_21  0.864155703388
    R24_21  BAL5_21  0.461554206343
    R24_21  BAL7_21  0.528277259623
    R24_21  BAL13_21  0.837831585751
    R24_21  BAL14_21  0.523031540121
    R24_21  BAL15_21  0.804794025867
    R24_21  CAP21  1
    R24_22  COST  17.4505079995
    R24_22  BAL0_22  0.42002909423
    R24_22  BAL1_22  0.864155703388
    R24_22  BAL5_22  0.461554206343
    R24_22  BAL7_22  0.528277259623
    R24_22  BAL13_22  0.837831585751
    R24_22  BAL14_22  0.523031540121
    R24_22  BAL15_22  0.804794025867
    R24_22  CAP22  1
    R24_23  COST  17.4505079995
    R24_23  BAL0_23  0.42002909423
    R24_23  BAL1_23  0.864155703388
    R24_23  BAL5_23  0.461554206343
    R24_23  BAL7_23  0.528277259623
    R24_23  BAL13_23  0.837831585751
    R24_23  BAL14_23  0.523031540121
    R24_23  BAL15_23  0.804794025867
    R24_23  CAP23  1
    I0_0  COST  2.43525184501
    I0_0  BAL0_0  -1
    I0_0  BAL0_1  1
    S0_0  COST  -37.7137308362
    S0_0  BAL0_0  -1
    S0_0  DEM0_0  1
    I0_1  COST  2.43525184501
    I0_1  BAL0_1  -1
    I0_1  BAL0_2  1
    S0_1  COST  -40.5797717767
    S0_1  BAL0_1  -1
    S0_1  DEM0_1  1
    I0_2  COST  2.43525184501
    I0_2  BAL0_2  -1
    I0_2  BAL0_3  1
    S0_2  COST  -56.5079493895
    S0_2  BAL0_2  -1
    S0_2  DEM0_2  1
    I0_3  COST  2.43525184501
    I0_3  BAL0_3  -1
    I0_3  BAL0_4  1
    S0_3  COST  -56.3782602205
    S0_3  BAL0_3  -1
    S0_3  DEM0_3  1
    I0_4  COST  2.43525184501
    I0_4  BAL0_4  -1
    I0_4  BAL0_5  1
    S0_4  COST  -71.3055651242
    S0_4  BAL0_4  -1
    S0_4  DEM0_4  1
    I0_5  COST  2.43525184501
    I0_5  BAL0_5  -1
    I0_5  BAL0_6  1
    S0_5  COST  -57.6520069224
    S0_5  BAL0_5  -1
    S0_5  DEM0_5  1
    I0_6  COST  2.43525184501
    I0_6  BAL0_6  -1
    I0_6  BAL0_7  1
    S0_6  COST  -58.3949006122
    S0_6  BAL0_6  -1
    S0_6  DEM0_6  1
    I0_7  COST  2.43525184501
    I0_7  BAL0_7  -1
    I0_7  BAL0_8  1
    S0_7  COST  -64.8831420798
    S0_7  BAL0_7  -1
    S0_7  DEM0_7  1
    I0_8  COST  2.43525184501
    I0_8  BAL0_8  -1
    I0_8  BAL0_9  1
    S0_8  COST  -46.8595848194
    S0_8  BAL0_8  -1
    S0_8  DEM0_8  1
    I0_9  COST  2.43525184501
    I0_9  BAL0_9  -1
    I0_9  BAL0_10  1
    S0_9  COST  -64.7277102121
    S0_9  BAL0_9  -1
    S0_9  DEM0_9  1
    I0_10  COST  2.43525184501
    I0_10  BAL0_10  -1
    I0_10  BAL0_11  1
    S0_10  COST  -74.8276672353
    S0_10  BAL0_10  -1
    S0_10  DEM0_10  1
    I0_11  COST  2.43525184501
    I0_11  BAL0_11  -1
    I0_11  BAL0_12  1
    S0_11  COST  -34.7179953415
    S0_11  BAL0_11  -1
    S0_11  DEM0_11  1
    I0_12  COST  2.43525184501
    I0_12  BAL0_12  -1
    I0_12  BAL0_13  1
    S0_12  COST  -57.3487190194
    S0_12  BAL0_12  -1
    S0_12  DEM0_12  1
    I0_13  COST  2.43525184501
    I0_13  BAL0_13  -1
    I0_13  BAL0_14  1
    S0_13  COST  -72.465826327
    S0_13  BAL0_13  -1
    S0_13  DEM0_13  1
    I0_14  COST  2.43525184501
    I0_14  BAL0_14  -1
    I0_14  BAL0_15  1
    S0_14  COST  -66.7852957247
    S0_14  BAL0_14  -1
    S0_14  DEM0_14  1
    I0_15  COST  2.43525184501
    I0_15  BAL0_15  -1
    I0_15  BAL0_16  1
    S0_15  COST  -72.6802519145
    S0_15  BAL0_15  -1
    S0_15  DEM0_15  1
    I0_16  COST  2.43525184501
    I0_16  BAL0_16  -1
    I0_16  BAL0_17  1
    S0_16  COST  -72.2665008945
    S0_16  BAL0_16  -1
    S0_16  DEM0_16  1
    I0_17  COST  2.43525184501
    I0_17  BAL0_17  -1
    I0_17  BAL0_18  1
    S0_17  COST  -38.8530037925
    S0_17  BAL0_17  -1
    S0_17  DEM0_17  1
    I0_18  COST  2.43525184501
    I0_18  BAL0_18  -1
    I0_18  BAL0_19  1
    S0_18  COST  -62.8440164378
    S0_18  BAL0_18  -1
    S0_18  DEM0_18  1
    I0_19  COST  2.43525184501
    I0_19  BAL0_19  -1
    I0_19  BAL0_20  1
    S0_19  COST  -72.3986894598
    S0_19  BAL0_19  -1
    S0_19  DEM0_19  1
    I0_20  COST  2.43525184501
    I0_20  BAL0_20  -1
    I0_20  BAL0_21  1
    S0_20  COST  -63.4638820308
    S0_20  BAL0_20  -1
    S0_20  DEM0_20  1
    I0_21  COST  2.43525184501
    I0_21  BAL0_21  -1
    I0_21  BAL0_22  1
    S0_21  COST  -59.5523980872
    S0_21  BAL0_21  -1
    S0_21  DEM0_21  1
    I0_22  COST  2.43525184501
    I0_22  BAL0_22  -1
    I0_22  BAL0_23  1
    S0_22  COST  -48.1939077499
    S0_22  BAL0_22  -1
    S0_22  DEM0_22  1
    I0_23  COST  2.43525184501
    I0_23  BAL0_23  -1
    S0_23  COST  -40.2551007558
    S0_23  BAL0_23  -1
    S0_23  DEM0_23  1
    I1_0  COST  0.975078748275
    I1_0  BAL1_0  -1
    I1_0  BAL1_1  1
    S1_0  COST  -66.0320599405
    S1_0  BAL1_0  -1
    S1_0  DEM1_0  1
    I1_1  COST  0.975078748275
    I1_1  BAL1_1  -1
    I1_1  BAL1_2  1
    S1_1  COST  -45.7293081714
    S1_1  BAL1_1  -1
    S1_1  DEM1_1  1
    I1_2  COST  0.975078748275
    I1_2  BAL1_2  -1
    I1_2  BAL1_3  1
    S1_2  COST  -38.553268883
    S1_2  BAL1_2  -1
    S1_2  DEM1_2  1
    I1_3  COST  0.975078748275
    I1_3  BAL1_3  -1
    I1_3  BAL1_4  1
    S1_3  COST  -40.6719129828
    S1_3  BAL1_3  -1
    S1_3  DEM1_3  1
    I1_4  COST  0.975078748275
    I1_4  BAL1_4  -1
    I1_4  BAL1_5  1
    S1_4  COST  -70.7263069956
    S1_4  BAL1_4  -1
    S1_4  DEM1_4  1
    I1_5  COST  0.975078748275
    I1_5  BAL1_5  -1
    I1_5  BAL1_6  1
    S1_5  COST  -40.754559351
    S1_5  BAL1_5  -1
    S1_5  DEM1_5  1
    I1_6  COST  0.975078748275
    I1_6  BAL1_6  -1
    I1_6  BAL1_7  1
    S1_6  COST  -30.9986836597
    S1_6  BAL1_6  -1
    S1_6  DEM1_6  1
    I1_7  COST  0.975078748275
    I1_7  BAL1_7  -1
    I1_7  BAL1_8  1
    S1_7  COST  -31.6278784194
    S1_7  BAL1_7  -1
    S1_7  DEM1_7  1
    I1_8  COST  0.975078748275
    I1_8  BAL1_8  -1
    I1_8  BAL1_9  1
    S1_8  COST  -73.6480722579
    S1_8  BAL1_8  -1
    S1_8  DEM1_8  1
    I1_9  COST  0.975078748275
    I1_9  BAL1_9  -1
    I1_9  BAL1_10  1
    S1_9  COST  -67.3917109983
    S1_9  BAL1_9  -1
    S1_9  DEM1_9  1
    I1_10  COST  0.975078748275
    I1_10  BAL1_10  -1
    I1_10  BAL1_11  1
    S1_10  COST  -40.0192261187
    S1_10  BAL1_10  -1
    S1_10  DEM1_10  1
    I1_11  COST  0.975078748275
    I1_11  BAL1_11  -1
    I1_11  BAL1_12  1
    S1_11  COST  -48.4024180402
    S1_11  BAL1_11  -1
    S1_11  DEM1_11  1
    I1_12  COST  0.975078748275
    I1_12  BAL1_12  -1
    I1_12  BAL1_13  1
    S1_12  COST  -35.5352679584
    S1_12  BAL1_12  -1
    S1_12  DEM1_12  1
    I1_13  COST  0.975078748275
    I1_13  BAL1_13  -1
    I1_13  BAL1_14  1
    S1_13  COST  -53.2724121312
    S1_13  BAL1_13  -1
    S1_13  DEM1_13  1
    I1_14  COST  0.975078748275
    I1_14  BAL1_14  -1
    I1_14  BAL1_15  1
    S1_14  COST  -67.8087697564
    S1_14  BAL1_14  -1
    S1_14  DEM1_14  1
    I1_15  COST  0.975078748275
    I1_15  BAL1_15  -1
    I1_15  BAL1_16  1
    S1_15  COST  -69.3144578494
    S1_15  BAL1_15  -1
    S1_15  DEM1_15  1
    I1_16  COST  0.975078748275
    I1_16  BAL1_16  -1
    I1_16  BAL1_17  1
    S1_16  COST  -63.2941693806
    S1_16  BAL1_16  -1
    S1_16  DEM1_16  1
    I1_17  COST  0.975078748275
    I1_17  BAL1_17  -1
    I1_17  BAL1_18  1
    S1_17  COST  -68.0764037929
    S1_17  BAL1_17  -1
    S1_17  DEM1_17  1
    I1_18  COST  0.975078748275
    I1_18  BAL1_18  -1
    I1_18  BAL1_19  1
    S1_18  COST  -57.7936524193
    S1_18  BAL1_18  -1
    S1_18  DEM1_18  1
    I1_19  COST  0.975078748275
    I1_19  BAL1_19  -1
    I1_19  BAL1_20  1
    S1_19  COST  -45.2055104676
    S1_19  BAL1_19  -1
    S1_19  DEM1_19  1
    I1_20  COST  0.975078748275
    I1_20  BAL1_20  -1
    I1_20  BAL1_21  1
    S1_20  COST  -39.9170029981
    S1_20  BAL1_20  -1
    S1_20  DEM1_20  1
    I1_21  COST  0.975078748275
    I1_21  BAL1_21  -1
    I1_21  BAL1_22  1
    S1_21  COST  -30.0099025769
    S1_21  BAL1_21  -1
    S1_21  DEM1_21  1
    I1_22  COST  0.975078748275
    I1_22  BAL1_22  -1
    I1_22  BAL1_23  1
    S1_22  COST  -73.994020655
    S1_22  BAL1_22  -1
    S1_22  DEM1_22  1
    I1_23  COST  0.975078748275
    I1_23  BAL1_23  -1
    S1_23  COST  -58.9108856747
    S1_23  BAL1_23  -1
    S1_23  DEM1_23  1
    I2_0  COST  1.73074239995
    I2_0  BAL2_0  -1
    I2_0  BAL2_1  1
    S2_0  COST  -38.3017049432
    S2_0  BAL2_0  -1
    S2_0  DEM2_0  1
    I2_1  COST  1.73074239995
    I2_1  BAL2_1  -1
    I2_1  BAL2_2  1
    S2_1  COST  -43.332786733
    S2_1  BAL2_1  -1
    S2_1  DEM2_1  1
    I2_2  COST  1.73074239995
    I2_2  BAL2_2  -1
    I2_2  BAL2_3  1
    S2_2  COST  -72.0423969552
    S2_2  BAL2_2  -1
    S2_2  DEM2_2  1
    I2_3  COST  1.73074239995
    I2_3  BAL2_3  -1
    I2_3  BAL2_4  1
    S2_3  COST  -61.0664030591
    S2_3  BAL2_3  -1
    S2_3  DEM2_3  1
    I2_4  COST  1.73074239995
    I2_4  BAL2_4  -1
    I2_4  BAL2_5  1
    S2_4  COST  -74.5506010776
    S2_4  BAL2_4  -1
    S2_4  DEM2_4  1
    I2_5  COST  1.73074239995
    I2_5  BAL2_5  -1
    I2_5  BAL2_6  1
    S2_5  COST  -70.2021993622
    S2_5  BAL2_5  -1
    S2_5  DEM2_5  1
    I2_6  COST  1.73074239995
    I2_6  BAL2_6  -1
    I2_6  BAL2_7  1
    S2_6  COST  -31.6551008856
    S2_6  BAL2_6  -1
    S2_6  DEM2_6  1
    I2_7  COST  1.73074239995
    I2_7  BAL2_7  -1
    I2_7  BAL2_8  1
    S2_7  COST  -53.6294371718
    S2_7  BAL2_7  -1
    S2_7  DEM2_7  1
    I2_8  COST  1.73074239995
    I2_8  BAL2_8  -1
    I2_8  BAL2_9  1
    S2_8  COST  -61.2314415111
    S2_8  BAL2_8  -1
    S2_8  DEM2_8  1
    I2_9  COST  1.73074239995
    I2_9  BAL2_9  -1
    I2_9  BAL2_10  1
    S2_9  COST  -66.9216370045
    S2_9  BAL2_9  -1
    S2_9  DEM2_9  1
    I2_10  COST  1.73074239995
    I2_10  BAL2_10  -1
    I2_10  BAL2_11  1
    S2_10  COST  -36.7810956078
    S2_10  BAL2_10  -1
    S2_10  DEM2_10  1
    I2_11  COST  1.73074239995
    I2_11  BAL2_11  -1
    I2_11  BAL2_12  1
    S2_11  COST  -58.5739722128
    S2_11  BAL2_11  -1
    S2_11  DEM2_11  1
    I2_12  COST  1.73074239995
    I2_12  BAL2_12  -1
    I2_12  BAL2_13  1
    S2_12  COST  -36.9879720703
    S2_12  BAL2_12  -1
    S2_12  DEM2_12  1
    I2_13  COST  1.73074239995
    I2_13  BAL2_13  -1
    I2_13  BAL2_14  1
    S2_13  COST  -62.1835659943
    S2_13  BAL2_13  -1
    S2_13  DEM2_13  1
    I2_14  COST  1.73074239995
    I2_14  BAL2_14  -1
    I2_14  BAL2_15  1
    S2_14  COST  -60.292469609
    S2_14  BAL2_14  -1
    S2_14  DEM2_14  1
    I2_15  COST  1.73074239995
    I2_15  BAL2_15  -1
    I2_15  BAL2_16  1
    S2_15  COST  -59.3436636687
    S2_15  BAL2_15  -1
    S2_15  DEM2_15  1
    I2_16  COST  1.73074239995
    I2_16  BAL2_16  -1
    I2_16  BAL2_17  1
    S2_16  COST  -69.8337667673
    S2_16  BAL2_16  -1
    S2_16  DEM2_16  1
    I2_17  COST  1.73074239995
    I2_17  BAL2_17  -1
    I2_17  BAL2_18  1
    S2_17  COST  -64.1399041797
    S2_17  BAL2_17  -1
    S2_17  DEM2_17  1
    I2_18  COST  1.73074239995
    I2_18  BAL2_18  -1
    I2_18  BAL2_19  1
    S2_18  COST  -38.3133643152
    S2_18  BAL2_18  -1
    S2_18  DEM2_18  1
    I2_19  COST  1.73074239995
    I2_19  BAL2_19  -1
    I2_19  BAL2_20  1
    S2_19  COST  -30.5340157676
    S2_19  BAL2_19  -1
    S2_19  DEM2_19  1
    I2_20  COST  1.73074239995
    I2_20  BAL2_20  -1
    I2_20  BAL2_21  1
    S2_20  COST  -64.7103834863
    S2_20  BAL2_20  -1
    S2_20  DEM2_20  1
    I2_21  COST  1.73074239995
    I2_21  BAL2_21  -1
    I2_21  BAL2_22  1
    S2_21  COST  -65.7441142788
    S2_21  BAL2_21  -1
    S2_21  DEM2_21  1
    I2_22  COST  1.73074239995
    I2_22  BAL2_22  -1
    I2_22  BAL2_23  1
    S2_22  COST  -50.5608278094
    S2_22  BAL2_22  -1
    S2_22  DEM2_22  1
    I2_23  COST  1.73074239995
    I2_23  BAL2_23  -1
    S2_23  COST  -55.4212776514
    S2_23  BAL2_23  -1
    S2_23  DEM2_23  1
    I3_0  COST  1.24126315311
    I3_0  BAL3_0  -1
    I3_0  BAL3_1  1
    S3_0  COST  -66.7550556558
    S3_0  BAL3_0  -1
    S3_0  DEM3_0  1
    I3_1  COST  1.24126315311
    I3_1  BAL3_1  -1
    I3_1  BAL3_2  1
    S3_1  COST  -47.7448035477
    S3_1  BAL3_1  -1
    S3_1  DEM3_1  1
    I3_2  COST  1.24126315311
    I3_2  BAL3_2  -1
    I3_2  BAL3_3  1
    S3_2  COST  -59.749869417
    S3_2  BAL3_2  -1
    S3_2  DEM3_2  1
    I3_3  COST  1.24126315311
    I3_3  BAL3_3  -1
    I3_3  BAL3_4  1
    S3_3  COST  -70.2069353263
    S3_3  BAL3_3  -1
    S3_3  DEM3_3  1
    I3_4  COST  1.24126315311
    I3_4  BAL3_4  -1
    I3_4  BAL3_5  1
    S3_4  COST  -64.5984433959
    S3_4  BAL3_4  -1
    S3_4  DEM3_4  1
    I3_5  COST  1.24126315311
    I3_5  BAL3_5  -1
    I3_5  BAL3_6  1
    S3_5  COST  -54.8166152662
    S3_5  BAL3_5  -1
    S3_5  DEM3_5  1
    I3_6  COST  1.24126315311
    I3_6  BAL3_6  -1
    I3_6  BAL3_7  1
    S3_6  COST  -57.0515143295
    S3_6  BAL3_6  -1
    S3_6  DEM3_6  1
    I3_7  COST  1.24126315311
    I3_7  BAL3_7  -1
    I3_7  BAL3_8  1
    S3_7  COST  -36.6709648456
    S3_7  BAL3_7  -1
    S3_7  DEM3_7  1
    I3_8  COST  1.24126315311
    I3_8  BAL3_8  -1
    I3_8  BAL3_9  1
    S3_8  COST  -56.6371005717
    S3_8  BAL3_8  -1
    S3_8  DEM3_8  1
    I3_9  COST  1.24126315311
    I3_9  BAL3_9  -1
    I3_9  BAL3_10  1
    S3_9  COST  -73.8922773741
    S3_9  BAL3_9  -1
    S3_9  DEM3_9  1
    I3_10  COST  1.24126315311
    I3_10  BAL3_10  -1
    I3_10  BAL3_11  1
    S3_10  COST  -52.8096274624
    S3_10  BAL3_10  -1
    S3_10  DEM3_10  1
    I3_11  COST  1.24126315311
    I3_11  BAL3_11  -1
    I3_11  BAL3_12  1
    S3_11  COST  -47.8402362249
    S3_11  BAL3_11  -1
    S3_11  DEM3_11  1
    I3_12  COST  1.24126315311
    I3_12  BAL3_12  -1
    I3_12  BAL3_13  1
    S3_12  COST  -56.862530252
    S3_12  BAL3_12  -1
    S3_12  DEM3_12  1
    I3_13  COST  1.24126315311
    I3_13  BAL3_13  -1
    I3_13  BAL3_14  1
    S3_13  COST  -66.6227830064
    S3_13  BAL3_13  -1
    S3_13  DEM3_13  1
    I3_14  COST  1.24126315311
    I3_14  BAL3_14  -1
    I3_14  BAL3_15  1
    S3_14  COST  -57.9710678669
    S3_14  BAL3_14  -1
    S3_14  DEM3_14  1
    I3_15  COST  1.24126315311
    I3_15  BAL3_15  -1
    I3_15  BAL3_16  1
    S3_15  COST  -34.7555883926
    S3_15  BAL3_15  -1
    S3_15  DEM3_15  1
    I3_16  COST  1.24126315311
    I3_16  BAL3_16  -1
    I3_16  BAL3_17  1
    S3_16  COST  -38.5577104757
    S3_16  BAL3_16  -1
    S3_16  DEM3_16  1
    I3_17  COST  1.24126315311
    I3_17  BAL3_17  -1
    I3_17  BAL3_18  1
    S3_17  COST  -36.4417458197
    S3_17  BAL3_17  -1
    S3_17  DEM3_17  1
    I3_18  COST  1.24126315311
    I3_18  BAL3_18  -1
    I3_18  BAL3_19  1
    S3_18  COST  -44.9078999263
    S3_18  BAL3_18  -1
    S3_18  DEM3_18  1
    I3_19  COST  1.24126315311
    I3_19  BAL3_19  -1
    I3_19  BAL3_20  1
    S3_19  COST  -68.7629338545
    S3_19  BAL3_19  -1
    S3_19  DEM3_19  1
    I3_20  COST  1.24126315311
    I3_20  BAL3_20  -1
    I3_20  BAL3_21  1
    S3_20  COST  -45.2712247013
    S3_20  BAL3_20  -1
    S3_20  DEM3_20  1
    I3_21  COST  1.24126315311
    I3_21  BAL3_21  -1
    I3_21  BAL3_22  1
    S3_21  COST  -51.7256930113
    S3_21  BAL3_21  -1
    S3_21  DEM3_21  1
    I3_22  COST  1.24126315311
    I3_22  BAL3_22  -1
    I3_22  BAL3_23  1
    S3_22  COST  -54.9932522939
    S3_22  BAL3_22  -1
    S3_22  DEM3_22  1
    I3_23  COST  1.24126315311
    I3_23  BAL3_23  -1
    S3_23  COST  -48.4621454092
    S3_23  BAL3_23  -1
    S3_23  DEM3_23  1
    I4_0  COST  0.409396511186
    I4_0  BAL4_0  -1
    I4_0  BAL4_1  1
    S4_0  COST  -53.4643118163
    S4_0  BAL4_0  -1
    S4_0  DEM4_0  1
    I4_1  COST  0.409396511186
    I4_1  BAL4_1  -1
    I4_1  BAL4_2  1
    S4_1  COST  -70.8923898248
    S4_1  BAL4_1  -1
    S4_1  DEM4_1  1
    I4_2  COST  0.409396511186
    I4_2  BAL4_2  -1
    I4_2  BAL4_3  1
    S4_2  COST  -65.38486037
    S4_2  BAL4_2  -1
    S4_2  DEM4_2  1
    I4_3  COST  0.409396511186
    I4_3  BAL4_3  -1
    I4_3  BAL4_4  1
    S4_3  COST  -38.6094241324
    S4_3  BAL4_3  -1
    S4_3  DEM4_3  1
    I4_4  COST  0.409396511186
    I4_4  BAL4_4  -1
    I4_4  BAL4_5  1
    S4_4  COST  -52.3603385445
    S4_4  BAL4_4  -1
    S4_4  DEM4_4  1
    I4_5  COST  0.409396511186
    I4_5  BAL4_5  -1
    I4_5  BAL4_6  1
    S4_5  COST  -30.5022999877
    S4_5  BAL4_5  -1
    S4_5  DEM4_5  1
    I4_6  COST  0.409396511186
    I4_6  BAL4_6  -1
    I4_6  BAL4_7  1
    S4_6  COST  -63.3081684353
    S4_6  BAL4_6  -1
    S4_6  DEM4_6  1
    I4_7  COST  0.409396511186
    I4_7  BAL4_7  -1
    I4_7  BAL4_8  1
    S4_7  COST  -40.0430624528
    S4_7  BAL4_7  -1
    S4_7  DEM4_7  1
    I4_8  COST  0.409396511186
    I4_8  BAL4_8  -1
    I4_8  BAL4_9  1
    S4_8  COST  -62.2278778595
    S4_8  BAL4_8  -1
    S4_8  DEM4_8  1
    I4_9  COST  0.409396511186
    I4_9  BAL4_9  -1
    I4_9  BAL4_10  1
    S4_9  COST  -44.5478564412
    S4_9  BAL4_9  -1
    S4_9  DEM4_9  1
    I4_10  COST  0.409396511186
    I4_10  BAL4_10  -1
    I4_10  BAL4_11  1
    S4_10  COST  -31.0043254718
    S4_10  BAL4_10  -1
    S4_10  DEM4_10  1
    I4_11  COST  0.409396511186
    I4_11  BAL4_11  -1
    I4_11  BAL4_12  1
    S4_11  COST  -31.9490033184
    S4_11  BAL4_11  -1
    S4_11  DEM4_11  1
    I4_12  COST  0.409396511186
    I4_12  BAL4_12  -1
    I4_12  BAL4_13  1
    S4_12  COST  -48.6614168316
    S4_12  BAL4_12  -1
    S4_12  DEM4_12  1
    I4_13  COST  0.409396511186
    I4_13  BAL4_13  -1
    I4_13  BAL4_14  1
    S4_13  COST  -56.6701675426
    S4_13  BAL4_13  -1
    S4_13  DEM4_13  1
    I4_14  COST  0.409396511186
    I4_14  BAL4_14  -1
    I4_14  BAL4_15  1
    S4_14  COST  -61.7310328993
    S4_14  BAL4_14  -1
    S4_14  DEM4_14  1
    I4_15  COST  0.409396511186
    I4_15  BAL4_15  -1
    I4_15  BAL4_16  1
    S4_15  COST  -65.9703935191
    S4_15  BAL4_15  -1
    S4_15  DEM4_15  1
    I4_16  COST  0.409396511186
    I4_16  BAL4_16  -1
    I4_16  BAL4_17  1
    S4_16  COST  -46.2746573445
    S4_16  BAL4_16  -1
    S4_16  DEM4_16  1
    I4_17  COST  0.409396511186
    I4_17  BAL4_17  -1
    I4_17  BAL4_18  1
    S4_17  COST  -52.3970239767
    S4_17  BAL4_17  -1
    S4_17  DEM4_17  1
    I4_18  COST  0.409396511186
    I4_18  BAL4_18  -1
    I4_18  BAL4_19  1
    S4_18  COST  -42.3589416846
    S4_18  BAL4_18  -1
    S4_18  DEM4_18  1
    I4_19  COST  0.409396511186
    I4_19  BAL4_19  -1
    I4_19  BAL4_20  1
    S4_19  COST  -57.6472093481
    S4_19  BAL4_19  -1
    S4_19  DEM4_19  1
    I4_20  COST  0.409396511186
    I4_20  BAL4_20  -1
    I4_20  BAL4_21  1
    S4_20  COST  -35.3641022093
    S4_20  BAL4_20  -1
    S4_20  DEM4_20  1
    I4_21  COST  0.409396511186
    I4_21  BAL4_21  -1
    I4_21  BAL4_22  1
    S4_21  COST  -58.1747048006
    S4_21  BAL4_21  -1
    S4_21  DEM4_21  1
    I4_22  COST  0.409396511186
    I4_22  BAL4_22  -1
    I4_22  BAL4_23  1
    S4_22  COST  -46.5427296031
    S4_22  BAL4_22  -1
    S4_22  DEM4_22  1
    I4_23  COST  0.409396511186
    I4_23  BAL4_23  -1
    S4_23  COST  -37.9693024284
    S4_23  BAL4_23  -1
    S4_23  DEM4_23  1
    I5_0  COST  0.917933743659
    I5_0  BAL5_0  -1
    I5_0  BAL5_1  1
    S5_0  COST  -60.7257461773
    S5_0  BAL5_0  -1
    S5_0  DEM5_0  1
    I5_1  COST  0.917933743659
    I5_1  BAL5_1  -1
    I5_1  BAL5_2  1
    S5_1  COST  -34.450245218
    S5_1  BAL5_1  -1
    S5_1  DEM5_1  1
    I5_2  COST  0.917933743659
    I5_2  BAL5_2  -1
    I5_2  BAL5_3  1
    S5_2  COST  -69.0491547691
    S5_2  BAL5_2  -1
    S5_2  DEM5_2  1
    I5_3  COST  0.917933743659
    I5_3  BAL5_3  -1
    I5_3  BAL5_4  1
    S5_3  COST  -63.674789519
    S5_3  BAL5_3  -1
    S5_3  DEM5_3  1
    I5_4  COST  0.917933743659
    I5_4  BAL5_4  -1
    I5_4  BAL5_5  1
    S5_4  COST  -44.0467303156
    S5_4  BAL5_4  -1
    S5_4  DEM5_4  1
    I5_5  COST  0.917933743659
    I5_5  BAL5_5  -1
    I5_5  BAL5_6  1
    S5_5  COST  -70.1291632438
    S5_5  BAL5_5  -1
    S5_5  DEM5_5  1
    I5_6  COST  0.917933743659
    I5_6  BAL5_6  -1
    I5_6  BAL5_7  1
    S5_6  COST  -31.3684911601
    S5_6  BAL5_6  -1
    S5_6  DEM5_6  1
    I5_7  COST  0.917933743659
    I5_7  BAL5_7  -1
    I5_7  BAL5_8  1
    S5_7  COST  -70.1406608399
    S5_7  BAL5_7  -1
    S5_7  DEM5_7  1
    I5_8  COST  0.917933743659
    I5_8  BAL5_8  -1
    I5_8  BAL5_9  1
    S5_8  COST  -35.7171206711
    S5_8  BAL5_8  -1
    S5_8  DEM5_8  1
    I5_9  COST  0.917933743659
    I5_9  BAL5_9  -1
    I5_9  BAL5_10  1
    S5_9  COST  -46.4126468694
    S5_9  BAL5_9  -1
    S5_9  DEM5_9  1
    I5_10  COST  0.917933743659
    I5_10  BAL5_10  -1
    I5_10  BAL5_11  1
    S5_10  COST  -58.6911338887
    S5_10  BAL5_10  -1
    S5_10  DEM5_10  1
    I5_11  COST  0.917933743659
    I5_11  BAL5_11  -1
    I5_11  BAL5_12  1
    S5_11  COST  -61.8027869103
    S5_11  BAL5_11  -1
    S5_11  DEM5_11  1
    I5_12  COST  0.917933743659
    I5_12  BAL5_12  -1
    I5_12  BAL5_13  1
    S5_12  COST  -31.9717565492
    S5_12  BAL5_12  -1
    S5_12  DEM5_12  1
    I5_13  COST  0.917933743659
    I5_13  BAL5_13  -1
    I5_13  BAL5_14  1
    S5_13  COST  -66.1205207626
    S5_13  BAL5_13  -1
    S5_13  DEM5_13  1
    I5_14  COST  0.917933743659
    I5_14  BAL5_14  -1
    I5_14  BAL5_15  1
    S5_14  COST  -72.9017597354
    S5_14  BAL5_14  -1
    S5_14  DEM5_14  1
    I5_15  COST  0.917933743659
    I5_15  BAL5_15  -1
    I5_15  BAL5_16  1
    S5_15  COST  -45.630422359
    S5_15  BAL5_15  -1
    S5_15  DEM5_15  1
    I5_16  COST  0.917933743659
    I5_16  BAL5_16  -1
    I5_16  BAL5_17  1
    S5_16  COST  -68.3714071948
    S5_16  BAL5_16  -1
    S5_16  DEM5_16  1
    I5_17  COST  0.917933743659
    I5_17  BAL5_17  -1
    I5_17  BAL5_18  1
    S5_17  COST  -69.1569337218
    S5_17  BAL5_17  -1
    S5_17  DEM5_17  1
    I5_18  COST  0.917933743659
    I5_18  BAL5_18  -1
    I5_18  BAL5_19  1
    S5_18  COST  -31.6688045692
    S5_18  BAL5_18  -1
    S5_18  DEM5_18  1
    I5_19  COST  0.917933743659
    I5_19  BAL5_19  -1
    I5_19  BAL5_20  1
    S5_19  COST  -56.8763929045
    S5_19  BAL5_19  -1
    S5_19  DEM5_19  1
    I5_20  COST  0.917933743659
    I5_20  BAL5_20  -1
    I5_20  BAL5_21  1
    S5_20  COST  -45.2588044755
    S5_20  BAL5_20  -1
    S5_20  DEM5_20  1
    I5_21  COST  0.917933743659
    I5_21  BAL5_21  -1
    I5_21  BAL5_22  1
    S5_21  COST  -67.6159384388
    S5_21  BAL5_21  -1
    S5_21  DEM5_21  1
    I5_22  COST  0.917933743659
    I5_22  BAL5_22  -1
    I5_22  BAL5_23  1
    S5_22  COST  -42.3505751956
    S5_22  BAL5_22  -1
    S5_22  DEM5_22  1
    I5_23  COST  0.917933743659
    I5_23  BAL5_23  -1
    S5_23  COST  -64.5529654575
    S5_23  BAL5_23  -1
    S5_23  DEM5_23  1
    I6_0  COST  1.3995058617
    I6_0  BAL6_0  -1
    I6_0  BAL6_1  1
    S6_0  COST  -35.2424650017
    S6_0  BAL6_0  -1
    S6_0  DEM6_0  1
    I6_1  COST  1.3995058617
    I6_1  BAL6_1  -1
    I6_1  BAL6_2  1
    S6_1  COST  -41.9714193328
    S6_1  BAL6_1  -1
    S6_1  DEM6_1  1
    I6_2  COST  1.3995058617
    I6_2  BAL6_2  -1
    I6_2  BAL6_3  1
    S6_2  COST  -64.4021324616
    S6_2  BAL6_2  -1
    S6_2  DEM6_2  1
    I6_3  COST  1.3995058617
    I6_3  BAL6_3  -1
    I6_3  BAL6_4  1
    S6_3  COST  -38.0856110227
    S6_3  BAL6_3  -1
    S6_3  DEM6_3  1
    I6_4  COST  1.3995058617
    I6_4  BAL6_4  -1
    I6_4  BAL6_5  1
    S6_4  COST  -72.1076864343
    S6_4  BAL6_4  -1
    S6_4  DEM6_4  1
    I6_5  COST  1.3995058617
    I6_5  BAL6_5  -1
    I6_5  BAL6_6  1
    S6_5  COST  -46.1160339623
    S6_5  BAL6_5  -1
    S6_5  DEM6_5  1
    I6_6  COST  1.3995058617
    I6_6  BAL6_6  -1
    I6_6  BAL6_7  1
    S6_6  COST  -51.8914492621
    S6_6  BAL6_6  -1
    S6_6  DEM6_6  1
    I6_7  COST  1.3995058617
    I6_7  BAL6_7  -1
    I6_7  BAL6_8  1
    S6_7  COST  -60.4327235606
    S6_7  BAL6_7  -1
    S6_7  DEM6_7  1
    I6_8  COST  1.3995058617
    I6_8  BAL6_8  -1
    I6_8  BAL6_9  1
    S6_8  COST  -38.1181876162
    S6_8  BAL6_8  -1
    S6_8  DEM6_8  1
    I6_9  COST  1.3995058617
    I6_9  BAL6_9  -1
    I6_9  BAL6_10  1
    S6_9  COST  -66.8095331139
    S6_9  BAL6_9  -1
    S6_9  DEM6_9  1
    I6_10  COST  1.3995058617
    I6_10  BAL6_10  -1
    I6_10  BAL6_11  1
    S6_10  COST  -32.997106659
    S6_10  BAL6_10  -1
    S6_10  DEM6_10  1
    I6_11  COST  1.3995058617
    I6_11  BAL6_11  -1
    I6_11  BAL6_12  1
    S6_11  COST  -43.5845307081
    S6_11  BAL6_11  -1
    S6_11  DEM6_11  1
    I6_12  COST  1.3995058617
    I6_12  BAL6_12  -1
    I6_12  BAL6_13  1
    S6_12  COST  -31.5378652029
    S6_12  BAL6_12  -1
    S6_12  DEM6_12  1
    I6_13  COST  1.3995058617
    I6_13  BAL6_13  -1
    I6_13  BAL6_14  1
    S6_13  COST  -34.2720596822
    S6_13  BAL6_13  -1
    S6_13  DEM6_13  1
    I6_14  COST  1.3995058617
    I6_14  BAL6_14  -1
    I6_14  BAL6_15  1
    S6_14  COST  -55.2991121572
    S6_14  BAL6_14  -1
    S6_14  DEM6_14  1
    I6_15  COST  1.3995058617
    I6_15  BAL6_15  -1
    I6_15  BAL6_16  1
    S6_15  COST  -58.4490197828
    S6_15  BAL6_15  -1
    S6_15  DEM6_15  1
    I6_16  COST  1.3995058617
    I6_16  BAL6_16  -1
    I6_16  BAL6_17  1
    S6_16  COST  -41.939649723
    S6_16  BAL6_16  -1
    S6_16  DEM6_16  1
    I6_17  COST  1.3995058617
    I6_17  BAL6_17  -1
    I6_17  BAL6_18  1
    S6_17  COST  -68.0253083339
    S6_17  BAL6_17  -1
    S6_17  DEM6_17  1
    I6_18  COST  1.3995058617
    I6_18  BAL6_18  -1
    I6_18  BAL6_19  1
    S6_18  COST  -36.1309947527
    S6_18  BAL6_18  -1
    S6_18  DEM6_18  1
    I6_19  COST  1.3995058617
    I6_19  BAL6_19  -1
    I6_19  BAL6_20  1
    S6_19  COST  -73.7767353427
    S6_19  BAL6_19  -1
    S6_19  DEM6_19  1
    I6_20  COST  1.3995058617
    I6_20  BAL6_20  -1
    I6_20  BAL6_21  1
    S6_20  COST  -56.2907354664
    S6_20  BAL6_20  -1
    S6_20  DEM6_20  1
    I6_21  COST  1.3995058617
    I6_21  BAL6_21  -1
    I6_21  BAL6_22  1
    S6_21  COST  -35.0298147338
    S6_21  BAL6_21  -1
    S6_21  DEM6_21  1
    I6_22  COST  1.3995058617
    I6_22  BAL6_22  -1
    I6_22  BAL6_23  1
    S6_22  COST  -36.708936461
    S6_22  BAL6_22  -1
    S6_22  DEM6_22  1
    I6_23  COST  1.3995058617
    I6_23  BAL6_23  -1
    S6_23  COST  -35.2256685778
    S6_23  BAL6_23  -1
    S6_23  DEM6_23  1
    I7_0  COST  1.85647832678
    I7_0  BAL7_0  -1
    I7_0  BAL7_1  1
    S7_0  COST  -60.9933996344
    S7_0  BAL7_0  -1
    S7_0  DEM7_0  1
    I7_1  COST  1.85647832678
    I7_1  BAL7_1  -1
    I7_1  BAL7_2  1
    S7_1  COST  -63.817045219
    S7_1  BAL7_1  -1
    S7_1  DEM7_1  1
    I7_2  COST  1.85647832678
    I7_2  BAL7_2  -1
    I7_2  BAL7_3  1
    S7_2  COST  -47.5735628147
    S7_2  BAL7_2  -1
    S7_2  DEM7_2  1
    I7_3  COST  1.85647832678
    I7_3  BAL7_3  -1
    I7_3  BAL7_4  1
    S7_3  COST  -47.9913257147
    S7_3  BAL7_3  -1
    S7_3  DEM7_3  1
    I7_4  COST  1.85647832678
    I7_4  BAL7_4  -1
    I7_4  BAL7_5  1
    S7_4  COST  -32.0882994423
    S7_4  BAL7_4  -1
    S7_4  DEM7_4  1
    I7_5  COST  1.85647832678
    I7_5  BAL7_5  -1
    I7_5  BAL7_6  1
    S7_5  COST  -54.1175089802
    S7_5  BAL7_5  -1
    S7_5  DEM7_5  1
    I7_6  COST  1.85647832678
    I7_6  BAL7_6  -1
    I7_6  BAL7_7  1
    S7_6  COST  -57.6890084298
    S7_6  BAL7_6  -1
    S7_6  DEM7_6  1
    I7_7  COST  1.85647832678
    I7_7  BAL7_7  -1
    I7_7  BAL7_8  1
    S7_7  COST  -68.143393679
    S7_7  BAL7_7  -1
    S7_7  DEM7_7  1
    I7_8  COST  1.85647832678
    I7_8  BAL7_8  -1
    I7_8  BAL7_9  1
    S7_8  COST  -71.434874743
    S7_8  BAL7_8  -1
    S7_8  DEM7_8  1
    I7_9  COST  1.85647832678
    I7_9  BAL7_9  -1
    I7_9  BAL7_10  1
    S7_9  COST  -53.1417029071
    S7_9  BAL7_9  -1
    S7_9  DEM7_9  1
    I7_10  COST  1.85647832678
    I7_10  BAL7_10  -1
    I7_10  BAL7_11  1
    S7_10  COST  -57.8698204544
    S7_10  BAL7_10  -1
    S7_10  DEM7_10  1
    I7_11  COST  1.85647832678
    I7_11  BAL7_11  -1
    I7_11  BAL7_12  1
    S7_11  COST  -41.3273509076
    S7_11  BAL7_11  -1
    S7_11  DEM7_11  1
    I7_12  COST  1.85647832678
    I7_12  BAL7_12  -1
    I7_12  BAL7_13  1
    S7_12  COST  -61.5414116363
    S7_12  BAL7_12  -1
    S7_12  DEM7_12  1
    I7_13  COST  1.85647832678
    I7_13  BAL7_13  -1
    I7_13  BAL7_14  1
    S7_13  COST  -48.9222066052
    S7_13  BAL7_13  -1
    S7_13  DEM7_13  1
    I7_14  COST  1.85647832678
    I7_14  BAL7_14  -1
    I7_14  BAL7_15  1
    S7_14  COST  -35.9750608099
    S7_14  BAL7_14  -1
    S7_14  DEM7_14  1
    I7_15  COST  1.85647832678
    I7_15  BAL7_15  -1
    I7_15  BAL7_16  1
    S7_15  COST  -40.8097261933
    S7_15  BAL7_15  -1
    S7_15  DEM7_15  1
    I7_16  COST  1.85647832678
    I7_16  BAL7_16  -1
    I7_16  BAL7_17  1
    S7_16  COST  -40.2542825726
    S7_16  BAL7_16  -1
    S7_16  DEM7_16  1
    I7_17  COST  1.85647832678
    I7_17  BAL7_17  -1
    I7_17  BAL7_18  1
    S7_17  COST  -43.9888733345
    S7_17  BAL7_17  -1
    S7_17  DEM7_17  1
    I7_18  COST  1.85647832678
    I7_18  BAL7_18  -1
    I7_18  BAL7_19  1
    S7_18  COST  -39.6396190362
    S7_18  BAL7_18  -1
    S7_18  DEM7_18  1
    I7_19  COST  1.85647832678
    I7_19  BAL7_19  -1
    I7_19  BAL7_20  1
    S7_19  COST  -54.9525742478
    S7_19  BAL7_19  -1
    S7_19  DEM7_19  1
    I7_20  COST  1.85647832678
    I7_20  BAL7_20  -1
    I7_20  BAL7_21  1
    S7_20  COST  -58.4286206237
    S7_20  BAL7_20  -1
    S7_20  DEM7_20  1
    I7_21  COST  1.85647832678
    I7_21  BAL7_21  -1
    I7_21  BAL7_22  1
    S7_21  COST  -69.2594881397
    S7_21  BAL7_21  -1
    S7_21  DEM7_21  1
    I7_22  COST  1.85647832678
    I7_22  BAL7_22  -1
    I7_22  BAL7_23  1
    S7_22  COST  -33.8002673062
    S7_22  BAL7_22  -1
    S7_22  DEM7_22  1
    I7_23  COST  1.85647832678
    I7_23  BAL7_23  -1
    S7_23  COST  -69.1599148343
    S7_23  BAL7_23  -1
    S7_23  DEM7_23  1
    I8_0  COST  1.84562691855
    I8_0  BAL8_0  -1
    I8_0  BAL8_1  1
    S8_0  COST  -58.5526439724
    S8_0  BAL8_0  -1
    S8_0  DEM8_0  1
    I8_1  COST  1.84562691855
    I8_1  BAL8_1  -1
    I8_1  BAL8_2  1
    S8_1  COST  -52.7430332014
    S8_1  BAL8_1  -1
    S8_1  DEM8_1  1
    I8_2  COST  1.84562691855
    I8_2  BAL8_2  -1
    I8_2  BAL8_3  1
    S8_2  COST  -32.9757032518
    S8_2  BAL8_2  -1
    S8_2  DEM8_2  1
    I8_3  COST  1.84562691855
    I8_3  BAL8_3  -1
    I8_3  BAL8_4  1
    S8_3  COST  -46.1922771336
    S8_3  BAL8_3  -1
    S8_3  DEM8_3  1
    I8_4  COST  1.84562691855
    I8_4  BAL8_4  -1
    I8_4  BAL8_5  1
    S8_4  COST  -72.2305988783
    S8_4  BAL8_4  -1
    S8_4  DEM8_4  1
    I8_5  COST  1.84562691855
    I8_5  BAL8_5  -1
    I8_5  BAL8_6  1
    S8_5  COST  -43.8151684925
    S8_5  BAL8_5  -1
    S8_5  DEM8_5  1
    I8_6  COST  1.84562691855
    I8_6  BAL8_6  -1
    I8_6  BAL8_7  1
    S8_6  COST  -49.4846528281
    S8_6  BAL8_6  -1
    S8_6  DEM8_6  1
    I8_7  COST  1.84562691855
    I8_7  BAL8_7  -1
    I8_7  BAL8_8  1
    S8_7  COST  -50.0260397775
    S8_7  BAL8_7  -1
    S8_7  DEM8_7  1
    I8_8  COST  1.84562691855
    I8_8  BAL8_8  -1
    I8_8  BAL8_9  1
    S8_8  COST  -68.6350149627
    S8_8  BAL8_8  -1
    S8_8  DEM8_8  1
    I8_9  COST  1.84562691855
    I8_9  BAL8_9  -1
    I8_9  BAL8_10  1
    S8_9  COST  -33.1710355986
    S8_9  BAL8_9  -1
    S8_9  DEM8_9  1
    I8_10  COST  1.84562691855
    I8_10  BAL8_10  -1
    I8_10  BAL8_11  1
    S8_10  COST  -73.6968976624
    S8_10  BAL8_10  -1
    S8_10  DEM8_10  1
    I8_11  COST  1.84562691855
    I8_11  BAL8_11  -1
    I8_11  BAL8_12  1
    S8_11  COST  -60.4496422396
    S8_11  BAL8_11  -1
    S8_11  DEM8_11  1
    I8_12  COST  1.84562691855
    I8_12  BAL8_12  -1
    I8_12  BAL8_13  1
    S8_12  COST  -54.3371359223
    S8_12  BAL8_12  -1
    S8_12  DEM8_12  1
    I8_13  COST  1.84562691855
    I8_13  BAL8_13  -1
    I8_13  BAL8_14  1
    S8_13  COST  -62.4118978626
    S8_13  BAL8_13  -1
    S8_13  DEM8_13  1
    I8_14  COST  1.84562691855
    I8_14  BAL8_14  -1
    I8_14  BAL8_15  1
    S8_14  COST  -60.6447482166
    S8_14  BAL8_14  -1
    S8_14  DEM8_14  1
    I8_15  COST  1.84562691855
    I8_15  BAL8_15  -1
    I8_15  BAL8_16  1
    S8_15  COST  -70.1623255735
    S8_15  BAL8_15  -1
    S8_15  DEM8_15  1
    I8_16  COST  1.84562691855
    I8_16  BAL8_16  -1
    I8_16  BAL8_17  1
    S8_16  COST  -32.6884105761
    S8_16  BAL8_16  -1
    S8_16  DEM8_16  1
    I8_17  COST  1.84562691855
    I8_17  BAL8_17  -1
    I8_17  BAL8_18  1
    S8_17  COST  -33.3152173179
    S8_17  BAL8_17  -1
    S8_17  DEM8_17  1
    I8_18  COST  1.84562691855
    I8_18  BAL8_18  -1
    I8_18  BAL8_19  1
    S8_18  COST  -50.9687068169
    S8_18  BAL8_18  -1
    S8_18  DEM8_18  1
    I8_19  COST  1.84562691855
    I8_19  BAL8_19  -1
    I8_19  BAL8_20  1
    S8_19  COST  -74.6451404874
    S8_19  BAL8_19  -1
    S8_19  DEM8_19  1
    I8_20  COST  1.84562691855
    I8_20  BAL8_20  -1
    I8_20  BAL8_21  1
    S8_20  COST  -46.2287004629
    S8_20  BAL8_20  -1
    S8_20  DEM8_20  1
    I8_21  COST  1.84562691855
    I8_21  BAL8_21  -1
    I8_21  BAL8_22  1
    S8_21  COST  -73.8009237932
    S8_21  BAL8_21  -1
    S8_21  DEM8_21  1
    I8_22  COST  1.84562691855
    I8_22  BAL8_22  -1
    I8_22  BAL8_23  1
    S8_22  COST  -32.1411048206
    S8_22  BAL8_22  -1
    S8_22  DEM8_22  1
    I8_23  COST  1.84562691855
    I8_23  BAL8_23  -1
    S8_23  COST  -36.8569588064
    S8_23  BAL8_23  -1
    S8_23  DEM8_23  1
    I9_0  COST  1.10792257544
    I9_0  BAL9_0  -1
    I9_0  BAL9_1  1
    S9_0  COST  -38.4653070391
    S9_0  BAL9_0  -1
    S9_0  DEM9_0  1
    I9_1  COST  1.10792257544
    I9_1  BAL9_1  -1
    I9_1  BAL9_2  1
    S9_1  COST  -62.4434330969
    S9_1  BAL9_1  -1
    S9_1  DEM9_1  1
    I9_2  COST  1.10792257544
    I9_2  BAL9_2  -1
    I9_2  BAL9_3  1
    S9_2  COST  -65.8226150221
    S9_2  BAL9_2  -1
    S9_2  DEM9_2  1
    I9_3  COST  1.10792257544
    I9_3  BAL9_3  -1
    I9_3  BAL9_4  1
    S9_3  COST  -57.794684265
    S9_3  BAL9_3  -1
    S9_3  DEM9_3  1
    I9_4  COST  1.10792257544
    I9_4  BAL9_4  -1
    I9_4  BAL9_5  1
    S9_4  COST  -53.7422629765
    S9_4  BAL9_4  -1
    S9_4  DEM9_4  1
    I9_5  COST  1.10792257544
    I9_5  BAL9_5  -1
    I9_5  BAL9_6  1
    S9_5  COST  -37.1047873124
    S9_5  BAL9_5  -1
    S9_5  DEM9_5  1
    I9_6  COST  1.10792257544
    I9_6  BAL9_6  -1
    I9_6  BAL9_7  1
    S9_6  COST  -56.971528845
    S9_6  BAL9_6  -1
    S9_6  DEM9_6  1
    I9_7  COST  1.10792257544
    I9_7  BAL9_7  -1
    I9_7  BAL9_8  1
    S9_7  COST  -45.301034776
    S9_7  BAL9_7  -1
    S9_7  DEM9_7  1
    I9_8  COST  1.10792257544
    I9_8  BAL9_8  -1
    I9_8  BAL9_9  1
    S9_8  COST  -49.0707229359
    S9_8  BAL9_8  -1
    S9_8  DEM9_8  1
    I9_9  COST  1.10792257544
    I9_9  BAL9_9  -1
    I9_9  BAL9_10  1
    S9_9  COST  -37.6255546153
    S9_9  BAL9_9  -1
    S9_9  DEM9_9  1
    I9_10  COST  1.10792257544
    I9_10  BAL9_10  -1
    I9_10  BAL9_11  1
    S9_10  COST  -66.2602355812
    S9_10  BAL9_10  -1
    S9_10  DEM9_10  1
    I9_11  COST  1.10792257544
    I9_11  BAL9_11  -1
    I9_11  BAL9_12  1
    S9_11  COST  -52.5415518221
    S9_11  BAL9_11  -1
    S9_11  DEM9_11  1
    I9_12  COST  1.10792257544
    I9_12  BAL9_12  -1
    I9_12  BAL9_13  1
    S9_12  COST  -37.219941037
    S9_12  BAL9_12  -1
    S9_12  DEM9_12  1
    I9_13  COST  1.10792257544
    I9_13  BAL9_13  -1
    I9_13  BAL9_14  1
    S9_13  COST  -59.4035241604
    S9_13  BAL9_13  -1
    S9_13  DEM9_13  1
    I9_14  COST  1.10792257544
    I9_14  BAL9_14  -1
    I9_14  BAL9_15  1
    S9_14  COST  -36.1179184082
    S9_14  BAL9_14  -1
    S9_14  DEM9_14  1
    I9_15  COST  1.10792257544
    I9_15  BAL9_15  -1
    I9_15  BAL9_16  1
    S9_15  COST  -64.8017516184
    S9_15  BAL9_15  -1
    S9_15  DEM9_15  1
    I9_16  COST  1.10792257544
    I9_16  BAL9_16  -1
    I9_16  BAL9_17  1
    S9_16  COST  -59.9866253527
    S9_16  BAL9_16  -1
    S9_16  DEM9_16  1
    I9_17  COST  1.10792257544
    I9_17  BAL9_17  -1
    I9_17  BAL9_18  1
    S9_17  COST  -49.061406837
    S9_17  BAL9_17  -1
    S9_17  DEM9_17  1
    I9_18  COST  1.10792257544
    I9_18  BAL9_18  -1
    I9_18  BAL9_19  1
    S9_18  COST  -61.3489960572
    S9_18  BAL9_18  -1
    S9_18  DEM9_18  1
    I9_19  COST  1.10792257544
    I9_19  BAL9_19  -1
    I9_19  BAL9_20  1
    S9_19  COST  -58.2071680377
    S9_19  BAL9_19  -1
    S9_19  DEM9_19  1
    I9_20  COST  1.10792257544
    I9_20  BAL9_20  -1
    I9_20  BAL9_21  1
    S9_20  COST  -31.3245370512
    S9_20  BAL9_20  -1
    S9_20  DEM9_20  1
    I9_21  COST  1.10792257544
    I9_21  BAL9_21  -1
    I9_21  BAL9_22  1
    S9_21  COST  -56.9982917021
    S9_21  BAL9_21  -1
    S9_21  DEM9_21  1
    I9_22  COST  1.10792257544
    I9_22  BAL9_22  -1
    I9_22  BAL9_23  1
    S9_22  COST  -39.9559772678
    S9_22  BAL9_22  -1
    S9_22  DEM9_22  1
    I9_23  COST  1.10792257544
    I9_23  BAL9_23  -1
    S9_23  COST  -56.0199489354
    S9_23  BAL9_23  -1
    S9_23  DEM9_23  1
    I10_0  COST  1.41677926163
    I10_0  BAL10_0  -1
    I10_0  BAL10_1  1
    S10_0  COST  -66.1954240806
    S10_0  BAL10_0  -1
    S10_0  DEM10_0  1
    I10_1  COST  1.41677926163
    I10_1  BAL10_1  -1
    I10_1  BAL10_2  1
    S10_1  COST  -36.7489227594
    S10_1  BAL10_1  -1
    S10_1  DEM10_1  1
    I10_2  COST  1.41677926163
    I10_2  BAL10_2  -1
    I10_2  BAL10_3  1
    S10_2  COST  -40.0861123658
    S10_2  BAL10_2  -1
    S10_2  DEM10_2  1
    I10_3  COST  1.41677926163
    I10_3  BAL10_3  -1
    I10_3  BAL10_4  1
    S10_3  COST  -74.3401086423
    S10_3  BAL10_3  -1
    S10_3  DEM10_3  1
    I10_4  COST  1.41677926163
    I10_4  BAL10_4  -1
    I10_4  BAL10_5  1
    S10_4  COST  -49.2606074815
    S10_4  BAL10_4  -1
    S10_4  DEM10_4  1
    I10_5  COST  1.41677926163
    I10_5  BAL10_5  -1
    I10_5  BAL10_6  1
    S10_5  COST  -45.9917116417
    S10_5  BAL10_5  -1
    S10_5  DEM10_5  1
    I10_6  COST  1.41677926163
    I10_6  BAL10_6  -1
    I10_6  BAL10_7  1
    S10_6  COST  -55.6350065803
    S10_6  BAL10_6  -1
    S10_6  DEM10_6  1
    I10_7  COST  1.41677926163
    I10_7  BAL10_7  -1
    I10_7  BAL10_8  1
    S10_7  COST  -31.8243136632
    S10_7  BAL10_7  -1
    S10_7  DEM10_7  1
    I10_8  COST  1.41677926163
    I10_8  BAL10_8  -1
    I10_8  BAL10_9  1
    S10_8  COST  -72.7540971265
    S10_8  BAL10_8  -1
    S10_8  DEM10_8  1
    I10_9  COST  1.41677926163
    I10_9  BAL10_9  -1
    I10_9  BAL10_10  1
    S10_9  COST  -67.722012606
    S10_9  BAL10_9  -1
    S10_9  DEM10_9  1
    I10_10  COST  1.41677926163
    I10_10  BAL10_10  -1
    I10_10  BAL10_11  1
    S10_10  COST  -34.5417105658
    S10_10  BAL10_10  -1
    S10_10  DEM10_10  1
    I10_11  COST  1.41677926163
    I10_11  BAL10_11  -1
    I10_11  BAL10_12  1
    S10_11  COST  -52.8300576717
    S10_11  BAL10_11  -1
    S10_11  DEM10_11  1
    I10_12  COST  1.41677926163
    I10_12  BAL10_12  -1
    I10_12  BAL10_13  1
    S10_12  COST  -72.596333287
    S10_12  BAL10_12  -1
    S10_12  DEM10_12  1
    I10_13  COST  1.41677926163
    I10_13  BAL10_13  -1
    I10_13  BAL10_14  1
    S10_13  COST  -47.163091969
    S10_13  BAL10_13  -1
    S10_13  DEM10_13  1
    I10_14  COST  1.41677926163
    I10_14  BAL10_14  -1
    I10_14  BAL10_15  1
    S10_14  COST  -36.9436376305
    S10_14  BAL10_14  -1
    S10_14  DEM10_14  1
    I10_15  COST  1.41677926163
    I10_15  BAL10_15  -1
    I10_15  BAL10_16  1
    S10_15  COST  -69.7173828246
    S10_15  BAL10_15  -1
    S10_15  DEM10_15  1
    I10_16  COST  1.41677926163
    I10_16  BAL10_16  -1
    I10_16  BAL10_17  1
    S10_16  COST  -43.5136300112
    S10_16  BAL10_16  -1
    S10_16  DEM10_16  1
    I10_17  COST  1.41677926163
    I10_17  BAL10_17  -1
    I10_17  BAL10_18  1
    S10_17  COST  -51.6918524456
    S10_17  BAL10_17  -1
    S10_17  DEM10_17  1
    I10_18  COST  1.41677926163
    I10_18  BAL10_18  -1
    I10_18  BAL10_19  1
    S10_18  COST  -71.8064296625
    S10_18  BAL10_18  -1
    S10_18  DEM10_18  1
    I10_19  COST  1.41677926163
    I10_19  BAL10_19  -1
    I10_19  BAL10_20  1
    S10_19  COST  -71.3328545248
    S10_19  BAL10_19  -1
    S10_19  DEM10_19  1
    I10_20  COST  1.41677926163
    I10_20  BAL10_20  -1
    I10_20  BAL10_21  1
    S10_20  COST  -66.8762451579
    S10_20  BAL10_20  -1
    S10_20  DEM10_20  1
    I10_21  COST  1.41677926163
    I10_21  BAL10_21  -1
    I10_21  BAL10_22  1
    S10_21  COST  -44.9297010222
    S10_21  BAL10_21  -1
    S10_21  DEM10_21  1
    I10_22  COST  1.41677926163
    I10_22  BAL10_22  -1
    I10_22  BAL10_23  1
    S10_22  COST  -43.4589014734
    S10_22  BAL10_22  -1
    S10_22  DEM10_22  1
    I10_23  COST  1.41677926163
    I10_23  BAL10_23  -1
    S10_23  COST  -63.6596245681
    S10_23  BAL10_23  -1
    S10_23  DEM10_23  1
    I11_0  COST  1.19563607373
    I11_0  BAL11_0  -1
    I11_0  BAL11_1  1
    S11_0  COST  -46.3331034859
    S11_0  BAL11_0  -1
    S11_0  DEM11_0  1
    I11_1  COST  1.19563607373
    I11_1  BAL11_1  -1
    I11_1  BAL11_2  1
    S11_1  COST  -42.0730770345
    S11_1  BAL11_1  -1
    S11_1  DEM11_1  1
    I11_2  COST  1.19563607373
    I11_2  BAL11_2  -1
    I11_2  BAL11_3  1
    S11_2  COST  -45.6139467297
    S11_2  BAL11_2  -1
    S11_2  DEM11_2  1
    I11_3  COST  1.19563607373
    I11_3  BAL11_3  -1
    I11_3  BAL11_4  1
    S11_3  COST  -30.8786595578
    S11_3  BAL11_3  -1
    S11_3  DEM11_3  1
    I11_4  COST  1.19563607373
    I11_4  BAL11_4  -1
    I11_4  BAL11_5  1
    S11_4  COST  -33.9954827246
    S11_4  BAL11_4  -1
    S11_4  DEM11_4  1
    I11_5  COST  1.19563607373
    I11_5  BAL11_5  -1
    I11_5  BAL11_6  1
    S11_5  COST  -61.2809836891
    S11_5  BAL11_5  -1
    S11_5  DEM11_5  1
    I11_6  COST  1.19563607373
    I11_6  BAL11_6  -1
    I11_6  BAL11_7  1
    S11_6  COST  -30.8737351219
    S11_6  BAL11_6  -1
    S11_6  DEM11_6  1
    I11_7  COST  1.19563607373
    I11_7  BAL11_7  -1
    I11_7  BAL11_8  1
    S11_7  COST  -31.496931718
    S11_7  BAL11_7  -1
    S11_7  DEM11_7  1
    I11_8  COST  1.19563607373
    I11_8  BAL11_8  -1
    I11_8  BAL11_9  1
    S11_8  COST  -37.7700052546
    S11_8  BAL11_8  -1
    S11_8  DEM11_8  1
    I11_9  COST  1.19563607373
    I11_9  BAL11_9  -1
    I11_9  BAL11_10  1
    S11_9  COST  -55.2488332243
    S11_9  BAL11_9  -1
    S11_9  DEM11_9  1
    I11_10  COST  1.19563607373
    I11_10  BAL11_10  -1
    I11_10  BAL11_11  1
    S11_10  COST  -53.5271798605
    S11_10  BAL11_10  -1
    S11_10  DEM11_10  1
    I11_11  COST  1.19563607373
    I11_11  BAL11_11  -1
    I11_11  BAL11_12  1
    S11_11  COST  -60.6043352663
    S11_11  BAL11_11  -1
    S11_11  DEM11_11  1
    I11_12  COST  1.19563607373
    I11_12  BAL11_12  -1
    I11_12  BAL11_13  1
    S11_12  COST  -64.8419471079
    S11_12  BAL11_12  -1
    S11_12  DEM11_12  1
    I11_13  COST  1.19563607373
    I11_13  BAL11_13  -1
    I11_13  BAL11_14  1
    S11_13  COST  -38.5279338706
    S11_13  BAL11_13  -1
    S11_13  DEM11_13  1
    I11_14  COST  1.19563607373
    I11_14  BAL11_14  -1
    I11_14  BAL11_15  1
    S11_14  COST  -39.0010037941
    S11_14  BAL11_14  -1
    S11_14  DEM11_14  1
    I11_15  COST  1.19563607373
    I11_15  BAL11_15  -1
    I11_15  BAL11_16  1
    S11_15  COST  -37.4606952866
    S11_15  BAL11_15  -1
    S11_15  DEM11_15  1
    I11_16  COST  1.19563607373
    I11_16  BAL11_16  -1
    I11_16  BAL11_17  1
    S11_16  COST  -74.008081996
    S11_16  BAL11_16  -1
    S11_16  DEM11_16  1
    I11_17  COST  1.19563607373
    I11_17  BAL11_17  -1
    I11_17  BAL11_18  1
    S11_17  COST  -65.3988860771
    S11_17  BAL11_17  -1
    S11_17  DEM11_17  1
    I11_18  COST  1.19563607373
    I11_18  BAL11_18  -1
    I11_18  BAL11_19  1
    S11_18  COST  -32.4980405723
    S11_18  BAL11_18  -1
    S11_18  DEM11_18  1
    I11_19  COST  1.19563607373
    I11_19  BAL11_19  -1
    I11_19  BAL11_20  1
    S11_19  COST  -74.0023986584
    S11_19  BAL11_19  -1
    S11_19  DEM11_19  1
    I11_20  COST  1.19563607373
    I11_20  BAL11_20  -1
    I11_20  BAL11_21  1
    S11_20  COST  -36.6836556746
    S11_20  BAL11_20  -1
    S11_20  DEM11_20  1
    I11_21  COST  1.19563607373
    I11_21  BAL11_21  -1
    I11_21  BAL11_22  1
    S11_21  COST  -68.3884756217
    S11_21  BAL11_21  -1
    S11_21  DEM11_21  1
    I11_22  COST  1.19563607373
    I11_22  BAL11_22  -1
    I11_22  BAL11_23  1
    S11_22  COST  -51.5615701725
    S11_22  BAL11_22  -1
    S11_22  DEM11_22  1
    I11_23  COST  1.19563607373
    I11_23  BAL11_23  -1
    S11_23  COST  -66.3171292168
    S11_23  BAL11_23  -1
    S11_23  DEM11_23  1
    I12_0  COST  2.21436103454
    I12_0  BAL12_0  -1
    I12_0  BAL12_1  1
    S12_0  COST  -38.0269715216
    S12_0  BAL12_0  -1
    S12_0  DEM12_0  1
    I12_1  COST  2.21436103454
    I12_1  BAL12_1  -1
    I12_1  BAL12_2  1
    S12_1  COST  -66.5917236038
    S12_1  BAL12_1  -1
    S12_1  DEM12_1  1
    I12_2  COST  2.21436103454
    I12_2  BAL12_2  -1
    I12_2  BAL12_3  1
    S12_2  COST  -34.2730647495
    S12_2  BAL12_2  -1
    S12_2  DEM12_2  1
    I12_3  COST  2.21436103454
    I12_3  BAL12_3  -1
    I12_3  BAL12_4  1
    S12_3  COST  -44.4354676792
    S12_3  BAL12_3  -1
    S12_3  DEM12_3  1
    I12_4  COST  2.21436103454
    I12_4  BAL12_4  -1
    I12_4  BAL12_5  1
    S12_4  COST  -62.2872035855
    S12_4  BAL12_4  -1
    S12_4  DEM12_4  1
    I12_5  COST  2.21436103454
    I12_5  BAL12_5  -1
    I12_5  BAL12_6  1
    S12_5  COST  -73.3793606554
    S12_5  BAL12_5  -1
    S12_5  DEM12_5  1
    I12_6  COST  2.21436103454
    I12_6  BAL12_6  -1
    I12_6  BAL12_7  1
    S12_6  COST  -32.2370992123
    S12_6  BAL12_6  -1
    S12_6  DEM12_6  1
    I12_7  COST  2.21436103454
    I12_7  BAL12_7  -1
    I12_7  BAL12_8  1
    S12_7  COST  -70.82991352
    S12_7  BAL12_7  -1
    S12_7  DEM12_7  1
    I12_8  COST  2.21436103454
    I12_8  BAL12_8  -1
    I12_8  BAL12_9  1
    S12_8  COST  -31.5412410889
    S12_8  BAL12_8  -1
    S12_8  DEM12_8  1
    I12_9  COST  2.21436103454
    I12_9  BAL12_9  -1
    I12_9  BAL12_10  1
    S12_9  COST  -72.5753419369
    S12_9  BAL12_9  -1
    S12_9  DEM12_9  1
    I12_10  COST  2.21436103454
    I12_10  BAL12_10  -1
    I12_10  BAL12_11  1
    S12_10  COST  -65.3538319287
    S12_10  BAL12_10  -1
    S12_10  DEM12_10  1
    I12_11  COST  2.21436103454
    I12_11  BAL12_11  -1
    I12_11  BAL12_12  1
    S12_11  COST  -61.5427942975
    S12_11  BAL12_11  -1
    S12_11  DEM12_11  1
    I12_12  COST  2.21436103454
    I12_12  BAL12_12  -1
    I12_12  BAL12_13  1
    S12_12  COST  -55.9155584469
    S12_12  BAL12_12  -1
    S12_12  DEM12_12  1
    I12_13  COST  2.21436103454
    I12_13  BAL12_13  -1
    I12_13  BAL12_14  1
    S12_13  COST  -51.2770082595
    S12_13  BAL12_13  -1
    S12_13  DEM12_13  1
    I12_14  COST  2.21436103454
    I12_14  BAL12_14  -1
    I12_14  BAL12_15  1
    S12_14  COST  -40.9683484938
    S12_14  BAL12_14  -1
    S12_14  DEM12_14  1
    I12_15  COST  2.21436103454
    I12_15  BAL12_15  -1
    I12_15  BAL12_16  1
    S12_15  COST  -62.4747313797
    S12_15  BAL12_15  -1
    S12_15  DEM12_15  1
    I12_16  COST  2.21436103454
    I12_16  BAL12_16  -1
    I12_16  BAL12_17  1
    S12_16  COST  -68.6932188654
    S12_16  BAL12_16  -1
    S12_16  DEM12_16  1
    I12_17  COST  2.21436103454
    I12_17  BAL12_17  -1
    I12_17  BAL12_18  1
    S12_17  COST  -47.2589378268
    S12_17  BAL12_17  -1
    S12_17  DEM12_17  1
    I12_18  COST  2.21436103454
    I12_18  BAL12_18  -1
    I12_18  BAL12_19  1
    S12_18  COST  -40.5205165466
    S12_18  BAL12_18  -1
    S12_18  DEM12_18  1
    I12_19  COST  2.21436103454
    I12_19  BAL12_19  -1
    I12_19  BAL12_20  1
    S12_19  COST  -52.5486103151
    S12_19  BAL12_19  -1
    S12_19  DEM12_19  1
    I12_20  COST  2.21436103454
    I12_20  BAL12_20  -1
    I12_20  BAL12_21  1
    S12_20  COST  -43.4383084273
    S12_20  BAL12_20  -1
    S12_20  DEM12_20  1
    I12_21  COST  2.21436103454
    I12_21  BAL12_21  -1
    I12_21  BAL12_22  1
    S12_21  COST  -32.9434881103
    S12_21  BAL12_21  -1
    S12_21  DEM12_21  1
    I12_22  COST  2.21436103454
    I12_22  BAL12_22  -1
    I12_22  BAL12_23  1
    S12_22  COST  -47.8727045344
    S12_22  BAL12_22  -1
    S12_22  DEM12_22  1
    I12_23  COST  2.21436103454
    I12_23  BAL12_23  -1
    S12_23  COST  -71.217516949
    S12_23  BAL12_23  -1
    S12_23  DEM12_23  1
    I13_0  COST  0.823666186302
    I13_0  BAL13_0  -1
    I13_0  BAL13_1  1
    S13_0  COST  -34.7417710973
    S13_0  BAL13_0  -1
    S13_0  DEM13_0  1
    I13_1  COST  0.823666186302
    I13_1  BAL13_1  -1
    I13_1  BAL13_2  1
    S13_1  COST  -47.4349971633
    S13_1  BAL13_1  -1
    S13_1  DEM13_1  1
    I13_2  COST  0.823666186302
    I13_2  BAL13_2  -1
    I13_2  BAL13_3  1
    S13_2  COST  -48.4831989764
    S13_2  BAL13_2  -1
    S13_2  DEM13_2  1
    I13_3  COST  0.823666186302
    I13_3  BAL13_3  -1
    I13_3  BAL13_4  1
    S13_3  COST  -34.8735120835
    S13_3  BAL13_3  -1
    S13_3  DEM13_3  1
    I13_4  COST  0.823666186302
    I13_4  BAL13_4  -1
    I13_4  BAL13_5  1
    S13_4  COST  -70.8718394826
    S13_4  BAL13_4  -1
    S13_4  DEM13_4  1
    I13_5  COST  0.823666186302
    I13_5  BAL13_5  -1
    I13_5  BAL13_6  1
    S13_5  COST  -52.7037839619
    S13_5  BAL13_5  -1
    S13_5  DEM13_5  1
    I13_6  COST  0.823666186302
    I13_6  BAL13_6  -1
    I13_6  BAL13_7  1
    S13_6  COST  -44.3083992896
    S13_6  BAL13_6  -1
    S13_6  DEM13_6  1
    I13_7  COST  0.823666186302
    I13_7  BAL13_7  -1
    I13_7  BAL13_8  1
    S13_7  COST  -73.8526474058
    S13_7  BAL13_7  -1
    S13_7  DEM13_7  1
    I13_8  COST  0.823666186302
    I13_8  BAL13_8  -1
    I13_8  BAL13_9  1
    S13_8  COST  -41.1619737744
    S13_8  BAL13_8  -1
    S13_8  DEM13_8  1
    I13_9  COST  0.823666186302
    I13_9  BAL13_9  -1
    I13_9  BAL13_10  1
    S13_9  COST  -30.3300279513
    S13_9  BAL13_9  -1
    S13_9  DEM13_9  1
    I13_10  COST  0.823666186302
    I13_10  BAL13_10  -1
    I13_10  BAL13_11  1
    S13_10  COST  -44.1474016365
    S13_10  BAL13_10  -1
    S13_10  DEM13_10  1
    I13_11  COST  0.823666186302
    I13_11  BAL13_11  -1
    I13_11  BAL13_12  1
    S13_11  COST  -32.9265169718
    S13_11  BAL13_11  -1
    S13_11  DEM13_11  1
    I13_12  COST  0.823666186302
    I13_12  BAL13_12  -1
    I13_12  BAL13_13  1
    S13_12  COST  -62.7850560314
    S13_12  BAL13_12  -1
    S13_12  DEM13_12  1
    I13_13  COST  0.823666186302
    I13_13  BAL13_13  -1
    I13_13  BAL13_14  1
    S13_13  COST  -50.3479238278
    S13_13  BAL13_13  -1
    S13_13  DEM13_13  1
    I13_14  COST  0.823666186302
    I13_14  BAL13_14  -1
    I13_14  BAL13_15  1
    S13_14  COST  -56.3618138229
    S13_14  BAL13_14  -1
    S13_14  DEM13_14  1
    I13_15  COST  0.823666186302
    I13_15  BAL13_15  -1
    I13_15  BAL13_16  1
    S13_15  COST  -73.7793809481
    S13_15  BAL13_15  -1
    S13_15  DEM13_15  1
    I13_16  COST  0.823666186302
    I13_16  BAL13_16  -1
    I13_16  BAL13_17  1
    S13_16  COST  -49.9176294639
    S13_16  BAL13_16  -1
    S13_16  DEM13_16  1
    I13_17  COST  0.823666186302
    I13_17  BAL13_17  -1
    I13_17  BAL13_18  1
    S13_17  COST  -73.2079181309
    S13_17  BAL13_17  -1
    S13_17  DEM13_17  1
    I13_18  COST  0.823666186302
    I13_18  BAL13_18  -1
    I13_18  BAL13_19  1
    S13_18  COST  -32.9748973184
    S13_18  BAL13_18  -1
    S13_18  DEM13_18  1
    I13_19  COST  0.823666186302
    I13_19  BAL13_19  -1
    I13_19  BAL13_20  1
    S13_19  COST  -67.7542775504
    S13_19  BAL13_19  -1
    S13_19  DEM13_19  1
    I13_20  COST  0.823666186302
    I13_20  BAL13_20  -1
    I13_20  BAL13_21  1
    S13_20  COST  -58.6024109929
    S13_20  BAL13_20  -1
    S13_20  DEM13_20  1
    I13_21  COST  0.823666186302
    I13_21  BAL13_21  -1
    I13_21  BAL13_22  1
    S13_21  COST  -43.0357998978
    S13_21  BAL13_21  -1
    S13_21  DEM13_21  1
    I13_22  COST  0.823666186302
    I13_22  BAL13_22  -1
    I13_22  BAL13_23  1
    S13_22  COST  -31.0448392929
    S13_22  BAL13_22  -1
    S13_22  DEM13_22  1
    I13_23  COST  0.823666186302
    I13_23  BAL13_23  -1
    S13_23  COST  -57.3410648508
    S13_23  BAL13_23  -1
    S13_23  DEM13_23  1
    I14_0  COST  1.84364871714
    I14_0  BAL14_0  -1
    I14_0  BAL14_1  1
    S14_0  COST  -33.1613018778
    S14_0  BAL14_0  -1
    S14_0  DEM14_0  1
    I14_1  COST  1.84364871714
    I14_1  BAL14_1  -1
    I14_1  BAL14_2  1
    S14_1  COST  -44.6660124877
    S14_1  BAL14_1  -1
    S14_1  DEM14_1  1
    I14_2  COST  1.84364871714
    I14_2  BAL14_2  -1
    I14_2  BAL14_3  1
    S14_2  COST  -30.2080178401
    S14_2  BAL14_2  -1
    S14_2  DEM14_2  1
    I14_3  COST  1.84364871714
    I14_3  BAL14_3  -1
    I14_3  BAL14_4  1
    S14_3  COST  -44.6799222558
    S14_3  BAL14_3  -1
    S14_3  DEM14_3  1
    I14_4  COST  1.84364871714
    I14_4  BAL14_4  -1
    I14_4  BAL14_5  1
    S14_4  COST  -36.9435908295
    S14_4  BAL14_4  -1
    S14_4  DEM14_4  1
    I14_5  COST  1.84364871714
    I14_5  BAL14_5  -1
    I14_5  BAL14_6  1
    S14_5  COST  -63.1226494954
    S14_5  BAL14_5  -1
    S14_5  DEM14_5  1
    I14_6  COST  1.84364871714
    I14_6  BAL14_6  -1
    I14_6  BAL14_7  1
    S14_6  COST  -31.740982107
    S14_6  BAL14_6  -1
    S14_6  DEM14_6  1
    I14_7  COST  1.84364871714
    I14_7  BAL14_7  -1
    I14_7  BAL14_8  1
    S14_7  COST  -51.8205777965
    S14_7  BAL14_7  -1
    S14_7  DEM14_7  1
    I14_8  COST  1.84364871714
    I14_8  BAL14_8  -1
    I14_8  BAL14_9  1
    S14_8  COST  -30.5468421223
    S14_8  BAL14_8  -1
    S14_8  DEM14_8  1
    I14_9  COST  1.84364871714
    I14_9  BAL14_9  -1
    I14_9  BAL14_10  1
    S14_9  COST  -45.4430265814
    S14_9  BAL14_9  -1
    S14_9  DEM14_9  1
    I14_10  COST  1.84364871714
    I14_10  BAL14_10  -1
    I14_10  BAL14_11  1
    S14_10  COST  -43.4454923857
    S14_10  BAL14_10  -1
    S14_10  DEM14_10  1
    I14_11  COST  1.84364871714
    I14_11  BAL14_11  -1
    I14_11  BAL14_12  1
    S14_11  COST  -72.9271444585
    S14_11  BAL14_11  -1
    S14_11  DEM14_11  1
    I14_12  COST  1.84364871714
    I14_12  BAL14_12  -1
    I14_12  BAL14_13  1
    S14_12  COST  -57.7916453569
    S14_12  BAL14_12  -1
    S14_12  DEM14_12  1
    I14_13  COST  1.84364871714
    I14_13  BAL14_13  -1
    I14_13  BAL14_14  1
    S14_13  COST  -49.3828084336
    S14_13  BAL14_13  -1
    S14_13  DEM14_13  1
    I14_14  COST  1.84364871714
    I14_14  BAL14_14  -1
    I14_14  BAL14_15  1
    S14_14  COST  -58.2177265215
    S14_14  BAL14_14  -1
    S14_14  DEM14_14  1
    I14_15  COST  1.84364871714
    I14_15  BAL14_15  -1
    I14_15  BAL14_16  1
    S14_15  COST  -72.345403755
    S14_15  BAL14_15  -1
    S14_15  DEM14_15  1
    I14_16  COST  1.84364871714
    I14_16  BAL14_16  -1
    I14_16  BAL14_17  1
    S14_16  COST  -46.5088158756
    S14_16  BAL14_16  -1
    S14_16  DEM14_16  1
    I14_17  COST  1.84364871714
    I14_17  BAL14_17  -1
    I14_17  BAL14_18  1
    S14_17  COST  -30.3938616924
    S14_17  BAL14_17  -1
    S14_17  DEM14_17  1
    I14_18  COST  1.84364871714
    I14_18  BAL14_18  -1
    I14_18  BAL14_19  1
    S14_18  COST  -74.7907849117
    S14_18  BAL14_18  -1
    S14_18  DEM14_18  1
    I14_19  COST  1.84364871714
    I14_19  BAL14_19  -1
    I14_19  BAL14_20  1
    S14_19  COST  -49.8032162193
    S14_19  BAL14_19  -1
    S14_19  DEM14_19  1
    I14_20  COST  1.84364871714
    I14_20  BAL14_20  -1
    I14_20  BAL14_21  1
    S14_20  COST  -72.3263911485
    S14_20  BAL14_20  -1
    S14_20  DEM14_20  1
    I14_21  COST  1.84364871714
    I14_21  BAL14_21  -1
    I14_21  BAL14_22  1
    S14_21  COST  -38.9478592564
    S14_21  BAL14_21  -1
    S14_21  DEM14_21  1
    I14_22  COST  1.84364871714
    I14_22  BAL14_22  -1
    I14_22  BAL14_23  1
    S14_22  COST  -73.1060303905
    S14_22  BAL14_22  -1
    S14_22  DEM14_22  1
    I14_23  COST  1.84364871714
    I14_23  BAL14_23  -1
    S14_23  COST  -34.1080999372
    S14_23  BAL14_23  -1
    S14_23  DEM14_23  1
    I15_0  COST  1.31631587521
    I15_0  BAL15_0  -1
    I15_0  BAL15_1  1
    S15_0  COST  -64.350082748
    S15_0  BAL15_0  -1
    S15_0  DEM15_0  1
    I15_1  COST  1.31631587521
    I15_1  BAL15_1  -1
    I15_1  BAL15_2  1
    S15_1  COST  -68.177321714
    S15_1  BAL15_1  -1
    S15_1  DEM15_1  1
    I15_2  COST  1.31631587521
    I15_2  BAL15_2  -1
    I15_2  BAL15_3  1
    S15_2  COST  -65.6544501012
    S15_2  BAL15_2  -1
    S15_2  DEM15_2  1
    I15_3  COST  1.31631587521
    I15_3  BAL15_3  -1
    I15_3  BAL15_4  1
    S15_3  COST  -49.4506331112
    S15_3  BAL15_3  -1
    S15_3  DEM15_3  1
    I15_4  COST  1.31631587521
    I15_4  BAL15_4  -1
    I15_4  BAL15_5  1
    S15_4  COST  -56.3192433742
    S15_4  BAL15_4  -1
    S15_4  DEM15_4  1
    I15_5  COST  1.31631587521
    I15_5  BAL15_5  -1
    I15_5  BAL15_6  1
    S15_5  COST  -71.8448406107
    S15_5  BAL15_5  -1
    S15_5  DEM15_5  1
    I15_6  COST  1.31631587521
    I15_6  BAL15_6  -1
    I15_6  BAL15_7  1
    S15_6  COST  -37.2742959048
    S15_6  BAL15_6  -1
    S15_6  DEM15_6  1
    I15_7  COST  1.31631587521
    I15_7  BAL15_7  -1
    I15_7  BAL15_8  1
    S15_7  COST  -73.7252915307
    S15_7  BAL15_7  -1
    S15_7  DEM15_7  1
    I15_8  COST  1.31631587521
    I15_8  BAL15_8  -1
    I15_8  BAL15_9  1
    S15_8  COST  -36.9036939533
    S15_8  BAL15_8  -1
    S15_8  DEM15_8  1
    I15_9  COST  1.31631587521
    I15_9  BAL15_9  -1
    I15_9  BAL15_10  1
    S15_9  COST  -35.1853550321
    S15_9  BAL15_9  -1
    S15_9  DEM15_9  1
    I15_10  COST  1.31631587521
    I15_10  BAL15_10  -1
    I15_10  BAL15_11  1
    S15_10  COST  -40.8819619619
    S15_10  BAL15_10  -1
    S15_10  DEM15_10  1
    I15_11  COST  1.31631587521
    I15_11  BAL15_11  -1
    I15_11  BAL15_12  1
    S15_11  COST  -72.6897550172
    S15_11  BAL15_11  -1
    S15_11  DEM15_11  1
    I15_12  COST  1.31631587521
    I15_12  BAL15_12  -1
    I15_12  BAL15_13  1
    S15_12  COST  -68.0842866775
    S15_12  BAL15_12  -1
    S15_12  DEM15_12  1
    I15_13  COST  1.31631587521
    I15_13  BAL15_13  -1
    I15_13  BAL15_14  1
    S15_13  COST  -68.9902786225
    S15_13  BAL15_13  -1
    S15_13  DEM15_13  1
    I15_14  COST  1.31631587521
    I15_14  BAL15_14  -1
    I15_14  BAL15_15  1
    S15_14  COST  -69.768826054
    S15_14  BAL15_14  -1
    S15_14  DEM15_14  1
    I15_15  COST  1.31631587521
    I15_15  BAL15_15  -1
    I15_15  BAL15_16  1
    S15_15  COST  -63.4090551033
    S15_15  BAL15_15  -1
    S15_15  DEM15_15  1
    I15_16  COST  1.31631587521
    I15_16  BAL15_16  -1
    I15_16  BAL15_17  1
    S15_16  COST  -44.6821823972
    S15_16  BAL15_16  -1
    S15_16  DEM15_16  1
    I15_17  COST  1.31631587521
    I15_17  BAL15_17  -1
    I15_17  BAL15_18  1
    S15_17  COST  -64.7682522949
    S15_17  BAL15_17  -1
    S15_17  DEM15_17  1
    I15_18  COST  1.31631587521
    I15_18  BAL15_18  -1
    I15_18  BAL15_19  1
    S15_18  COST  -65.8589393276
    S15_18  BAL15_18  -1
    S15_18  DEM15_18  1
    I15_19  COST  1.31631587521
    I15_19  BAL15_19  -1
    I15_19  BAL15_20  1
    S15_19  COST  -42.1826696743
    S15_19  BAL15_19  -1
    S15_19  DEM15_19  1
    I15_20  COST  1.31631587521
    I15_20  BAL15_20  -1
    I15_20  BAL15_21  1
    S15_20  COST  -42.2579618339
    S15_20  BAL15_20  -1
    S15_20  DEM15_20  1
    I15_21  COST  1.31631587521
    I15_21  BAL15_21  -1
    I15_21  BAL15_22  1
    S15_21  COST  -48.7336165517
    S15_21  BAL15_21  -1
    S15_21  DEM15_21  1
    I15_22  COST  1.31631587521
    I15_22  BAL15_22  -1
    I15_22  BAL15_23  1
    S15_22  COST  -38.5225250457
    S15_22  BAL15_22  -1
    S15_22  DEM15_22  1
    I15_23  COST  1.31631587521
    I15_23  BAL15_23  -1
    S15_23  COST  -38.7735617807
    S15_23  BAL15_23  -1
    S15_23  DEM15_23  1
    I16_0  COST  2.20854186364
    I16_0  BAL16_0  -1
    I16_0  BAL16_1  1
    S16_0  COST  -41.6520548997
    S16_0  BAL16_0  -1
    S16_0  DEM16_0  1
    I16_1  COST  2.20854186364
    I16_1  BAL16_1  -1
    I16_1  BAL16_2  1
    S16_1  COST  -48.9286513463
    S16_1  BAL16_1  -1
    S16_1  DEM16_1  1
    I16_2  COST  2.20854186364
    I16_2  BAL16_2  -1
    I16_2  BAL16_3  1
    S16_2  COST  -60.5306267521
    S16_2  BAL16_2  -1
    S16_2  DEM16_2  1
    I16_3  COST  2.20854186364
    I16_3  BAL16_3  -1
    I16_3  BAL16_4  1
    S16_3  COST  -56.8957773764
    S16_3  BAL16_3  -1
    S16_3  DEM16_3  1
    I16_4  COST  2.20854186364
    I16_4  BAL16_4  -1
    I16_4  BAL16_5  1
    S16_4  COST  -35.1815881525
    S16_4  BAL16_4  -1
    S16_4  DEM16_4  1
    I16_5  COST  2.20854186364
    I16_5  BAL16_5  -1
    I16_5  BAL16_6  1
    S16_5  COST  -52.8468409014
    S16_5  BAL16_5  -1
    S16_5  DEM16_5  1
    I16_6  COST  2.20854186364
    I16_6  BAL16_6  -1
    I16_6  BAL16_7  1
    S16_6  COST  -44.5293665637
    S16_6  BAL16_6  -1
    S16_6  DEM16_6  1
    I16_7  COST  2.20854186364
    I16_7  BAL16_7  -1
    I16_7  BAL16_8  1
    S16_7  COST  -57.354928842
    S16_7  BAL16_7  -1
    S16_7  DEM16_7  1
    I16_8  COST  2.20854186364
    I16_8  BAL16_8  -1
    I16_8  BAL16_9  1
    S16_8  COST  -46.1962551751
    S16_8  BAL16_8  -1
    S16_8  DEM16_8  1
    I16_9  COST  2.20854186364
    I16_9  BAL16_9  -1
    I16_9  BAL16_10  1
    S16_9  COST  -50.9879436469
    S16_9  BAL16_9  -1
    S16_9  DEM16_9  1
    I16_10  COST  2.20854186364
    I16_10  BAL16_10  -1
    I16_10  BAL16_11  1
    S16_10  COST  -71.6877282732
    S16_10  BAL16_10  -1
    S16_10  DEM16_10  1
    I16_11  COST  2.20854186364
    I16_11  BAL16_11  -1
    I16_11  BAL16_12  1
    S16_11  COST  -31.1003468304
    S16_11  BAL16_11  -1
    S16_11  DEM16_11  1
    I16_12  COST  2.20854186364
    I16_12  BAL16_12  -1
    I16_12  BAL16_13  1
    S16_12  COST  -30.7688146678
    S16_12  BAL16_12  -1
    S16_12  DEM16_12  1
    I16_13  COST  2.20854186364
    I16_13  BAL16_13  -1
    I16_13  BAL16_14  1
    S16_13  COST  -68.3477492142
    S16_13  BAL16_13  -1
    S16_13  DEM16_13  1
    I16_14  COST  2.20854186364
    I16_14  BAL16_14  -1
    I16_14  BAL16_15  1
    S16_14  COST  -68.7713684953
    S16_14  BAL16_14  -1
    S16_14  DEM16_14  1
    I16_15  COST  2.20854186364
    I16_15  BAL16_15  -1
    I16_15  BAL16_16  1
    S16_15  COST  -49.6534122528
    S16_15  BAL16_15  -1
    S16_15  DEM16_15  1
    I16_16  COST  2.20854186364
    I16_16  BAL16_16  -1
    I16_16  BAL16_17  1
    S16_16  COST  -55.9308761941
    S16_16  BAL16_16  -1
    S16_16  DEM16_16  1
    I16_17  COST  2.20854186364
    I16_17  BAL16_17  -1
    I16_17  BAL16_18  1
    S16_17  COST  -30.5714434278
    S16_17  BAL16_17  -1
    S16_17  DEM16_17  1
    I16_18  COST  2.20854186364
    I16_18  BAL16_18  -1
    I16_18  BAL16_19  1
    S16_18  COST  -49.1471705349
    S16_18  BAL16_18  -1
    S16_18  DEM16_18  1
    I16_19  COST  2.20854186364
    I16_19  BAL16_19  -1
    I16_19  BAL16_20  1
    S16_19  COST  -38.1554041224
    S16_19  BAL16_19  -1
    S16_19  DEM16_19  1
    I16_20  COST  2.20854186364
    I16_20  BAL16_20  -1
    I16_20  BAL16_21  1
    S16_20  COST  -54.8388273425
    S16_20  BAL16_20  -1
    S16_20  DEM16_20  1
    I16_21  COST  2.20854186364
    I16_21  BAL16_21  -1
    I16_21  BAL16_22  1
    S16_21  COST  -58.0217923744
    S16_21  BAL16_21  -1
    S16_21  DEM16_21  1
    I16_22  COST  2.20854186364
    I16_22  BAL16_22  -1
    I16_22  BAL16_23  1
    S16_22  COST  -38.7436106485
    S16_22  BAL16_22  -1
    S16_22  DEM16_22  1
    I16_23  COST  2.20854186364
    I16_23  BAL16_23  -1
    S16_23  COST  -68.5399870849
    S16_23  BAL16_23  -1
    S16_23  DEM16_23  1
    I17_0  COST  1.64639314874
    I17_0  BAL17_0  -1
    I17_0  BAL17_1  1
    S17_0  COST  -63.1025605584
    S17_0  BAL17_0  -1
    S17_0  DEM17_0  1
    I17_1  COST  1.64639314874
    I17_1  BAL17_1  -1
    I17_1  BAL17_2  1
    S17_1  COST  -59.2225340394
    S17_1  BAL17_1  -1
    S17_1  DEM17_1  1
    I17_2  COST  1.64639314874
    I17_2  BAL17_2  -1
    I17_2  BAL17_3  1
    S17_2  COST  -43.6286955863
    S17_2  BAL17_2  -1
    S17_2  DEM17_2  1
    I17_3  COST  1.64639314874
    I17_3  BAL17_3  -1
    I17_3  BAL17_4  1
    S17_3  COST  -48.1633218814
    S17_3  BAL17_3  -1
    S17_3  DEM17_3  1
    I17_4  COST  1.64639314874
    I17_4  BAL17_4  -1
    I17_4  BAL17_5  1
    S17_4  COST  -66.1711837907
    S17_4  BAL17_4  -1
    S17_4  DEM17_4  1
    I17_5  COST  1.64639314874
    I17_5  BAL17_5  -1
    I17_5  BAL17_6  1
    S17_5  COST  -54.9384860296
    S17_5  BAL17_5  -1
    S17_5  DEM17_5  1
    I17_6  COST  1.64639314874
    I17_6  BAL17_6  -1
    I17_6  BAL17_7  1
    S17_6  COST  -38.3130346933
    S17_6  BAL17_6  -1
    S17_6  DEM17_6  1
    I17_7  COST  1.64639314874
    I17_7  BAL17_7  -1
    I17_7  BAL17_8  1
    S17_7  COST  -53.1689221764
    S17_7  BAL17_7  -1
    S17_7  DEM17_7  1
    I17_8  COST  1.64639314874
    I17_8  BAL17_8  -1
    I17_8  BAL17_9  1
    S17_8  COST  -67.8021011499
    S17_8  BAL17_8  -1
    S17_8  DEM17_8  1
    I17_9  COST  1.64639314874
    I17_9  BAL17_9  -1
    I17_9  BAL17_10  1
    S17_9  COST  -68.6627286763
    S17_9  BAL17_9  -1
    S17_9  DEM17_9  1
    I17_10  COST  1.64639314874
    I17_10  BAL17_10  -1
    I17_10  BAL17_11  1
    S17_10  COST  -73.9681981167
    S17_10  BAL17_10  -1
    S17_10  DEM17_10  1
    I17_11  COST  1.64639314874
    I17_11  BAL17_11  -1
    I17_11  BAL17_12  1
    S17_11  COST  -74.847472521
    S17_11  BAL17_11  -1
    S17_11  DEM17_11  1
    I17_12  COST  1.64639314874
    I17_12  BAL17_12  -1
    I17_12  BAL17_13  1
    S17_12  COST  -41.9428228245
    S17_12  BAL17_12  -1
    S17_12  DEM17_12  1
    I17_13  COST  1.64639314874
    I17_13  BAL17_13  -1
    I17_13  BAL17_14  1
    S17_13  COST  -37.7729817553
    S17_13  BAL17_13  -1
    S17_13  DEM17_13  1
    I17_14  COST  1.64639314874
    I17_14  BAL17_14  -1
    I17_14  BAL17_15  1
    S17_14  COST  -57.7108491504
    S17_14  BAL17_14  -1
    S17_14  DEM17_14  1
    I17_15  COST  1.64639314874
    I17_15  BAL17_15  -1
    I17_15  BAL17_16  1
    S17_15  COST  -34.7893681611
    S17_15  BAL17_15  -1
    S17_15  DEM17_15  1
    I17_16  COST  1.64639314874
    I17_16  BAL17_16  -1
    I17_16  BAL17_17  1
    S17_16  COST  -41.1200587157
    S17_16  BAL17_16  -1
    S17_16  DEM17_16  1
    I17_17  COST  1.64639314874
    I17_17  BAL17_17  -1
    I17_17  BAL17_18  1
    S17_17  COST  -41.2221544906
    S17_17  BAL17_17  -1
    S17_17  DEM17_17  1
    I17_18  COST  1.64639314874
    I17_18  BAL17_18  -1
    I17_18  BAL17_19  1
    S17_18  COST  -43.3177559261
    S17_18  BAL17_18  -1
    S17_18  DEM17_18  1
    I17_19  COST  1.64639314874
    I17_19  BAL17_19  -1
    I17_19  BAL17_20  1
    S17_19  COST  -63.3481398931
    S17_19  BAL17_19  -1
    S17_19  DEM17_19  1
    I17_20  COST  1.64639314874
    I17_20  BAL17_20  -1
    I17_20  BAL17_21  1
    S17_20  COST  -35.0176595682
    S17_20  BAL17_20  -1
    S17_20  DEM17_20  1
    I17_21  COST  1.64639314874
    I17_21  BAL17_21  -1
    I17_21  BAL17_22  1
    S17_21  COST  -69.2117583059
    S17_21  BAL17_21  -1
    S17_21  DEM17_21  1
    I17_22  COST  1.64639314874
    I17_22  BAL17_22  -1
    I17_22  BAL17_23  1
    S17_22  COST  -65.7175999187
    S17_22  BAL17_22  -1
    S17_22  DEM17_22  1
    I17_23  COST  1.64639314874
    I17_23  BAL17_23  -1
    S17_23  COST  -64.5962388444
    S17_23  BAL17_23  -1
    S17_23  DEM17_23  1
RHS
    RHS  BAL0_0  0
    RHS  BAL0_1  0
    RHS  BAL0_2  0
    RHS  BAL0_3  0
    RHS  BAL0_4  0
    RHS  BAL0_5  0
    RHS  BAL0_6  0
    RHS  BAL0_7  0
    RHS  BAL0_8  0
    RHS  BAL0_9  0
    RHS  BAL0_10  0
    RHS  BAL0_11  0
    RHS  BAL0_12  0
    RHS  BAL0_13  0
    RHS  BAL0_14  0
    RHS  BAL0_15  0
    RHS  BAL0_16  0
    RHS  BAL0_17  0
    RHS  BAL0_18  0
    RHS  BAL0_19  0
    RHS  BAL0_20  0
    RHS  BAL0_21  0
    RHS  BAL0_22  0
    RHS  BAL0_23  0
    RHS  DEM0_0  57.5420852061
    RHS  DEM0_1  28.8423220316
    RHS  DEM0_2  48.5642367862
    RHS  DEM0_3  50.2146747212
    RHS  DEM0_4  16.8187746124
    RHS  DEM0_5  58.5197709272
    RHS  DEM0_6  20.0781420467
    RHS  DEM0_7  33.8937162091
    RHS  DEM0_8  59.4515925025
    RHS  DEM0_9  25.5957900607
    RHS  DEM0_10  14.4580981594
    RHS  DEM0_11  54.2261879064
    RHS  DEM0_12  54.8413242677
    RHS  DEM0_13  18.5090557561
    RHS  DEM0_14  18.0985527168
    RHS  DEM0_15  38.0618500234
    RHS  DEM0_16  23.2960763539
    RHS  DEM0_17  31.9075007972
    RHS  DEM0_18  52.3652035301
    RHS  DEM0_19  15.6461570498
    RHS  DEM0_20  24.6704620281
    RHS  DEM0_21  55.2841941046
    RHS  DEM0_22  13.8816746036
    RHS  DEM0_23  46.7147679134
    RHS  BAL1_0  0
    RHS  BAL1_1  0
    RHS  BAL1_2  0
    RHS  BAL1_3  0
    RHS  BAL1_4  0
    RHS  BAL1_5  0
    RHS  BAL1_6  0
    RHS  BAL1_7  0
    RHS  BAL1_8  0
    RHS  BAL1_9  0
    RHS  BAL1_10  0
    RHS  BAL1_11  0
    RHS  BAL1_12  0
    RHS  BAL1_13  0
    RHS  BAL1_14  0
    RHS  BAL1_15  0
    RHS  BAL1_16  0
    RHS  BAL1_17  0
    RHS  BAL1_18  0
    RHS  BAL1_19  0
    RHS  BAL1_20  0
    RHS  BAL1_21  0
    RHS  BAL1_22  0
    RHS  BAL1_23  0
    RHS  DEM1_0  22.897823972
    RHS  DEM1_1  28.2031442563
    RHS  DEM1_2  10.1572203437
    RHS  DEM1_3  26.6737950291
    RHS  DEM1_4  55.7910935409
    RHS  DEM1_5  38.4006576586
    RHS  DEM1_6  53.5790449315
    RHS  DEM1_7  15.7497090386
    RHS  DEM1_8  13.7442684586
    RHS  DEM1_9  56.5793863542
    RHS  DEM1_10  13.9844424789
    RHS  DEM1_11  41.2617767493
    RHS  DEM1_12  58.2127214829
    RHS  DEM1_13  39.8672353088
    RHS  DEM1_14  43.0927973544
    RHS  DEM1_15  46.7212620158
    RHS  DEM1_16  45.012338354
    RHS  DEM1_17  39.4358353365
    RHS  DEM1_18  19.1929576155
    RHS  DEM1_19  57.6758929058
    RHS  DEM1_20  52.6935129449
    RHS  DEM1_21  12.880005499
    RHS  DEM1_22  17.4122994145
    RHS  DEM1_23  31.5576703245
    RHS  BAL2_0  0
    RHS  BAL2_1  0
    RHS  BAL2_2  0
    RHS  BAL2_3  0
    RHS  BAL2_4  0
    RHS  BAL2_5  0
    RHS  BAL2_6  0
    RHS  BAL2_7  0
    RHS  BAL2_8  0
    RHS  BAL2_9  0
    RHS  BAL2_10  0
    RHS  BAL2_11  0
    RHS  BAL2_12  0
    RHS  BAL2_13  0
    RHS  BAL2_14  0
    RHS  BAL2_15  0
    RHS  BAL2_16  0
    RHS  BAL2_17  0
    RHS  BAL2_18  0
    RHS  BAL2_19  0
    RHS  BAL2_20  0
    RHS  BAL2_21  0
    RHS  BAL2_22  0
    RHS  BAL2_23  0
    RHS  DEM2_0  52.3164141362
    RHS  DEM2_1  36.006106969
    RHS  DEM2_2  24.5636716034
    RHS  DEM2_3  24.8207988345
    RHS  DEM2_4  51.3028203225
    RHS  DEM2_5  30.3346119853
    RHS  DEM2_6  41.3894456219
    RHS  DEM2_7  18.4018518722
    RHS  DEM2_8  10.1138993175
    RHS  DEM2_9  41.0691637419
    RHS  DEM2_10  26.6467207932
    RHS  DEM2_11  50.9257541107
    RHS  DEM2_12  55.2985449895
    RHS  DEM2_13  29.0281684066
    RHS  DEM2_14  28.402280963
    RHS  DEM2_15  35.1889928513
    RHS  DEM2_16  25.1045144878
    RHS  DEM2_17  18.9398598043
    RHS  DEM2_18  54.9940806177
    RHS  DEM2_19  48.3543087452
    RHS  DEM2_20  15.694376007
    RHS  DEM2_21  9.62927005525
    RHS  DEM2_22  40.3303723609
    RHS  DEM2_23  14.080798981
    RHS  BAL3_0  0
    RHS  BAL3_1  0
    RHS  BAL3_2  0
    RHS  BAL3_3  0
    RHS  BAL3_4  0
    RHS  BAL3_5  0
    RHS  BAL3_6  0
    RHS  BAL3_7  0
    RHS  BAL3_8  0
    RHS  BAL3_9  0
    RHS  BAL3_10  0
    RHS  BAL3_11  0
    RHS  BAL3_12  0
    RHS  BAL3_13  0
    RHS  BAL3_14  0
    RHS  BAL3_15  0
    RHS  BAL3_16  0
    RHS  BAL3_17  0
    RHS  BAL3_18  0
    RHS  BAL3_19  0
    RHS  BAL3_20  0
    RHS  BAL3_21  0
    RHS  BAL3_22  0
    RHS  BAL3_23  0
    RHS  DEM3_0  18.7684311662
    RHS  DEM3_1  25.9685943494
    RHS  DEM3_2  20.2926325769
    RHS  DEM3_3  33.0052736838
    RHS  DEM3_4  56.5599796323
    RHS  DEM3_5  10.632074442
    RHS  DEM3_6  27.6372210678
    RHS  DEM3_7  18.6327099178
    RHS  DEM3_8  20.2123863477
    RHS  DEM3_9  16.7042118476
    RHS  DEM3_10  43.4849873438
    RHS  DEM3_11  37.8874898173
    RHS  DEM3_12  17.8832398614
    RHS  DEM3_13  45.9516443295
    RHS  DEM3_14  39.4361391885
    RHS  DEM3_15  19.7782439484
    RHS  DEM3_16  14.8397072019
    RHS  DEM3_17  59.4938086865
    RHS  DEM3_18  17.4207361121
    RHS  DEM3_19  18.3620110941
    RHS  DEM3_20  17.907894463
    RHS  DEM3_21  48.7774443236
    RHS  DEM3_22  42.3715925061
    RHS  DEM3_23  20.4714896515
    RHS  BAL4_0  0
    RHS  BAL4_1  0
    RHS  BAL4_2  0
    RHS  BAL4_3  0
    RHS  BAL4_4  0
    RHS  BAL4_5  0
    RHS  BAL4_6  0
    RHS  BAL4_7  0
    RHS  BAL4_8  0
    RHS  BAL4_9  0
    RHS  BAL4_10  0
    RHS  BAL4_11  0
    RHS  BAL4_12  0
    RHS  BAL4_13  0
    RHS  BAL4_14  0
    RHS  BAL4_15  0
    RHS  BAL4_16  0
    RHS  BAL4_17  0
    RHS  BAL4_18  0
    RHS  BAL4_19  0
    RHS  BAL4_20  0
    RHS  BAL4_21  0
    RHS  BAL4_22  0
    RHS  BAL4_23  0
    RHS  DEM4_0  16.8442832874
    RHS  DEM4_1  56.4724506037
    RHS  DEM4_2  55.6988184262
    RHS  DEM4_3  29.710134269
    RHS  DEM4_4  21.0355783291
    RHS  DEM4_5  54.1122711065
    RHS  DEM4_6  27.8785297453
    RHS  DEM4_7  43.1761384923
    RHS  DEM4_8  38.2551985104
    RHS  DEM4_9  41.5719561441
    RHS  DEM4_10  28.3380106145
    RHS  DEM4_11  30.5450058221
    RHS  DEM4_12  58.4861351344
    RHS  DEM4_13  14.1553316188
    RHS  DEM4_14  8.28896489941
    RHS  DEM4_15  52.8009695113
    RHS  DEM4_16  51.4220261298
    RHS  DEM4_17  49.665684234
    RHS  DEM4_18  10.2345426602
    RHS  DEM4_19  21.5874544914
    RHS  DEM4_20  59.6378278618
    RHS  DEM4_21  53.1156290549
    RHS  DEM4_22  8.53887447969
    RHS  DEM4_23  53.1605615318
    RHS  BAL5_0  0
    RHS  BAL5_1  0
    RHS  BAL5_2  0
    RHS  BAL5_3  0
    RHS  BAL5_4  0
    RHS  BAL5_5  0
    RHS  BAL5_6  0
    RHS  BAL5_7  0
    RHS  BAL5_8  0
    RHS  BAL5_9  0
    RHS  BAL5_10  0
    RHS  BAL5_11  0
    RHS  BAL5_12  0
    RHS  BAL5_13  0
    RHS  BAL5_14  0
    RHS  BAL5_15  0
    RHS  BAL5_16  0
    RHS  BAL5_17  0
    RHS  BAL5_18  0
    RHS  BAL5_19  0
    RHS  BAL5_20  0
    RHS  BAL5_21  0
    RHS  BAL5_22  0
    RHS  BAL5_23  0
    RHS  DEM5_0  53.464834362
    RHS  DEM5_1  33.5108037644
    RHS  DEM5_2  40.8357756071
    RHS  DEM5_3  56.3906503518
    RHS  DEM5_4  54.1568900966
    RHS  DEM5_5  55.3621846436
    RHS  DEM5_6  19.5855448209
    RHS  DEM5_7  40.8429985964
    RHS  DEM5_8  48.2638884121
    RHS  DEM5_9  13.3658653668
    RHS  DEM5_10  33.9721980154
    RHS  DEM5_11  43.7482902326
    RHS  DEM5_12  26.4172771826
    RHS  DEM5_13  33.9615643726
    RHS  DEM5_14  45.7355407142
    RHS  DEM5_15  23.6895169549
    RHS  DEM5_16  31.7356416421
    RHS  DEM5_17  16.1452745802
    RHS  DEM5_18  56.1023466492
    RHS  DEM5_19  33.7933067854
    RHS  DEM5_20  38.3592674647
    RHS  DEM5_21  10.9866500708
    RHS  DEM5_22  17.1439412842
    RHS  DEM5_23  26.3041296914
    RHS  BAL6_0  0
    RHS  BAL6_1  0
    RHS  BAL6_2  0
    RHS  BAL6_3  0
    RHS  BAL6_4  0
    RHS  BAL6_5  0
    RHS  BAL6_6  0
    RHS  BAL6_7  0
    RHS  BAL6_8  0
    RHS  BAL6_9  0
    RHS  BAL6_10  0
    RHS  BAL6_11  0
    RHS  BAL6_12  0
    RHS  BAL6_13  0
    RHS  BAL6_14  0
    RHS  BAL6_15  0
    RHS  BAL6_16  0
    RHS  BAL6_17  0
    RHS  BAL6_18  0
    RHS  BAL6_19  0
    RHS  BAL6_20  0
    RHS  BAL6_21  0
    RHS  BAL6_22  0
    RHS  BAL6_23  0
    RHS  DEM6_0  20.2632605223
    RHS  DEM6_1  14.6373868721
    RHS  DEM6_2  29.810643929
    RHS  DEM6_3  19.3554163641
    RHS  DEM6_4  20.7754399739
    RHS  DEM6_5  26.984785193
    RHS  DEM6_6  10.1861662533
    RHS  DEM6_7  26.9163074397
    RHS  DEM6_8  55.5219994747
    RHS  DEM6_9  49.5968450848
    RHS  DEM6_10  36.7483007674
    RHS  DEM6_11  33.247272991
    RHS  DEM6_12  26.1915113559
    RHS  DEM6_13  25.9678960122
    RHS  DEM6_14  41.9047362618
    RHS  DEM6_15  57.3924519209
    RHS  DEM6_16  36.0493216552
    RHS  DEM6_17  32.9014258731
    RHS  DEM6_18  48.7592018212
    RHS  DEM6_19  39.9255346294
    RHS  DEM6_20  56.9584538083
    RHS  DEM6_21  39.4154809476
    RHS  DEM6_22  11.4808735255
    RHS  DEM6_23  19.5871376367
    RHS  BAL7_0  0
    RHS  BAL7_1  0
    RHS  BAL7_2  0
    RHS  BAL7_3  0
    RHS  BAL7_4  0
    RHS  BAL7_5  0
    RHS  BAL7_6  0
    RHS  BAL7_7  0
    RHS  BAL7_8  0
    RHS  BAL7_9  0
    RHS  BAL7_10  0
    RHS  BAL7_11  0
    RHS  BAL7_12  0
    RHS  BAL7_13  0
    RHS  BAL7_14  0
    RHS  BAL7_15  0
    RHS  BAL7_16  0
    RHS  BAL7_17  0
    RHS  BAL7_18  0
    RHS  BAL7_19  0
    RHS  BAL7_20  0
    RHS  BAL7_21  0
    RHS  BAL7_22  0
    RHS  BAL7_23  0
    RHS  DEM7_0  18.7716836196
    RHS  DEM7_1  17.7821261062
    RHS  DEM7_2  50.3571045648
    RHS  DEM7_3  36.8135821505
    RHS  DEM7_4  31.7320615762
    RHS  DEM7_5  14.426584774
    RHS  DEM7_6  58.2316315217
    RHS  DEM7_7  8.98685848433
    RHS  DEM7_8  14.5638992726
    RHS  DEM7_9  58.5819292166
    RHS  DEM7_10  44.2328328392
    RHS  DEM7_11  33.3143106811
    RHS  DEM7_12  53.9335019109
    RHS  DEM7_13  33.354958184
    RHS  DEM7_14  15.3133591707
    RHS  DEM7_15  27.0779874417
    RHS  DEM7_16  48.4535127406
    RHS  DEM7_17  9.07446258914
    RHS  DEM7_18  18.8818236113
    RHS  DEM7_19  38.3042072916
    RHS  DEM7_20  45.2314499976
    RHS  DEM7_21  55.3555734577
    RHS  DEM7_22  17.7991537868
    RHS  DEM7_23  23.1414498747
    RHS  BAL8_0  0
    RHS  BAL8_1  0
    RHS  BAL8_2  0
    RHS  BAL8_3  0
    RHS  BAL8_4  0
    RHS  BAL8_5  0
    RHS  BAL8_6  0
    RHS  BAL8_7  0
    RHS  BAL8_8  0
    RHS  BAL8_9  0
    RHS  BAL8_10  0
    RHS  BAL8_11  0
    RHS  BAL8_12  0
    RHS  BAL8_13  0
    RHS  BAL8_14  0
    RHS  BAL8_15  0
    RHS  BAL8_16  0
    RHS  BAL8_17  0
    RHS  BAL8_18  0
    RHS  BAL8_19  0
    RHS  BAL8_20  0
    RHS  BAL8_21  0
    RHS  BAL8_22  0
    RHS  BAL8_23  0
    RHS  DEM8_0  20.6695373546
    RHS  DEM8_1  31.6391165261
    RHS  DEM8_2  42.4913937194
    RHS  DEM8_3  50.8661025662
    RHS  DEM8_4  20.1332504309
    RHS  DEM8_5  59.6835393356
    RHS  DEM8_6  56.5599129729
    RHS  DEM8_7  35.7806757155
    RHS  DEM8_8  21.4999045823
    RHS  DEM8_9  48.0259253794
    RHS  DEM8_10  58.7078038622
    RHS  DEM8_11  18.3443278866
    RHS  DEM8_12  16.0158743936
    RHS  DEM8_13  49.8816345119
    RHS  DEM8_14  45.7846611738
    RHS  DEM8_15  43.7885303149
    RHS  DEM8_16  42.2431332791
    RHS  DEM8_17  42.1172064903
    RHS  DEM8_18  18.612344677
    RHS  DEM8_19  58.8463112497
    RHS  DEM8_20  54.5421032964
    RHS  DEM8_21  23.2238024545
    RHS  DEM8_22  13.7441201451
    RHS  DEM8_23  10.3325259997
    RHS  BAL9_0  0
    RHS  BAL9_1  0
    RHS  BAL9_2  0
    RHS  BAL9_3  0
    RHS  BAL9_4  0
    RHS  BAL9_5  0
    RHS  BAL9_6  0
    RHS  BAL9_7  0
    RHS  BAL9_8  0
    RHS  BAL9_9  0
    RHS  BAL9_10  0
    RHS  BAL9_11  0
    RHS  BAL9_12  0
    RHS  BAL9_13  0
    RHS  BAL9_14  0
    RHS  BAL9_15  0
    RHS  BAL9_16  0
    RHS  BAL9_17  0
    RHS  BAL9_18  0
    RHS  BAL9_19  0
    RHS  BAL9_20  0
    RHS  BAL9_21  0
    RHS  BAL9_22  0
    RHS  BAL9_23  0
    RHS  DEM9_0  40.3630431313
    RHS  DEM9_1  18.2867656336
    RHS  DEM9_2  40.9775464955
    RHS  DEM9_3  9.51000428772
    RHS  DEM9_4  57.7617998275
    RHS  DEM9_5  37.7237699734
    RHS  DEM9_6  26.5607459389
    RHS  DEM9_7  41.6616679419
    RHS  DEM9_8  23.6385682566
    RHS  DEM9_9  38.9742171835
    RHS  DEM9_10  56.8055929494
    RHS  DEM9_11  49.0254951058
    RHS  DEM9_12  27.4201042507
    RHS  DEM9_13  20.9652343528
    RHS  DEM9_14  33.2130724773
    RHS  DEM9_15  17.6660321809
    RHS  DEM9_16  10.3090017673
    RHS  DEM9_17  40.8979755972
    RHS  DEM9_18  29.959080466
    RHS  DEM9_19  56.1060580256
    RHS  DEM9_20  13.7163191264
    RHS  DEM9_21  14.8764841813
    RHS  DEM9_22  55.5949483712
    RHS  DEM9_23  23.2566820466
    RHS  BAL10_0  0
    RHS  BAL10_1  0
    RHS  BAL10_2  0
    RHS  BAL10_3  0
    RHS  BAL10_4  0
    RHS  BAL10_5  0
    RHS  BAL10_6  0
    RHS  BAL10_7  0
    RHS  BAL10_8  0
    RHS  BAL10_9  0
    RHS  BAL10_10  0
    RHS  BAL10_11  0
    RHS  BAL10_12  0
    RHS  BAL10_13  0
    RHS  BAL10_14  0
    RHS  BAL10_15  0
    RHS  BAL10_16  0
    RHS  BAL10_17  0
    RHS  BAL10_18  0
    RHS  BAL10_19  0
    RHS  BAL10_20  0
    RHS  BAL10_21  0
    RHS  BAL10_22  0
    RHS  BAL10_23  0
    RHS  DEM10_0  49.0395530185
    RHS  DEM10_1  36.9547703907
    RHS  DEM10_2  11.0162853963
    RHS  DEM10_3  47.6349345773
    RHS  DEM10_4  28.1613460753
    RHS  DEM10_5  31.0683081191
    RHS  DEM10_6  55.4963110696
    RHS  DEM10_7  23.9576599162
    RHS  DEM10_8  39.9885323852
    RHS  DEM10_9  27.909180551
    RHS  DEM10_10  53.4222833426
    RHS  DEM10_11  40.0775963387
    RHS  DEM10_12  52.3728347229
    RHS  DEM10_13  44.0550468424
    RHS  DEM10_14  56.2796081428
    RHS  DEM10_15  9.69255028646
    RHS  DEM10_16  58.0991724973
    RHS  DEM10_17  17.4602506862
    RHS  DEM10_18  9.52211718405
    RHS  DEM10_19  36.4222174362
    RHS  DEM10_20  48.9991974622
    RHS  DEM10_21  33.2980462851
    RHS  DEM10_22  41.6007756087
    RHS  DEM10_23  9.81239997407
    RHS  BAL11_0  0
    RHS  BAL11_1  0
    RHS  BAL11_2  0
    RHS  BAL11_3  0
    RHS  BAL11_4  0
    RHS  BAL11_5  0
    RHS  BAL11_6  0
    RHS  BAL11_7  0
    RHS  BAL11_8  0
    RHS  BAL11_9  0
    RHS  BAL11_10  0
    RHS  BAL11_11  0
    RHS  BAL11_12  0
    RHS  BAL11_13  0
    RHS  BAL11_14  0
    RHS  BAL11_15  0
    RHS  BAL11_16  0
    RHS  BAL11_17  0
    RHS  BAL11_18  0
    RHS  BAL11_19  0
    RHS  BAL11_20  0
    RHS  BAL11_21  0
    RHS  BAL11_22  0
    RHS  BAL11_23  0
    RHS  DEM11_0  52.3497029185
    RHS  DEM11_1  26.0891715274
    RHS  DEM11_2  57.2231197964
    RHS  DEM11_3  41.8541481713
    RHS  DEM11_4  26.4993921231
    RHS  DEM11_5  27.6657103402
    RHS  DEM11_6  56.3299928559
    RHS  DEM11_7  34.5159410424
    RHS  DEM11_8  49.6023407904
    RHS  DEM11_9  14.508816214
    RHS  DEM11_10  52.6646547198
    RHS  DEM11_11  46.6402388019
    RHS  DEM11_12  17.4399302664
    RHS  DEM11_13  20.4961112414
    RHS  DEM11_14  57.7184322049
    RHS  DEM11_15  49.2727705361
    RHS  DEM11_16  15.6055937394
    RHS  DEM11_17  54.2347596995
    RHS  DEM11_18  28.2753400182
    RHS  DEM11_19  38.4687886786
    RHS  DEM11_20  47.7040858332
    RHS  DEM11_21  57.6822823122
    RHS  DEM11_22  38.4411492929
    RHS  DEM11_23  44.4303709905
    RHS  BAL12_0  0
    RHS  BAL12_1  0
    RHS  BAL12_2  0
    RHS  BAL12_3  0
    RHS  BAL12_4  0
    RHS  BAL12_5  0
    RHS  BAL12_6  0
    RHS  BAL12_7  0
    RHS  BAL12_8  0
    RHS  BAL12_9  0
    RHS  BAL12_10  0
    RHS  BAL12_11  0
    RHS  BAL12_12  0
    RHS  BAL12_13  0
    RHS  BAL12_14  0
    RHS  BAL12_15  0
    RHS  BAL12_16  0
    RHS  BAL12_17  0
    RHS  BAL12_18  0
    RHS  BAL12_19  0
    RHS  BAL12_20  0
    RHS  BAL12_21  0
    RHS  BAL12_22  0
    RHS  BAL12_23  0
    RHS  DEM12_0  14.0491981713
    RHS  DEM12_1  22.3370786956
    RHS  DEM12_2  17.7182178509
    RHS  DEM12_3  31.5103838983
    RHS  DEM12_4  44.218361369
    RHS  DEM12_5  46.7829733147
    RHS  DEM12_6  12.8885450985
    RHS  DEM12_7  16.5110491668
    RHS  DEM12_8  46.7172933685
    RHS  DEM12_9  57.2570637664
    RHS  DEM12_10  34.1003297941
    RHS  DEM12_11  44.9953153592
    RHS  DEM12_12  24.5933509641
    RHS  DEM12_13  52.6962102003
    RHS  DEM12_14  55.1859905673
    RHS  DEM12_15  42.1748458468
    RHS  DEM12_16  19.3463207547
    RHS  DEM12_17  27.6900656372
    RHS  DEM12_18  32.9937528695
    RHS  DEM12_19  41.5303585348
    RHS  DEM12_20  40.2835882469
    RHS  DEM12_21  20.5761434264
    RHS  DEM12_22  46.9740152825
    RHS  DEM12_23  57.6160396568
    RHS  BAL13_0  0
    RHS  BAL13_1  0
    RHS  BAL13_2  0
    RHS  BAL13_3  0
    RHS  BAL13_4  0
    RHS  BAL13_5  0
    RHS  BAL13_6  0
    RHS  BAL13_7  0
    RHS  BAL13_8  0
    RHS  BAL13_9  0
    RHS  BAL13_10  0
    RHS  BAL13_11  0
    RHS  BAL13_12  0
    RHS  BAL13_13  0
    RHS  BAL13_14  0
    RHS  BAL13_15  0
    RHS  BAL13_16  0
    RHS  BAL13_17  0
    RHS  BAL13_18  0
    RHS  BAL13_19  0
    RHS  BAL13_20  0
    RHS  BAL13_21  0
    RHS  BAL13_22  0
    RHS  BAL13_23  0
    RHS  DEM13_0  39.2116829574
    RHS  DEM13_1  39.3291427155
    RHS  DEM13_2  23.3698038275
    RHS  DEM13_3  36.1476428211
    RHS  DEM13_4  27.6149375682
    RHS  DEM13_5  44.4202781025
    RHS  DEM13_6  18.2788170485
    RHS  DEM13_7  32.486755809
    RHS  DEM13_8  59.9031374113
    RHS  DEM13_9  13.5089452557
    RHS  DEM13_10  48.5400834635
    RHS  DEM13_11  32.4415219507
    RHS  DEM13_12  26.0461388032
    RHS  DEM13_13  51.2526997838
    RHS  DEM13_14  39.3447596592
    RHS  DEM13_15  24.6933085214
    RHS  DEM13_16  46.5445931584
    RHS  DEM13_17  27.4095516994
    RHS  DEM13_18  46.4456208915
    RHS  DEM13_19  58.059216721
    RHS  DEM13_20  31.3622540462
    RHS  DEM13_21  19.0368549677
    RHS  DEM13_22  42.7993266006
    RHS  DEM13_23  44.2160465193
    RHS  BAL14_0  0
    RHS  BAL14_1  0
    RHS  BAL14_2  0
    RHS  BAL14_3  0
    RHS  BAL14_4  0
    RHS  BAL14_5  0
    RHS  BAL14_6  0
    RHS  BAL14_7  0
    RHS  BAL14_8  0
    RHS  BAL14_9  0
    RHS  BAL14_10  0
    RHS  BAL14_11  0
    RHS  BAL14_12  0
    RHS  BAL14_13  0
    RHS  BAL14_14  0
    RHS  BAL14_15  0
    RHS  BAL14_16  0
    RHS  BAL14_17  0
    RHS  BAL14_18  0
    RHS  BAL14_19  0
    RHS  BAL14_20  0
    RHS  BAL14_21  0
    RHS  BAL14_22  0
    RHS  BAL14_23  0
    RHS  DEM14_0  31.6832661967
    RHS  DEM14_1  32.9046596875
    RHS  DEM14_2  56.673525424
    RHS  DEM14_3  18.6788406313
    RHS  DEM14_4  13.4697656218
    RHS  DEM14_5  38.8983271614
    RHS  DEM14_6  20.5844652657
    RHS  DEM14_7  22.555360424
    RHS  DEM14_8  50.233868723
    RHS  DEM14_9  19.8412408234
    RHS  DEM14_10  47.2817334889
    RHS  DEM14_11  16.6715308976
    RHS  DEM14_12  35.2949945626
    RHS  DEM14_13  17.9818328706
    RHS  DEM14_14  39.8184446301
    RHS  DEM14_15  40.2285913217
    RHS  DEM14_16  14.2093890712
    RHS  DEM14_17  27.4675989569
    RHS  DEM14_18  53.676132353
    RHS  DEM14_19  41.1222385553
    RHS  DEM14_20  38.6236581854
    RHS  DEM14_21  18.6345795275
    RHS  DEM14_22  37.1427180804
    RHS  DEM14_23  33.5142119807
    RHS  BAL15_0  0
    RHS  BAL15_1  0
    RHS  BAL15_2  0
    RHS  BAL15_3  0
    RHS  BAL15_4  0
    RHS  BAL15_5  0
    RHS  BAL15_6  0
    RHS  BAL15_7  0
    RHS  BAL15_8  0
    RHS  BAL15_9  0
    RHS  BAL15_10  0
    RHS  BAL15_11  0
    RHS  BAL15_12  0
    RHS  BAL15_13  0
    RHS  BAL15_14  0
    RHS  BAL15_15  0
    RHS  BAL15_16  0
    RHS  BAL15_17  0
    RHS  BAL15_18  0
    RHS  BAL15_19  0
    RHS  BAL15_20  0
    RHS  BAL15_21  0
    RHS  BAL15_22  0
    RHS  BAL15_23  0
    RHS  DEM15_0  30.5176724492
    RHS  DEM15_1  22.072495315
    RHS  DEM15_2  15.8686912049
    RHS  DEM15_3  59.1847409792
    RHS  DEM15_4  25.6031919106
    RHS  DEM15_5  27.0355331744
    RHS  DEM15_6  32.8646192232
    RHS  DEM15_7  57.1499341851
    RHS  DEM15_8  17.3152978065
    RHS  DEM15_9  46.0474889487
    RHS  DEM15_10  58.298286191
    RHS  DEM15_11  26.3506973883
    RHS  DEM15_12  27.2638903537
    RHS  DEM15_13  57.6228686608
    RHS  DEM15_14  26.5463168907
    RHS  DEM15_15  58.1477646607
    RHS  DEM15_16  58.3783938553
    RHS  DEM15_17  8.81872158853
    RHS  DEM15_18  12.4213870211
    RHS  DEM15_19  28.8442055946
    RHS  DEM15_20  17.1597121092
    RHS  DEM15_21  39.8036937951
    RHS  DEM15_22  52.00907472
    RHS  DEM15_23  49.3936305914
    RHS  BAL16_0  0
    RHS  BAL16_1  0
    RHS  BAL16_2  0
    RHS  BAL16_3  0
    RHS  BAL16_4  0
    RHS  BAL16_5  0
    RHS  BAL16_6  0
    RHS  BAL16_7  0
    RHS  BAL16_8  0
    RHS  BAL16_9  0
    RHS  BAL16_10  0
    RHS  BAL16_11  0
    RHS  BAL16_12  0
    RHS  BAL16_13  0
    RHS  BAL16_14  0
    RHS  BAL16_15  0
    RHS  BAL16_16  0
    RHS  BAL16_17  0
    RHS  BAL16_18  0
    RHS  BAL16_19  0
    RHS  BAL16_20  0
    RHS  BAL16_21  0
    RHS  BAL16_22  0
    RHS  BAL16_23  0
    RHS  DEM16_0  59.9575572222
    RHS  DEM16_1  19.0864551223
    RHS  DEM16_2  39.4593823739
    RHS  DEM16_3  50.5071571952
    RHS  DEM16_4  34.0004594122
    RHS  DEM16_5  11.4396600466
    RHS  DEM16_6  33.4987303592
    RHS  DEM16_7  8.66923671462
    RHS  DEM16_8  55.5360910117
    RHS  DEM16_9  28.1681958912
    RHS  DEM16_10  28.4885503075
    RHS  DEM16_11  58.1661188908
    RHS  DEM16_12  46.7596494816
    RHS  DEM16_13  49.9515307567
    RHS  DEM16_14  32.2365426377
    RHS  DEM16_15  50.7893264732
    RHS  DEM16_16  24.2643127079
    RHS  DEM16_17  47.7160438971
    RHS  DEM16_18  28.5034590975
    RHS  DEM16_19  32.5049894932
    RHS  DEM16_20  8.8372443555
    RHS  DEM16_21  54.5004075935
    RHS  DEM16_22  58.852519091
    RHS  DEM16_23  46.9857221102
    RHS  BAL17_0  0
    RHS  BAL17_1  0
    RHS  BAL17_2  0
    RHS  BAL17_3  0
    RHS  BAL17_4  0
    RHS  BAL17_5  0
    RHS  BAL17_6  0
    RHS  BAL17_7  0
    RHS  BAL17_8  0
    RHS  BAL17_9  0
    RHS  BAL17_10  0
    RHS  BAL17_11  0
    RHS  BAL17_12  0
    RHS  BAL17_13  0
    RHS  BAL17_14  0
    RHS  BAL17_15  0
    RHS  BAL17_16  0
    RHS  BAL17_17  0
    RHS  BAL17_18  0
    RHS  BAL17_19  0
    RHS  BAL17_20  0
    RHS  BAL17_21  0
    RHS  BAL17_22  0
    RHS  BAL17_23  0
    RHS  DEM17_0  39.0350419939
    RHS  DEM17_1  46.6861687657
    RHS  DEM17_2  41.7534535931
    RHS  DEM17_3  38.368108338
    RHS  DEM17_4  16.8999150252
    RHS  DEM17_5  51.4205624842
    RHS  DEM17_6  54.7540925515
    RHS  DEM17_7  28.6290357843
    RHS  DEM17_8  26.9282621125
    RHS  DEM17_9  12.5373088012
    RHS  DEM17_10  28.5754943155
    RHS  DEM17_11  48.6551398349
    RHS  DEM17_12  33.0454126019
    RHS  DEM17_13  10.7088484264
    RHS  DEM17_14  21.4859791089
    RHS  DEM17_15  37.2115768119
    RHS  DEM17_16  48.1179962214
    RHS  DEM17_17  16.9283513501
    RHS  DEM17_18  54.6252573458
    RHS  DEM17_19  40.5519013954
    RHS  DEM17_20  26.3719931294
    RHS  DEM17_21  34.656416653
    RHS  DEM17_22  47.7314770188
    RHS  DEM17_23  30.4199325756
    RHS  CAP0  2914.70015975
    RHS  CAP1  2914.70015975
    RHS  CAP2  2914.70015975
    RHS  CAP3  2914.70015975
    RHS  CAP4  2914.70015975
    RHS  CAP5  2914.70015975
    RHS  CAP6  2914.70015975
    RHS  CAP7  2914.70015975
    RHS  CAP8  2914.70015975
    RHS  CAP9  2914.70015975
    RHS  CAP10  2914.70015975
    RHS  CAP11  2914.70015975
    RHS  CAP12  2914.70015975
    RHS  CAP13  2914.70015975
    RHS  CAP14  2914.70015975
    RHS  CAP15  2914.70015975
    RHS  CAP16  2914.70015975
    RHS  CAP17  2914.70015975
    RHS  CAP18  2914.70015975
    RHS  CAP19  2914.70015975
    RHS  CAP20  2914.70015975
    RHS  CAP21  2914.70015975
    RHS  CAP22  2914.70015975
    RHS  CAP23  2914.70015975
RANGES
BOUNDS
 UP BND  R0_0  113.639147453
 UP BND  R0_1  113.639147453
 UP BND  R0_2  113.639147453
 UP BND  R0_3  113.639147453
 UP BND  R0_4  113.639147453
 UP BND  R0_5  113.639147453
 UP BND  R0_6  113.639147453
 UP BND  R0_7  113.639147453
 UP BND  R0_8  113.639147453
 UP BND  R0_9  113.639147453
 UP BND  R0_10  113.639147453
 UP BND  R0_11  113.639147453
 UP BND  R0_12  113.639147453
 UP BND  R0_13  113.639147453
 UP BND  R0_14  113.639147453
 UP BND  R0_15  113.639147453
 UP BND  R0_16  113.639147453
 UP BND  R0_17  113.639147453
 UP BND  R0_18  113.639147453
 UP BND  R0_19  113.639147453
 UP BND  R0_20  113.639147453
 UP BND  R0_21  113.639147453
 UP BND  R0_22  113.639147453
 UP BND  R0_23  113.639147453
 UP BND  R1_0  132.593971005
 UP BND  R1_1  132.593971005
 UP BND  R1_2  132.593971005
 UP BND  R1_3  132.593971005
 UP BND  R1_4  132.593971005
 UP BND  R1_5  132.593971005
 UP BND  R1_6  132.593971005
 UP BND  R1_7  132.593971005
 UP BND  R1_8  132.593971005
 UP BND  R1_9  132.593971005
 UP BND  R1_10  132.593971005
 UP BND  R1_11  132.593971005
 UP BND  R1_12  132.593971005
 UP BND  R1_13  132.593971005
 UP BND  R1_14  132.593971005
 UP BND  R1_15  132.593971005
 UP BND  R1_16  132.593971005
 UP BND  R1_17  132.593971005
 UP BND  R1_18  132.593971005
 UP BND  R1_19  132.593971005
 UP BND  R1_20  132.593971005
 UP BND  R1_21  132.593971005
 UP BND  R1_22  132.593971005
 UP BND  R1_23  132.593971005
 UP BND  R2_0  215.914049868
 UP BND  R2_1  215.914049868
 UP BND  R2_2  215.914049868
 UP BND  R2_3  215.914049868
 UP BND  R2_4  215.914049868
 UP BND  R2_5  215.914049868
 UP BND  R2_6  215.914049868
 UP BND  R2_7  215.914049868
 UP BND  R2_8  215.914049868
 UP BND  R2_9  215.914049868
 UP BND  R2_10  215.914049868
 UP BND  R2_11  215.914049868
 UP BND  R2_12  215.914049868
 UP BND  R2_13  215.914049868
 UP BND  R2_14  215.914049868
 UP BND  R2_15  215.914049868
 UP BND  R2_16  215.914049868
 UP BND  R2_17  215.914049868
 UP BND  R2_18  215.914049868
 UP BND  R2_19  215.914049868
 UP BND  R2_20  215.914049868
 UP BND  R2_21  215.914049868
 UP BND  R2_22  215.914049868
 UP BND  R2_23  215.914049868
 UP BND  R3_0  200.73151097
 UP BND  R3_1  200.73151097
 UP BND  R3_2  200.73151097
 UP BND  R3_3  200.73151097
 UP BND  R3_4  200.73151097
 UP BND  R3_5  200.73151097
 UP BND  R3_6  200.73151097
 UP BND  R3_7  200.73151097
 UP BND  R3_8  200.73151097
 UP BND  R3_9  200.73151097
 UP BND  R3_10  200.73151097
 UP BND  R3_11  200.73151097
 UP BND  R3_12  200.73151097
 UP BND  R3_13  200.73151097
 UP BND  R3_14  200.73151097
 UP BND  R3_15  200.73151097
 UP BND  R3_16  200.73151097
 UP BND  R3_17  200.73151097
 UP BND  R3_18  200.73151097
 UP BND  R3_19  200.73151097
 UP BND  R3_20  200.73151097
 UP BND  R3_21  200.73151097
 UP BND  R3_22  200.73151097
 UP BND  R3_23  200.73151097
 UP BND  R4_0  93.4531474133
 UP BND  R4_1  93.4531474133
 UP BND  R4_2  93.4531474133
 UP BND  R4_3  93.4531474133
 UP BND  R4_4  93.4531474133
 UP BND  R4_5  93.4531474133
 UP BND  R4_6  93.4531474133
 UP BND  R4_7  93.4531474133
 UP BND  R4_8  93.4531474133
 UP BND  R4_9  93.4531474133
 UP BND  R4_10  93.4531474133
 UP BND  R4_11  93.4531474133
 UP BND  R4_12  93.4531474133
 UP BND  R4_13  93.4531474133
 UP BND  R4_14  93.4531474133
 UP BND  R4_15  93.4531474133
 UP BND  R4_16  93.4531474133
 UP BND  R4_17  93.4531474133
 UP BND  R4_18  93.4531474133
 UP BND  R4_19  93.4531474133
 UP BND  R4_20  93.4531474133
 UP BND  R4_21  93.4531474133
 UP BND  R4_22  93.4531474133
 UP BND  R4_23  93.4531474133
 UP BND  R5_0  252.914835634
 UP BND  R5_1  252.914835634
 UP BND  R5_2  252.914835634
 UP BND  R5_3  252.914835634
 UP BND  R5_4  252.914835634
 UP BND  R5_5  252.914835634
 UP BND  R5_6  252.914835634
 UP BND  R5_7  252.914835634
 UP BND  R5_8  252.914835634
 UP BND  R5_9  252.914835634
 UP BND  R5_10  252.914835634
 UP BND  R5_11  252.914835634
 UP BND  R5_12  252.914835634
 UP BND  R5_13  252.914835634
 UP BND  R5_14  252.914835634
 UP BND  R5_15  252.914835634
 UP BND  R5_16  252.914835634
 UP BND  R5_17  252.914835634
 UP BND  R5_18  252.914835634
 UP BND  R5_19  252.914835634
 UP BND  R5_20  252.914835634
 UP BND  R5_21  252.914835634
 UP BND  R5_22  252.914835634
 UP BND  R5_23  252.914835634
 UP BND  R6_0  187.164954795
 UP BND  R6_1  187.164954795
 UP BND  R6_2  187.164954795
 UP BND  R6_3  187.164954795
 UP BND  R6_4  187.164954795
 UP BND  R6_5  187.164954795
 UP BND  R6_6  187.164954795
 UP BND  R6_7  187.164954795
 UP BND  R6_8  187.164954795
 UP BND  R6_9  187.164954795
 UP BND  R6_10  187.164954795
 UP BND  R6_11  187.164954795
 UP BND  R6_12  187.164954795
 UP BND  R6_13  187.164954795
 UP BND  R6_14  187.164954795
 UP BND  R6_15  187.164954795
 UP BND  R6_16  187.164954795
 UP BND  R6_17  187.164954795
 UP BND  R6_18  187.164954795
 UP BND  R6_19  187.164954795
 UP BND  R6_20  187.164954795
 UP BND  R6_21  187.164954795
 UP BND  R6_22  187.164954795
 UP BND  R6_23  187.164954795
 UP BND  R7_0  156.950311876
 UP BND  R7_1  156.950311876
 UP BND  R7_2  156.950311876
 UP BND  R7_3  156.950311876
 UP BND  R7_4  156.950311876
 UP BND  R7_5  156.950311876
 UP BND  R7_6  156.950311876
 UP BND  R7_7  156.950311876
 UP BND  R7_8  156.950311876
 UP BND  R7_9  156.950311876
 UP BND  R7_10  156.950311876
 UP BND  R7_11  156.950311876
 UP BND  R7_12  156.950311876
 UP BND  R7_13  156.950311876
 UP BND  R7_14  156.950311876
 UP BND  R7_15  156.950311876
 UP BND  R7_16  156.950311876
 UP BND  R7_17  156.950311876
 UP BND  R7_18  156.950311876
 UP BND  R7_19  156.950311876
 UP BND  R7_20  156.950311876
 UP BND  R7_21  156.950311876
 UP BND  R7_22  156.950311876
 UP BND  R7_23  156.950311876
 UP BND  R8_0  124.013983773
 UP BND  R8_1  124.013983773
 UP BND  R8_2  124.013983773
 UP BND  R8_3  124.013983773
 UP BND  R8_4  124.013983773
 UP BND  R8_5  124.013983773
 UP BND  R8_6  124.013983773
 UP BND  R8_7  124.013983773
 UP BND  R8_8  124.013983773
 UP BND  R8_9  124.013983773
 UP BND  R8_10  124.013983773
 UP BND  R8_11  124.013983773
 UP BND  R8_12  124.013983773
 UP BND  R8_13  124.013983773
 UP BND  R8_14  124.013983773
 UP BND  R8_15  124.013983773
 UP BND  R8_16  124.013983773
 UP BND  R8_17  124.013983773
 UP BND  R8_18  124.013983773
 UP BND  R8_19  124.013983773
 UP BND  R8_20  124.013983773
 UP BND  R8_21  124.013983773
 UP BND  R8_22  124.013983773
 UP BND  R8_23  124.013983773
 UP BND  R9_0  142.321446253
 UP BND  R9_1  142.321446253
 UP BND  R9_2  142.321446253
 UP BND  R9_3  142.321446253
 UP BND  R9_4  142.321446253
 UP BND  R9_5  142.321446253
 UP BND  R9_6  142.321446253
 UP BND  R9_7  142.321446253
 UP BND  R9_8  142.321446253
 UP BND  R9_9  142.321446253
 UP BND  R9_10  142.321446253
 UP BND  R9_11  142.321446253
 UP BND  R9_12  142.321446253
 UP BND  R9_13  142.321446253
 UP BND  R9_14  142.321446253
 UP BND  R9_15  142.321446253
 UP BND  R9_16  142.321446253
 UP BND  R9_17  142.321446253
 UP BND  R9_18  142.321446253
 UP BND  R9_19  142.321446253
 UP BND  R9_20  142.321446253
 UP BND  R9_21  142.321446253
 UP BND  R9_22  142.321446253
 UP BND  R9_23  142.321446253
 UP BND  R10_0  188.031321461
 UP BND  R10_1  188.031321461
 UP BND  R10_2  188.031321461
 UP BND  R10_3  188.031321461
 UP BND  R10_4  188.031321461
 UP BND  R10_5  188.031321461
 UP BND  R10_6  188.031321461
 UP BND  R10_7  188.031321461
 UP BND  R10_8  188.031321461
 UP BND  R10_9  188.031321461
 UP BND  R10_10  188.031321461
 UP BND  R10_11  188.031321461
 UP BND  R10_12  188.031321461
 UP BND  R10_13  188.031321461
 UP BND  R10_14  188.031321461
 UP BND  R10_15  188.031321461
 UP BND  R10_16  188.031321461
 UP BND  R10_17  188.031321461
 UP BND  R10_18  188.031321461
 UP BND  R10_19  188.031321461
 UP BND  R10_20  188.031321461
 UP BND  R10_21  188.031321461
 UP BND  R10_22  188.031321461
 UP BND  R10_23  188.031321461
 UP BND  R11_0  168.836092016
 UP BND  R11_1  168.836092016
 UP BND  R11_2  168.836092016
 UP BND  R11_3  168.836092016
 UP BND  R11_4  168.836092016
 UP BND  R11_5  168.836092016
 UP BND  R11_6  168.836092016
 UP BND  R11_7  168.836092016
 UP BND  R11_8  168.836092016
 UP BND  R11_9  168.836092016
 UP BND  R11_10  168.836092016
 UP BND  R11_11  168.836092016
 UP BND  R11_12  168.836092016
 UP BND  R11_13  168.836092016
 UP BND  R11_14  168.836092016
 UP BND  R11_15  168.836092016
 UP BND  R11_16  168.836092016
 UP BND  R11_17  168.836092016
 UP BND  R11_18  168.836092016
 UP BND  R11_19  168.836092016
 UP BND  R11_20  168.836092016
 UP BND  R11_21  168.836092016
 UP BND  R11_22  168.836092016
 UP BND  R11_23  168.836092016
 UP BND  R12_0  68.7380779129
 UP BND  R12_1  68.7380779129
 UP BND  R12_2  68.7380779129
 UP BND  R12_3  68.7380779129
 UP BND  R12_4  68.7380779129
 UP BND  R12_5  68.7380779129
 UP BND  R12_6  68.7380779129
 UP BND  R12_7  68.7380779129
 UP BND  R12_8  68.7380779129
 UP BND  R12_9  68.7380779129
 UP BND  R12_10  68.7380779129
 UP BND  R12_11  68.7380779129
 UP BND  R12_12  68.7380779129
 UP BND  R12_13  68.7380779129
 UP BND  R12_14  68.7380779129
 UP BND  R12_15  68.7380779129
 UP BND  R12_16  68.7380779129
 UP BND  R12_17  68.7380779129
 UP BND  R12_18  68.7380779129
 UP BND  R12_19  68.7380779129
 UP BND  R12_20  68.7380779129
 UP BND  R12_21  68.7380779129
 UP BND  R12_22  68.7380779129
 UP BND  R12_23  68.7380779129
 UP BND  R13_0  90.6544072554
 UP BND  R13_1  90.6544072554
 UP BND  R13_2  90.6544072554
 UP BND  R13_3  90.6544072554
 UP BND  R13_4  90.6544072554
 UP BND  R13_5  90.6544072554
 UP BND  R13_6  90.6544072554
 UP BND  R13_7  90.6544072554
 UP BND  R13_8  90.6544072554
 UP BND  R13_9  90.6544072554
 UP BND  R13_10  90.6544072554
 UP BND  R13_11  90.6544072554
 UP BND  R13_12  90.6544072554
 UP BND  R13_13  90.6544072554
 UP BND  R13_14  90.6544072554
 UP BND  R13_15  90.6544072554
 UP BND  R13_16  90.6544072554
 UP BND  R13_17  90.6544072554
 UP BND  R13_18  90.6544072554
 UP BND  R13_19  90.6544072554
 UP BND  R13_20  90.6544072554
 UP BND  R13_21  90.6544072554
 UP BND  R13_22  90.6544072554
 UP BND  R13_23  90.6544072554
 UP BND  R14_0  177.729843076
 UP BND  R14_1  177.729843076
 UP BND  R14_2  177.729843076
 UP BND  R14_3  177.729843076
 UP BND  R14_4  177.729843076
 UP BND  R14_5  177.729843076
 UP BND  R14_6  177.729843076
 UP BND  R14_7  177.729843076
 UP BND  R14_8  177.729843076
 UP BND  R14_9  177.729843076
 UP BND  R14_10  177.729843076
 UP BND  R14_11  177.729843076
 UP BND  R14_12  177.729843076
 UP BND  R14_13  177.729843076
 UP BND  R14_14  177.729843076
 UP BND  R14_15  177.729843076
 UP BND  R14_16  177.729843076
 UP BND  R14_17  177.729843076
 UP BND  R14_18  177.729843076
 UP BND  R14_19  177.729843076
 UP BND  R14_20  177.729843076
 UP BND  R14_21  177.729843076
 UP BND  R14_22  177.729843076
 UP BND  R14_23  177.729843076
 UP BND  R15_0  89.6436494557
 UP BND  R15_1  89.6436494557
 UP BND  R15_2  89.6436494557
 UP BND  R15_3  89.6436494557
 UP BND  R15_4  89.6436494557
 UP BND  R15_5  89.6436494557
 UP BND  R15_6  89.6436494557
 UP BND  R15_7  89.6436494557
 UP BND  R15_8  89.6436494557
 UP BND  R15_9  89.6436494557
 UP BND  R15_10  89.6436494557
 UP BND  R15_11  89.6436494557
 UP BND  R15_12  89.6436494557
 UP BND  R15_13  89.6436494557
 UP BND  R15_14  89.6436494557
 UP BND  R15_15  89.6436494557
 UP BND  R15_16  89.6436494557
 UP BND  R15_17  89.6436494557
 UP BND  R15_18  89.6436494557
 UP BND  R15_19  89.6436494557
 UP BND  R15_20  89.6436494557
 UP BND  R15_21  89.6436494557
 UP BND  R15_22  89.6436494557
 UP BND  R15_23  89.6436494557
 UP BND  R16_0  93.1162154227
 UP BND  R16_1  93.1162154227
 UP BND  R16_2  93.1162154227
 UP BND  R16_3  93.1162154227
 UP BND  R16_4  93.1162154227
 UP BND  R16_5  93.1162154227
 UP BND  R16_6  93.1162154227
 UP BND  R16_7  93.1162154227
 UP BND  R16_8  93.1162154227
 UP BND  R16_9  93.1162154227
 UP BND  R16_10  93.1162154227
 UP BND  R16_11  93.1162154227
 UP BND  R16_12  93.1162154227
 UP BND  R16_13  93.1162154227
 UP BND  R16_14  93.1162154227
 UP BND  R16_15  93.1162154227
 UP BND  R16_16  93.1162154227
 UP BND  R16_17  93.1162154227
 UP BND  R16_18  93.1162154227
 UP BND  R16_19  93.1162154227
 UP BND  R16_20  93.1162154227
 UP BND  R16_21  93.1162154227
 UP BND  R16_22  93.1162154227
 UP BND  R16_23  93.1162154227
 UP BND  R17_0  206.705607704
 UP BND  R17_1  206.705607704
 UP BND  R17_2  206.705607704
 UP BND  R17_3  206.705607704
 UP BND  R17_4  206.705607704
 UP BND  R17_5  206.705607704
 UP BND  R17_6  206.705607704
 UP BND  R17_7  206.705607704
 UP BND  R17_8  206.705607704
 UP BND  R17_9  206.705607704
 UP BND  R17_10  206.705607704
 UP BND  R17_11  206.705607704
 UP BND  R17_12  206.705607704
 UP BND  R17_13  206.705607704
 UP BND  R17_14  206.705607704
 UP BND  R17_15  206.705607704
 UP BND  R17_16  206.705607704
 UP BND  R17_17  206.705607704
 UP BND  R17_18  206.705607704
 UP BND  R17_19  206.705607704
 UP BND  R17_20  206.705607704
 UP BND  R17_21  206.705607704
 UP BND  R17_22  206.705607704
 UP BND  R17_23  206.705607704
 UP BND  R18_0  243.112059968
 UP BND  R18_1  243.112059968
 UP BND  R18_2  243.112059968
 UP BND  R18_3  243.112059968
 UP BND  R18_4  243.112059968
 UP BND  R18_5  243.112059968
 UP BND  R18_6  243.112059968
 UP BND  R18_7  243.112059968
 UP BND  R18_8  243.112059968
 UP BND  R18_9  243.112059968
 UP BND  R18_10  243.112059968
 UP BND  R18_11  243.112059968
 UP BND  R18_12  243.112059968
 UP BND  R18_13  243.112059968
 UP BND  R18_14  243.112059968
 UP BND  R18_15  243.112059968
 UP BND  R18_16  243.112059968
 UP BND  R18_17  243.112059968
 UP BND  R18_18  243.112059968
 UP BND  R18_19  243.112059968
 UP BND  R18_20  243.112059968
 UP BND  R18_21  243.112059968
 UP BND  R18_22  243.112059968
 UP BND  R18_23  243.112059968
 UP BND  R19_0  251.434704508
 UP BND  R19_1  251.434704508
 UP BND  R19_2  251.434704508
 UP BND  R19_3  251.434704508
 UP BND  R19_4  251.434704508
 UP BND  R19_5  251.434704508
 UP BND  R19_6  251.434704508
 UP BND  R19_7  251.434704508
 UP BND  R19_8  251.434704508
 UP BND  R19_9  251.434704508
 UP BND  R19_10  251.434704508
 UP BND  R19_11  251.434704508
 UP BND  R19_12  251.434704508
 UP BND  R19_13  251.434704508
 UP BND  R19_14  251.434704508
 UP BND  R19_15  251.434704508
 UP BND  R19_16  251.434704508
 UP BND  R19_17  251.434704508
 UP BND  R19_18  251.434704508
 UP BND  R19_19  251.434704508
 UP BND  R19_20  251.434704508
 UP BND  R19_21  251.434704508
 UP BND  R19_22  251.434704508
 UP BND  R19_23  251.434704508
 UP BND  R20_0  253.364041708
 UP BND  R20_1  253.364041708
 UP BND  R20_2  253.364041708
 UP BND  R20_3  253.364041708
 UP BND  R20_4  253.364041708
 UP BND  R20_5  253.364041708
 UP BND  R20_6  253.364041708
 UP BND  R20_7  253.364041708
 UP BND  R20_8  253.364041708
 UP BND  R20_9  253.364041708
 UP BND  R20_10  253.364041708
 UP BND  R20_11  253.364041708
 UP BND  R20_12  253.364041708
 UP BND  R20_13  253.364041708
 UP BND  R20_14  253.364041708
 UP BND  R20_15  253.364041708
 UP BND  R20_16  253.364041708
 UP BND  R20_17  253.364041708
 UP BND  R20_18  253.364041708
 UP BND  R20_19  253.364041708
 UP BND  R20_20  253.364041708
 UP BND  R20_21  253.364041708
 UP BND  R20_22  253.364041708
 UP BND  R20_23  253.364041708
 UP BND  R21_0  198.95587475
 UP BND  R21_1  198.95587475
 UP BND  R21_2  198.95587475
 UP BND  R21_3  198.95587475
 UP BND  R21_4  198.95587475
 UP BND  R21_5  198.95587475
 UP BND  R21_6  198.95587475
 UP BND  R21_7  198.95587475
 UP BND  R21_8  198.95587475
 UP BND  R21_9  198.95587475
 UP BND  R21_10  198.95587475
 UP BND  R21_11  198.95587475
 UP BND  R21_12  198.95587475
 UP BND  R21_13  198.95587475
 UP BND  R21_14  198.95587475
 UP BND  R21_15  198.95587475
 UP BND  R21_16  198.95587475
 UP BND  R21_17  198.95587475
 UP BND  R21_18  198.95587475
 UP BND  R21_19  198.95587475
 UP BND  R21_20  198.95587475
 UP BND  R21_21  198.95587475
 UP BND  R21_22  198.95587475
 UP BND  R21_23  198.95587475
 UP BND  R22_0  203.542011635
 UP BND  R22_1  203.542011635
 UP BND  R22_2  203.542011635
 UP BND  R22_3  203.542011635
 UP BND  R22_4  203.542011635
 UP BND  R22_5  203.542011635
 UP BND  R22_6  203.542011635
 UP BND  R22_7  203.542011635
 UP BND  R22_8  203.542011635
 UP BND  R22_9  203.542011635
 UP BND  R22_10  203.542011635
 UP BND  R22_11  203.542011635
 UP BND  R22_12  203.542011635
 UP BND  R22_13  203.542011635
 UP BND  R22_14  203.542011635
 UP BND  R22_15  203.542011635
 UP BND  R22_16  203.542011635
 UP BND  R22_17  203.542011635
 UP BND  R22_18  203.542011635
 UP BND  R22_19  203.542011635
 UP BND  R22_20  203.542011635
 UP BND  R22_21  203.542011635
 UP BND  R22_22  203.542011635
 UP BND  R22_23  203.542011635
 UP BND  R23_0  61.7839005136
 UP BND  R23_1  61.7839005136
 UP BND  R23_2  61.7839005136
 UP BND  R23_3  61.7839005136
 UP BND  R23_4  61.7839005136
 UP BND  R23_5  61.7839005136
 UP BND  R23_6  61.7839005136
 UP BND  R23_7  61.7839005136
 UP BND  R23_8  61.7839005136
 UP BND  R23_9  61.7839005136
 UP BND  R23_10  61.7839005136
 UP BND  R23_11  61.7839005136
 UP BND  R23_12  61.7839005136
 UP BND  R23_13  61.7839005136
 UP BND  R23_14  61.7839005136
 UP BND  R23_15  61.7839005136
 UP BND  R23_16  61.7839005136
 UP BND  R23_17  61.7839005136
 UP BND  R23_18  61.7839005136
 UP BND  R23_19  61.7839005136
 UP BND  R23_20  61.7839005136
 UP BND  R23_21  61.7839005136
 UP BND  R23_22  61.7839005136
 UP BND  R23_23  61.7839005136
 UP BND  R24_0  132.849499892
 UP BND  R24_1  132.849499892
 UP BND  R24_2  132.849499892
 UP BND  R24_3  132.849499892
 UP BND  R24_4  132.849499892
 UP BND  R24_5  132.849499892
 UP BND  R24_6  132.849499892
 UP BND  R24_7  132.849499892
 UP BND  R24_8  132.849499892
 UP BND  R24_9  132.849499892
 UP BND  R24_10  132.849499892
 UP BND  R24_11  132.849499892
 UP BND  R24_12  132.849499892
 UP BND  R24_13  132.849499892
 UP BND  R24_14  132.849499892
 UP BND  R24_15  132.849499892
 UP BND  R24_16  132.849499892
 UP BND  R24_17  132.849499892
 UP BND  R24_18  132.849499892
 UP BND  R24_19  132.849499892
 UP BND  R24_20  132.849499892
 UP BND  R24_21  132.849499892
 UP BND  R24_22  132.849499892
 UP BND  R24_23  132.849499892
 UP BND  I0_0  900
 UP BND  I0_1  900
 UP BND  I0_2  900
 UP BND  I0_3  900
 UP BND  I0_4  900
 UP BND  I0_5  900
 UP BND  I0_6  900
 UP BND  I0_7  900
 UP BND  I0_8  900
 UP BND  I0_9  900
 UP BND  I0_10  900
 UP BND  I0_11  900
 UP BND  I0_12  900
 UP BND  I0_13  900
 UP BND  I0_14  900
 UP BND  I0_15  900
 UP BND  I0_16  900
 UP BND  I0_17  900
 UP BND  I0_18  900
 UP BND  I0_19  900
 UP BND  I0_20  900
 UP BND  I0_21  900
 UP BND  I0_22  900
 UP BND  I0_23  900
 UP BND  I1_0  900
 UP BND  I1_1  900
 UP BND  I1_2  900
 UP BND  I1_3  900
 UP BND  I1_4  900
 UP BND  I1_5  900
 UP BND  I1_6  900
 UP BND  I1_7  900
 UP BND  I1_8  900
 UP BND  I1_9  900
 UP BND  I1_10  900
 UP BND  I1_11  900
 UP BND  I1_12  900
 UP BND  I1_13  900
 UP BND  I1_14  900
 UP BND  I1_15  900
 UP BND  I1_16  900
 UP BND  I1_17  900
 UP BND  I1_18  900
 UP BND  I1_19  900
 UP BND  I1_20  900
 UP BND  I1_21  900
 UP BND  I1_22  900
 UP BND  I1_23  900
 UP BND  I2_0  900
 UP BND  I2_1  900
 UP BND  I2_2  900
 UP BND  I2_3  900
 UP BND  I2_4  900
 UP BND  I2_5  900
 UP BND  I2_6  900
 UP BND  I2_7  900
 UP BND  I2_8  900
 UP BND  I2_9  900
 UP BND  I2_10  900
 UP BND  I2_11  900
 UP BND  I2_12  900
 UP BND  I2_13  900
 UP BND  I2_14  900
 UP BND  I2_15  900
 UP BND  I2_16  900
 UP BND  I2_17  900
 UP BND  I2_18  900
 UP BND  I2_19  900
 UP BND  I2_20  900
 UP BND  I2_21  900
 UP BND  I2_22  900
 UP BND  I2_23  900
 UP BND  I3_0  900
 UP BND  I3_1  900
 UP BND  I3_2  900
 UP BND  I3_3  900
 UP BND  I3_4  900
 UP BND  I3_5  900
 UP BND  I3_6  900
 UP BND  I3_7  900
 UP BND  I3_8  900
 UP BND  I3_9  900
 UP BND  I3_10  900
 UP BND  I3_11  900
 UP BND  I3_12  900
 UP BND  I3_13  900
 UP BND  I3_14  900
 UP BND  I3_15  900
 UP BND  I3_16  900
 UP BND  I3_17  900
 UP BND  I3_18  900
 UP BND  I3_19  900
 UP BND  I3_20  900
 UP BND  I3_21  900
 UP BND  I3_22  900
 UP BND  I3_23  900
 UP BND  I4_0  900
 UP BND  I4_1  900
 UP BND  I4_2  900
 UP BND  I4_3  900
 UP BND  I4_4  900
 UP BND  I4_5  900
 UP BND  I4_6  900
 UP BND  I4_7  900
 UP BND  I4_8  900
 UP BND  I4_9  900
 UP BND  I4_10  900
 UP BND  I4_11  900
 UP BND  I4_12  900
 UP BND  I4_13  900
 UP BND  I4_14  900
 UP BND  I4_15  900
 UP BND  I4_16  900
 UP BND  I4_17  900
 UP BND  I4_18  900
 UP BND  I4_19  900
 UP BND  I4_20  900
 UP BND  I4_21  900
 UP BND  I4_22  900
 UP BND  I4_23  900
 UP BND  I5_0  900
 UP BND  I5_1  900
 UP BND  I5_2  900
 UP BND  I5_3  900
 UP BND  I5_4  900
 UP BND  I5_5  900
 UP BND  I5_6  900
 UP BND  I5_7  900
 UP BND  I5_8  900
 UP BND  I5_9  900
 UP BND  I5_10  900
 UP BND  I5_11  900
 UP BND  I5_12  900
 UP BND  I5_13  900
 UP BND  I5_14  900
 UP BND  I5_15  900
 UP BND  I5_16  900
 UP BND  I5_17  900
 UP BND  I5_18  900
 UP BND  I5_19  900
 UP BND  I5_20  900
 UP BND  I5_21  900
 UP BND  I5_22  900
 UP BND  I5_23  900
 UP BND  I6_0  900
 UP BND  I6_1  900
 UP BND  I6_2  900
 UP BND  I6_3  900
 UP BND  I6_4  900
 UP BND  I6_5  900
 UP BND  I6_6  900
 UP BND  I6_7  900
 UP BND  I6_8  900
 UP BND  I6_9  900
 UP BND  I6_10  900
 UP BND  I6_11  900
 UP BND  I6_12  900
 UP BND  I6_13  900
 UP BND  I6_14  900
 UP BND  I6_15  900
 UP BND  I6_16  900
 UP BND  I6_17  900
 UP BND  I6_18  900
 UP BND  I6_19  900
 UP BND  I6_20  900
 UP BND  I6_21  900
 UP BND  I6_22  900
 UP BND  I6_23  900
 UP BND  I7_0  900
 UP BND  I7_1  900
 UP BND  I7_2  900
 UP BND  I7_3  900
 UP BND  I7_4  900
 UP BND  I7_5  900
 UP BND  I7_6  900
 UP BND  I7_7  900
 UP BND  I7_8  900
 UP BND  I7_9  900
 UP BND  I7_10  900
 UP BND  I7_11  900
 UP BND  I7_12  900
 UP BND  I7_13  900
 UP BND  I7_14  900
 UP BND  I7_15  900
 UP BND  I7_16  900
 UP BND  I7_17  900
 UP BND  I7_18  900
 UP BND  I7_19  900
 UP BND  I7_20  900
 UP BND  I7_21  900
 UP BND  I7_22  900
 UP BND  I7_23  900
 UP BND  I8_0  900
 UP BND  I8_1  900
 UP BND  I8_2  900
 UP BND  I8_3  900
 UP BND  I8_4  900
 UP BND  I8_5  900
 UP BND  I8_6  900
 UP BND  I8_7  900
 UP BND  I8_8  900
 UP BND  I8_9  900
 UP BND  I8_10  900
 UP BND  I8_11  900
 UP BND  I8_12  900
 UP BND  I8_13  900
 UP BND  I8_14  900
 UP BND  I8_15  900
 UP BND  I8_16  900
 UP BND  I8_17  900
 UP BND  I8_18  900
 UP BND  I8_19  900
 UP BND  I8_20  900
 UP BND  I8_21  900
 UP BND  I8_22  900
 UP BND  I8_23  900
 UP BND  I9_0  900
 UP BND  I9_1  900
 UP BND  I9_2  900
 UP BND  I9_3  900
 UP BND  I9_4  900
 UP BND  I9_5  900
 UP BND  I9_6  900
 UP BND  I9_7  900
 UP BND  I9_8  900
 UP BND  I9_9  900
 UP BND  I9_10  900
 UP BND  I9_11  900
 UP BND  I9_12  900
 UP BND  I9_13  900
 UP BND  I9_14  900
 UP BND  I9_15  900
 UP BND  I9_16  900
 UP BND  I9_17  900
 UP BND  I9_18  900
 UP BND  I9_19  900
 UP BND  I9_20  900
 UP BND  I9_21  900
 UP BND  I9_22  900
 UP BND  I9_23  900
 UP BND  I10_0  900
 UP BND  I10_1  900
 UP BND  I10_2  900
 UP BND  I10_3  900
 UP BND  I10_4  900
 UP BND  I10_5  900
 UP BND  I10_6  900
 UP BND  I10_7  900
 UP BND  I10_8  900
 UP BND  I10_9  900
 UP BND  I10_10  900
 UP BND  I10_11  900
 UP BND  I10_12  900
 UP BND  I10_13  900
 UP BND  I10_14  900
 UP BND  I10_15  900
 UP BND  I10_16  900
 UP BND  I10_17  900
 UP BND  I10_18  900
 UP BND  I10_19  900
 UP BND  I10_20  900
 UP BND  I10_21  900
 UP BND  I10_22  900
 UP BND  I10_23  900
 UP BND  I11_0  900
 UP BND  I11_1  900
 UP BND  I11_2  900
 UP BND  I11_3  900
 UP BND  I11_4  900
 UP BND  I11_5  900
 UP BND  I11_6  900
 UP BND  I11_7  900
 UP BND  I11_8  900
 UP BND  I11_9  900
 UP BND  I11_10  900
 UP BND  I11_11  900
 UP BND  I11_12  900
 UP BND  I11_13  900
 UP BND  I11_14  900
 UP BND  I11_15  900
 UP BND  I11_16  900
 UP BND  I11_17  900
 UP BND  I11_18  900
 UP BND  I11_19  900
 UP BND  I11_20  900
 UP BND  I11_21  900
 UP BND  I11_22  900
 UP BND  I11_23  900
 UP BND  I12_0  900
 UP BND  I12_1  900
 UP BND  I12_2  900
 UP BND  I12_3  900
 UP BND  I12_4  900
 UP BND  I12_5  900
 UP BND  I12_6  900
 UP BND  I12_7  900
 UP BND  I12_8  900
 UP BND  I12_9  900
 UP BND  I12_10  900
 UP BND  I12_11  900
 UP BND  I12_12  900
 UP BND  I12_13  900
 UP BND  I12_14  900
 UP BND  I12_15  900
 UP BND  I12_16  900
 UP BND  I12_17  900
 UP BND  I12_18  900
 UP BND  I12_19  900
 UP BND  I12_20  900
 UP BND  I12_21  900
 UP BND  I12_22  900
 UP BND  I12_23  900
 UP BND  I13_0  900
 UP BND  I13_1  900
 UP BND  I13_2  900
 UP BND  I13_3  900
 UP BND  I13_4  900
 UP BND  I13_5  900
 UP BND  I13_6  900
 UP BND  I13_7  900
 UP BND  I13_8  900
 UP BND  I13_9  900
 UP BND  I13_10  900
 UP BND  I13_11  900
 UP BND  I13_12  900
 UP BND  I13_13  900
 UP BND  I13_14  900
 UP BND  I13_15  900
 UP BND  I13_16  900
 UP BND  I13_17  900
 UP BND  I13_18  900
 UP BND  I13_19  900
 UP BND  I13_20  900
 UP BND  I13_21  900
 UP BND  I13_22  900
 UP BND  I13_23  900
 UP BND  I14_0  900
 UP BND  I14_1  900
 UP BND  I14_2  900
 UP BND  I14_3  900
 UP BND  I14_4  900
 UP BND  I14_5  900
 UP BND  I14_6  900
 UP BND  I14_7  900
 UP BND  I14_8  900
 UP BND  I14_9  900
 UP BND  I14_10  900
 UP BND  I14_11  900
 UP BND  I14_12  900
 UP BND  I14_13  900
 UP BND  I14_14  900
 UP BND  I14_15  900
 UP BND  I14_16  900
 UP BND  I14_17  900
 UP BND  I14_18  900
 UP BND  I14_19  900
 UP BND  I14_20  900
 UP BND  I14_21  900
 UP BND  I14_22  900
 UP BND  I14_23  900
 UP BND  I15_0  900
 UP BND  I15_1  900
 UP BND  I15_2  900
 UP BND  I15_3  900
 UP BND  I15_4  900
 UP BND  I15_5  900
 UP BND  I15_6  900
 UP BND  I15_7  900
 UP BND  I15_8  900
 UP BND  I15_9  900
 UP BND  I15_10  900
 UP BND  I15_11  900
 UP BND  I15_12  900
 UP BND  I15_13  900
 UP BND  I15_14  900
 UP BND  I15_15  900
 UP BND  I15_16  900
 UP BND  I15_17  900
 UP BND  I15_18  900
 UP BND  I15_19  900
 UP BND  I15_20  900
 UP BND  I15_21  900
 UP BND  I15_22  900
 UP BND  I15_23  900
 UP BND  I16_0  900
 UP BND  I16_1  900
 UP BND  I16_2  900
 UP BND  I16_3  900
 UP BND  I16_4  900
 UP BND  I16_5  900
 UP BND  I16_6  900
 UP BND  I16_7  900
 UP BND  I16_8  900
 UP BND  I16_9  900
 UP BND  I16_10  900
 UP BND  I16_11  900
 UP BND  I16_12  900
 UP BND  I16_13  900
 UP BND  I16_14  900
 UP BND  I16_15  900
 UP BND  I16_16  900
 UP BND  I16_17  900
 UP BND  I16_18  900
 UP BND  I16_19  900
 UP BND  I16_20  900
 UP BND  I16_21  900
 UP BND  I16_22  900
 UP BND  I16_23  900
 UP BND  I17_0  900
 UP BND  I17_1  900
 UP BND  I17_2  900
 UP BND  I17_3  900
 UP BND  I17_4  900
 UP BND  I17_5  900
 UP BND  I17_6  900
 UP BND  I17_7  900
 UP BND  I17_8  900
 UP BND  I17_9  900
 UP BND  I17_10  900
 UP BND  I17_11  900
 UP BND  I17_12  900
 UP BND  I17_13  900
 UP BND  I17_14  900
 UP BND  I17_15  900
 UP BND  I17_16  900
 UP BND  I17_17  900
 UP BND  I17_18  900
 UP BND  I17_19  900
 UP BND  I17_20  900
 UP BND  I17_21  900
 UP BND  I17_22  900
 UP BND  I17_23  900
ENDATA
