NAME          QRISK0
ROWS
 N  COST
 E  BUDGET
 L  SECTOR0
 L  SECTOR1
 L  SECTOR2
 L  SECTOR3
 L  SECTOR4
COLUMNS
    W0  COST  -0.0816487311797
    W0  BUDGET  1
    W0  SECTOR0  1
    W1  COST  -0.0380661242036
    W1  BUDGET  1
    W1  SECTOR1  1
    W2  COST  -0.00880034198917
    W2  BUDGET  1
    W2  SECTOR2  1
    W3  COST  -0.0257118069131
    W3  BUDGET  1
    W3  SECTOR3  1
    W4  COST  -0.0918202918776
    W4  BUDGET  1
    W4  SECTOR4  1
    W5  COST  -0.0502161353987
    W5  BUDGET  1
    W5  SECTOR0  1
    W6  COST  -0.121098007687
    W6  BUDGET  1
    W6  SECTOR1  1
    W7  COST  -0.111919762032
    W7  BUDGET  1
    W7  SECTOR2  1
    W8  COST  -0.051657783584
    W8  BUDGET  1
    W8  SECTOR3  1
    W9  COST  -0.0736630579528
    W9  BUDGET  1
    W9  SECTOR4  1
    W10  COST  -0.0328660256814
    W10  BUDGET  1
    W10  SECTOR0  1
    W11  COST  0.0314663749739
    W11  BUDGET  1
    W11  SECTOR1  1
    W12  COST  -0.0705184867733
    W12  BUDGET  1
    W12  SECTOR2  1
    W13  COST  -0.036979317708
    W13  BUDGET  1
    W13  SECTOR3  1
    W14  COST  -0.100926495933
    W14  BUDGET  1
    W14  SECTOR4  1
    W15  COST  -0.0899965460352
    W15  BUDGET  1
    W15  SECTOR0  1
    W16  COST  -0.0766361716498
    W16  BUDGET  1
    W16  SECTOR1  1
    W17  COST  -0.0355009292829
    W17  BUDGET  1
    W17  SECTOR2  1
    W18  COST  -0.00372696912975
    W18  BUDGET  1
    W18  SECTOR3  1
    W19  COST  -0.0774904572704
    W19  BUDGET  1
    W19  SECTOR4  1
    W20  COST  -0.00305062197121
    W20  BUDGET  1
    W20  SECTOR0  1
    W21  COST  -0.0736718750167
    W21  BUDGET  1
    W21  SECTOR1  1
    W22  COST  -0.128666786148
    W22  BUDGET  1
    W22  SECTOR2  1
    W23  COST  -0.028405055236
    W23  BUDGET  1
    W23  SECTOR3  1
    W24  COST  -0.0388023689969
    W24  BUDGET  1
    W24  SECTOR4  1
    W25  COST  -0.0858518887878
    W25  BUDGET  1
    W25  SECTOR0  1
    W26  COST  -0.0988139046661
    W26  BUDGET  1
    W26  SECTOR1  1
    W27  COST  -0.0887126312134
    W27  BUDGET  1
    W27  SECTOR2  1
    W28  COST  0.000700805090056
    W28  BUDGET  1
    W28  SECTOR3  1
    W29  COST  -0.0483280626857
    W29  BUDGET  1
    W29  SECTOR4  1
    W30  COST  -0.0956067624558
    W30  BUDGET  1
    W30  SECTOR0  1
    W31  COST  -0.0569856757021
    W31  BUDGET  1
    W31  SECTOR1  1
    W32  COST  -0.0617133242735
    W32  BUDGET  1
    W32  SECTOR2  1
    W33  COST  -0.0628042409999
    W33  BUDGET  1
    W33  SECTOR3  1
    W34  COST  -0.0724477974183
    W34  BUDGET  1
    W34  SECTOR4  1
    W35  COST  -0.046578096416
    W35  BUDGET  1
    W35  SECTOR0  1
    W36  COST  -0.110038059056
    W36  BUDGET  1
    W36  SECTOR1  1
    W37  COST  -0.00841169430905
    W37  BUDGET  1
    W37  SECTOR2  1
    W38  COST  -0.0775901237847
    W38  BUDGET  1
    W38  SECTOR3  1
    W39  COST  -0.119016047745
    W39  BUDGET  1
    W39  SECTOR4  1
    W40  COST  -0.109769170764
    W40  BUDGET  1
    W40  SECTOR0  1
    W41  COST  -0.0690025329413
    W41  BUDGET  1
    W41  SECTOR1  1
    W42  COST  -0.0822081722419
    W42  BUDGET  1
    W42  SECTOR2  1
    W43  COST  -0.0444310622861
    W43  BUDGET  1
    W43  SECTOR3  1
    W44  COST  -0.106892800524
    W44  BUDGET  1
    W44  SECTOR4  1
    W45  COST  -0.0655279103914
    W45  BUDGET  1
    W45  SECTOR0  1
    W46  COST  -0.0899320193859
    W46  BUDGET  1
    W46  SECTOR1  1
    W47  COST  -0.0559485269809
    W47  BUDGET  1
    W47  SECTOR2  1
    W48  COST  -0.111714630324
    W48  BUDGET  1
    W48  SECTOR3  1
    W49  COST  -0.0367903327892
    W49  BUDGET  1
    W49  SECTOR4  1
    W50  COST  -0.0568852058967
    W50  BUDGET  1
    W50  SECTOR0  1
    W51  COST  -0.0313162345191
    W51  BUDGET  1
    W51  SECTOR1  1
    W52  COST  -0.0240973878802
    W52  BUDGET  1
    W52  SECTOR2  1
    W53  COST  0.0110382970047
    W53  BUDGET  1
    W53  SECTOR3  1
    W54  COST  -0.0508106961551
    W54  BUDGET  1
    W54  SECTOR4  1
    W55  COST  -0.0679520863199
    W55  BUDGET  1
    W55  SECTOR0  1
    W56  COST  -0.0438633639349
    W56  BUDGET  1
    W56  SECTOR1  1
    W57  COST  -0.0807294402443
    W57  BUDGET  1
    W57  SECTOR2  1
    W58  COST  -0.0138298630094
    W58  BUDGET  1
    W58  SECTOR3  1
    W59  COST  0.012277337764
    W59  BUDGET  1
    W59  SECTOR4  1
    W60  COST  -0.086144496209
    W60  BUDGET  1
    W60  SECTOR0  1
    W61  COST  -0.0919769984695
    W61  BUDGET  1
    W61  SECTOR1  1
    W62  COST  -0.0497342678955
    W62  BUDGET  1
    W62  SECTOR2  1
    W63  COST  -0.0678861225894
    W63  BUDGET  1
    W63  SECTOR3  1
    W64  COST  -0.0248599150619
    W64  BUDGET  1
    W64  SECTOR4  1
    W65  COST  0.0494949680883
    W65  BUDGET  1
    W65  SECTOR0  1
    W66  COST  -0.0484768460801
    W66  BUDGET  1
    W66  SECTOR1  1
    W67  COST  -0.0336252366493
    W67  BUDGET  1
    W67  SECTOR2  1
    W68  COST  -0.0932446508562
    W68  BUDGET  1
    W68  SECTOR3  1
    W69  COST  -0.0609848839161
    W69  BUDGET  1
    W69  SECTOR4  1
    W70  COST  0.0298365507014
    W70  BUDGET  1
    W70  SECTOR0  1
    W71  COST  -0.0557283152493
    W71  BUDGET  1
    W71  SECTOR1  1
    W72  COST  -0.00761890197923
    W72  BUDGET  1
    W72  SECTOR2  1
    W73  COST  -0.0543093798359
    W73  BUDGET  1
    W73  SECTOR3  1
    W74  COST  -0.0578713319992
    W74  BUDGET  1
    W74  SECTOR4  1
    W75  COST  -0.0930585125242
    W75  BUDGET  1
    W75  SECTOR0  1
    W76  COST  -0.00466591561283
    W76  BUDGET  1
    W76  SECTOR1  1
    W77  COST  -0.075441749092
    W77  BUDGET  1
    W77  SECTOR2  1
    W78  COST  -0.0352837321633
    W78  BUDGET  1
    W78  SECTOR3  1
    W79  COST  -0.0471682170999
    W79  BUDGET  1
    W79  SECTOR4  1
    W80  COST  -0.0878762675581
    W80  BUDGET  1
    W80  SECTOR0  1
    W81  COST  -0.11570253908
    W81  BUDGET  1
    W81  SECTOR1  1
    W82  COST  0.00300453608767
    W82  BUDGET  1
    W82  SECTOR2  1
    W83  COST  -0.0487194310046
    W83  BUDGET  1
    W83  SECTOR3  1
    W84  COST  -0.109883752105
    W84  BUDGET  1
    W84  SECTOR4  1
    W85  COST  -0.0794615978201
    W85  BUDGET  1
    W85  SECTOR0  1
    W86  COST  -0.0353933290949
    W86  BUDGET  1
    W86  SECTOR1  1
    W87  COST  -0.0611443712411
    W87  BUDGET  1
    W87  SECTOR2  1
    W88  COST  -0.0454961530117
    W88  BUDGET  1
    W88  SECTOR3  1
    W89  COST  -0.00957179045602
    W89  BUDGET  1
    W89  SECTOR4  1
    W90  COST  -0.0387170089714
    W90  BUDGET  1
    W90  SECTOR0  1
    W91  COST  -0.0790487231857
    W91  BUDGET  1
    W91  SECTOR1  1
    W92  COST  -0.0297093176617
    W92  BUDGET  1
    W92  SECTOR2  1
    W93  COST  -0.0323369931751
    W93  BUDGET  1
    W93  SECTOR3  1
    W94  COST  -0.0100891709309
    W94  BUDGET  1
    W94  SECTOR4  1
    W95  COST  -0.0830484129124
    W95  BUDGET  1
    W95  SECTOR0  1
    W96  COST  -0.0647932356165
    W96  BUDGET  1
    W96  SECTOR1  1
    W97  COST  -0.125444481494
    W97  BUDGET  1
    W97  SECTOR2  1
    W98  COST  -0.0510537545014
    W98  BUDGET  1
    W98  SECTOR3  1
    W99  COST  -0.0775413477048
    W99  BUDGET  1
    W99  SECTOR4  1
    W100  COST  -0.0766443151311
    W100  BUDGET  1
    W100  SECTOR0  1
    W101  COST  -0.0422913649569
    W101  BUDGET  1
    W101  SECTOR1  1
    W102  COST  -0.0888332892774
    W102  BUDGET  1
    W102  SECTOR2  1
    W103  COST  -0.0245459869172
    W103  BUDGET  1
    W103  SECTOR3  1
    W104  COST  -0.0856968258631
    W104  BUDGET  1
    W104  SECTOR4  1
    W105  COST  -0.146684388017
    W105  BUDGET  1
    W105  SECTOR0  1
    W106  COST  -0.0643252951827
    W106  BUDGET  1
    W106  SECTOR1  1
    W107  COST  -0.0578573619698
    W107  BUDGET  1
    W107  SECTOR2  1
    W108  COST  -0.111403387494
    W108  BUDGET  1
    W108  SECTOR3  1
    W109  COST  -0.0702653459983
    W109  BUDGET  1
    W109  SECTOR4  1
    W110  COST  -0.0882637447791
    W110  BUDGET  1
    W110  SECTOR0  1
    W111  COST  -0.0529853529785
    W111  BUDGET  1
    W111  SECTOR1  1
    W112  COST  -0.0384259050984
    W112  BUDGET  1
    W112  SECTOR2  1
    W113  COST  -0.00127588688046
    W113  BUDGET  1
    W113  SECTOR3  1
    W114  COST  -0.089310158051
    W114  BUDGET  1
    W114  SECTOR4  1
    W115  COST  -0.0137892179963
    W115  BUDGET  1
    W115  SECTOR0  1
    W116  COST  -0.0999622678599
    W116  BUDGET  1
    W116  SECTOR1  1
    W117  COST  -0.0679807671907
    W117  BUDGET  1
    W117  SECTOR2  1
    W118  COST  -0.0382898129661
    W118  BUDGET  1
    W118  SECTOR3  1
    W119  COST  0.0219525831526
    W119  BUDGET  1
    W119  SECTOR4  1
    W120  COST  0.0169840986656
    W120  BUDGET  1
    W120  SECTOR0  1
    W121  COST  -0.105780706582
    W121  BUDGET  1
    W121  SECTOR1  1
    W122  COST  -0.0253908543406
    W122  BUDGET  1
    W122  SECTOR2  1
    W123  COST  -0.0500410451794
    W123  BUDGET  1
    W123  SECTOR3  1
    W124  COST  -0.00997663130019
    W124  BUDGET  1
    W124  SECTOR4  1
    W125  COST  -0.0440982498744
    W125  BUDGET  1
    W125  SECTOR0  1
    W126  COST  -0.0278768096762
    W126  BUDGET  1
    W126  SECTOR1  1
    W127  COST  -0.023937945326
    W127  BUDGET  1
    W127  SECTOR2  1
    W128  COST  -0.0279338375394
    W128  BUDGET  1
    W128  SECTOR3  1
    W129  COST  -0.048411801336
    W129  BUDGET  1
    W129  SECTOR4  1
    W130  COST  -0.07695503052
    W130  BUDGET  1
    W130  SECTOR0  1
    W131  COST  -0.0554522104689
    W131  BUDGET  1
    W131  SECTOR1  1
    W132  COST  0.00435627095537
    W132  BUDGET  1
    W132  SECTOR2  1
    W133  COST  -0.1129676273
    W133  BUDGET  1
    W133  SECTOR3  1
    W134  COST  -0.0374338470319
    W134  BUDGET  1
    W134  SECTOR4  1
    W135  COST  -0.0924899375881
    W135  BUDGET  1
    W135  SECTOR0  1
    W136  COST  -0.0315621107257
    W136  BUDGET  1
    W136  SECTOR1  1
    W137  COST  -0.129460526472
    W137  BUDGET  1
    W137  SECTOR2  1
    W138  COST  -0.018916152557
    W138  BUDGET  1
    W138  SECTOR3  1
    W139  COST  -0.0626827051072
    W139  BUDGET  1
    W139  SECTOR4  1
    W140  COST  -0.0496441977101
    W140  BUDGET  1
    W140  SECTOR0  1
    W141  COST  -0.0534750216272
    W141  BUDGET  1
    W141  SECTOR1  1
    W142  COST  -0.04750187873
    W142  BUDGET  1
    W142  SECTOR2  1
    W143  COST  -0.0822191401503
    W143  BUDGET  1
    W143  SECTOR3  1
    W144  COST  -0.0615857685441
    W144  BUDGET  1
    W144  SECTOR4  1
    W145  COST  -0.0794836731143
    W145  BUDGET  1
    W145  SECTOR0  1
    W146  COST  -0.0698801913964
    W146  BUDGET  1
    W146  SECTOR1  1
    W147  COST  -0.0602114017631
    W147  BUDGET  1
    W147  SECTOR2  1
    W148  COST  -0.0674544150532
    W148  BUDGET  1
    W148  SECTOR3  1
    W149  COST  -0.0834577476484
    W149  BUDGET  1
    W149  SECTOR4  1
RHS
    RHS  BUDGET  1
    RHS  SECTOR0  0.45
    RHS  SECTOR1  0.45
    RHS  SECTOR2  0.45
    RHS  SECTOR3  0.45
    RHS  SECTOR4  0.45
RANGES
BOUNDS
 UP BND  W0  0.25
 UP BND  W1  0.25
 UP BND  W2  0.25
 UP BND  W3  0.25
 UP BND  W4  0.25
 UP BND  W5  0.25
 UP BND  W6  0.25
 UP BND  W7  0.25
 UP BND  W8  0.25
 UP BND  W9  0.25
 UP BND  W10  0.25
 UP BND  W11  0.25
 UP BND  W12  0.25
 UP BND  W13  0.25
 UP BND  W14  0.25
 UP BND  W15  0.25
 UP BND  W16  0.25
 UP BND  W17  0.25
 UP BND  W18  0.25
 UP BND  W19  0.25
 UP BND  W20  0.25
 UP BND  W21  0.25
 UP BND  W22  0.25
 UP BND  W23  0.25
 UP BND  W24  0.25
 UP BND  W25  0.25
 UP BND  W26  0.25
 UP BND  W27  0.25
 UP BND  W28  0.25
 UP BND  W29  0.25
 UP BND  W30  0.25
 UP BND  W31  0.25
 UP BND  W32  0.25
 UP BND  W33  0.25
 UP BND  W34  0.25
 UP BND  W35  0.25
 UP BND  W36  0.25
 UP BND  W37  0.25
 UP BND  W38  0.25
 UP BND  W39  0.25
 UP BND  W40  0.25
 UP BND  W41  0.25
 UP BND  W42  0.25
 UP BND  W43  0.25
 UP BND  W44  0.25
 UP BND  W45  0.25
 UP BND  W46  0.25
 UP BND  W47  0.25
 UP BND  W48  0.25
 UP BND  W49  0.25
 UP BND  W50  0.25
 UP BND  W51  0.25
 UP BND  W52  0.25
 UP BND  W53  0.25
 UP BND  W54  0.25
 UP BND  W55  0.25
 UP BND  W56  0.25
 UP BND  W57  0.25
 UP BND  W58  0.25
 UP BND  W59  0.25
 UP BND  W60  0.25
 UP BND  W61  0.25
 UP BND  W62  0.25
 UP BND  W63  0.25
 UP BND  W64  0.25
 UP BND  W65  0.25
 UP BND  W66  0.25
 UP BND  W67  0.25
 UP BND  W68  0.25
 UP BND  W69  0.25
 UP BND  W70  0.25
 UP BND  W71  0.25
 UP BND  W72  0.25
 UP BND  W73  0.25
 UP BND  W74  0.25
 UP BND  W75  0.25
 UP BND  W76  0.25
 UP BND  W77  0.25
 UP BND  W78  0.25
 UP BND  W79  0.25
 UP BND  W80  0.25
 UP BND  W81  0.25
 UP BND  W82  0.25
 UP BND  W83  0.25
 UP BND  W84  0.25
 UP BND  W85  0.25
 UP BND  W86  0.25
 UP BND  W87  0.25
 UP BND  W88  0.25
 UP BND  W89  0.25
 UP BND  W90  0.25
 UP BND  W91  0.25
 UP BND  W92  0.25
 UP BND  W93  0.25
 UP BND  W94  0.25
 UP BND  W95  0.25
 UP BND  W96  0.25
 UP BND  W97  0.25
 UP BND  W98  0.25
 UP BND  W99  0.25
 UP BND  W100  0.25
 UP BND  W101  0.25
 UP BND  W102  0.25
 UP BND  W103  0.25
 UP BND  W104  0.25
 UP BND  W105  0.25
 UP BND  W106  0.25
 UP BND  W107  0.25
 UP BND  W108  0.25
 UP BND  W109  0.25
 UP BND  W110  0.25
 UP BND  W111  0.25
 UP BND  W112  0.25
 UP BND  W113  0.25
 UP BND  W114  0.25
 UP BND  W115  0.25
 UP BND  W116  0.25
 UP BND  W117  0.25
 UP BND  W118  0.25
 UP BND  W119  0.25
 UP BND  W120  0.25
 UP BND  W121  0.25
 UP BND  W122  0.25
 UP BND  W123  0.25
 UP BND  W124  0.25
 UP BND  W125  0.25
 UP BND  W126  0.25
 UP BND  W127  0.25
 UP BND  W128  0.25
 UP BND  W129  0.25
 UP BND  W130  0.25
 UP BND  W131  0.25
 UP BND  W132  0.25
 UP BND  W133  0.25
 UP BND  W134  0.25
 UP BND  W135  0.25
 UP BND  W136  0.25
 UP BND  W137  0.25
 UP BND  W138  0.25
 UP BND  W139  0.25
 UP BND  W140  0.25
 UP BND  W141  0.25
 UP BND  W142  0.25
 UP BND  W143  0.25
 UP BND  W144  0.25
 UP BND  W145  0.25
 UP BND  W146  0.25
 UP BND  W147  0.25
 UP BND  W148  0.25
 UP BND  W149  0.25
QUADOBJ
    W0  W0  0.159582815579
    W0  W1  0.0299889208621
    W0  W2  -0.0332509548679
    W0  W3  -0.00806448576246
    W0  W4  -0.000379343565962
    W0  W5  -0.0622579470822
    W0  W6  0.024743090907
    W0  W7  0.0384651167285
    W0  W8  -0.0683670119735
    W0  W9  0.0021269051714
    W0  W10  -0.00818093880939
    W0  W11  -0.0529430977821
    W0  W12  0.0606601692006
    W0  W13  0.0463243007429
    W0  W14  -0.0199265620477
    W0  W15  0.0123790794148
    W0  W16  0.0256974514539
    W0  W17  0.0445732223937
    W0  W18  0.0381634273396
    W0  W19  -0.0346042381649
    W0  W20  0.0660528056231
    W0  W21  -0.0338786058303
    W0  W22  -0.0273868044563
    W0  W23  -0.0135271798734
    W0  W24  0.0408795787695
    W0  W25  -0.0237126919683
    W0  W26  -0.0728938652956
    W0  W27  0.0199062773374
    W0  W28  -0.00779674057297
    W0  W29  0.00141961242965
    W0  W30  0.0596715990912
    W0  W31  -0.0400171574871
    W0  W32  -0.0809773885674
    W0  W33  -0.0132999266076
    W0  W34  0.063947603931
    W0  W35  -0.0260162511328
    W0  W36  -0.0465421180587
    W0  W37  0.0100849546605
    W0  W38  0.0221414553941
    W0  W39  0.0120577465989
    W0  W40  0.0393247011539
    W0  W41  -0.0417940684087
    W0  W42  -0.010349000029
    W0  W43  -0.0153528466569
    W0  W44  0.0273612167258
    W0  W45  0.00295745122637
    W0  W46  0.0466610492639
    W0  W47  0.0147348826266
    W0  W48  0.0194421156956
    W0  W49  -0.072363514986
    W0  W50  -0.00329017301454
    W0  W51  0.033390364323
    W0  W52  0.0336489290304
    W0  W53  0.0270469226721
    W0  W54  0.00808664139871
    W0  W55  -0.0185547500823
    W0  W56  -0.0361606737544
    W0  W57  -0.0463419844686
    W0  W58  -0.00960363551798
    W0  W59  -0.0144493730179
    W0  W60  -0.0198963800693
    W0  W61  0.0280625237266
    W0  W62  0.0451035648495
    W0  W63  -0.0352860226542
    W0  W64  -0.0366044259462
    W0  W65  0.0661994087147
    W0  W66  -0.0618311198199
    W0  W67  -0.00198794578565
    W0  W68  -0.0383089787347
    W0  W69  -0.0577048600881
    W0  W70  0.0689988895055
    W0  W71  -0.0953399532431
    W0  W72  0.0122505198474
    W0  W73  -0.0230560392972
    W0  W74  0.0249615304803
    W0  W75  0.0369683533095
    W0  W76  -0.0446338887368
    W0  W77  0.0679154250095
    W0  W78  -0.0192924600368
    W0  W79  0.0232950673698
    W0  W80  0.0173898823547
    W0  W81  0.0734706581815
    W0  W82  0.0618870897513
    W0  W83  -0.0229286777181
    W0  W84  0.0285138428772
    W0  W85  -0.00679300459051
    W0  W86  0.0160339296147
    W0  W87  0.00568836031185
    W0  W88  0.0194070876524
    W0  W89  0.0107718969071
    W0  W90  0.0185446276633
    W0  W91  -0.0329616769517
    W0  W92  -0.0446176825892
    W0  W93  -0.0138192584031
    W0  W94  -0.000440877752552
    W0  W95  -0.000146574037214
    W0  W96  0.0365626492267
    W0  W97  0.0477280231966
    W0  W98  0.0082417468479
    W0  W99  -0.0288518403475
    W0  W100  0.0218338471213
    W0  W101  -0.018415777293
    W0  W102  0.0223033143261
    W0  W103  -0.00197528897411
    W0  W104  -0.00822274219831
    W0  W105  0.014371777519
    W0  W106  -0.0705175424327
    W0  W107  -0.0237887237779
    W0  W108  0.0179013341541
    W0  W109  -0.0236993930757
    W0  W110  -0.0292989303003
    W0  W111  0.0424913893543
    W0  W112  0.0219359978957
    W0  W113  -0.0456664051029
    W0  W114  0.00956999643282
    W0  W115  0.0210325328602
    W0  W116  -0.0146348472687
    W0  W117  0.00889061910195
    W0  W118  -0.000829680975058
    W0  W119  -0.0469168463017
    W0  W120  -0.00452551135486
    W0  W121  -0.0432311711203
    W0  W122  0.00423101871409
    W0  W123  0.00235162629085
    W0  W124  -0.0161218418676
    W0  W125  -0.00978184128426
    W0  W126  0.0109748475531
    W0  W127  -0.0180580455963
    W0  W128  0.058173789333
    W0  W129  0.0435777983962
    W0  W130  0.0679581470283
    W0  W131  0.00945653597981
    W0  W132  0.0627270985361
    W0  W133  0.00612476121989
    W0  W134  0.0346448170912
    W0  W135  -0.0469054782469
    W0  W136  -0.0259784127403
    W0  W137  0.0527704000252
    W0  W138  0.0834217378767
    W0  W139  -0.0268500756088
    W0  W140  -0.0399560718077
    W0  W141  -0.00362908621088
    W0  W142  -0.0197036993691
    W0  W143  0.0096897665995
    W0  W144  0.0134642691109
    W0  W145  -0.0038810729689
    W0  W146  0.0397327126384
    W0  W147  0.0572358921544
    W0  W148  0.01085024487
    W0  W149  -0.0707754927977
    W1  W1  0.26123263187
    W1  W2  0.0226393695588
    W1  W3  0.0279048499548
    W1  W4  0.0309912573679
    W1  W5  -0.00335987164466
    W1  W6  0.0543381848254
    W1  W7  0.00568106059138
    W1  W8  0.0354975224608
    W1  W9  -0.0676027762418
    W1  W10  0.0684830972138
    W1  W11  -0.0206958016242
    W1  W12  0.0262540149177
    W1  W13  -0.00276362797437
    W1  W14  -0.0413581308997
    W1  W15  -0.0961834518878
    W1  W16  -0.0580565655479
    W1  W17  0.00819985576128
    W1  W18  -0.0199806989624
    W1  W19  -0.00582102368138
    W1  W20  0.0295406408264
    W1  W21  -0.0427015542441
    W1  W22  0.02854461115
    W1  W23  0.0982359478412
    W1  W24  -0.00340044373899
    W1  W25  0.0144092536579
    W1  W26  -0.0474739894688
    W1  W27  0.0527778995148
    W1  W28  -0.00956760566987
    W1  W29  0.0062492560823
    W1  W30  0.0791536416512
    W1  W31  -0.0316165439398
    W1  W32  -0.0132339724873
    W1  W33  -0.0150919485241
    W1  W34  0.0550167697302
    W1  W35  0.0532993382017
    W1  W36  -0.0147920409018
    W1  W37  -0.0189204070839
    W1  W38  -0.0244607613872
    W1  W39  -0.0429849956711
    W1  W40  0.00622396159036
    W1  W41  -0.0554087729282
    W1  W42  0.020041398561
    W1  W43  -0.00703199295002
    W1  W44  0.00812409366286
    W1  W45  -0.003809918003
    W1  W46  0.0526170130537
    W1  W47  -0.0567048706449
    W1  W48  -0.0518645908663
    W1  W49  0.00417426016104
    W1  W50  -0.0422887782414
    W1  W51  0.0460054248339
    W1  W52  0.0622473800659
    W1  W53  0.0542557574874
    W1  W54  -0.0892385481292
    W1  W55  -0.0132353801297
    W1  W56  0.0537225978124
    W1  W57  -0.0686422721527
    W1  W58  -0.00884623583726
    W1  W59  -0.11500070319
    W1  W60  0.00314492379524
    W1  W61  -0.050788916466
    W1  W62  -0.00674751020678
    W1  W63  -0.00933951713269
    W1  W64  -0.0252848527381
    W1  W65  -0.0606151485716
    W1  W66  -0.0132469199481
    W1  W67  0.0319433792264
    W1  W68  0.0236039035538
    W1  W69  -0.0308345480804
    W1  W70  -0.00494126536481
    W1  W71  0.0438514102648
    W1  W72  0.0666223779885
    W1  W73  -0.0573133947774
    W1  W74  0.0689485551615
    W1  W75  0.00770663339681
    W1  W76  0.0370274023755
    W1  W77  -0.0171479451473
    W1  W78  -0.0621530678164
    W1  W79  0.00128859500266
    W1  W80  0.0256288815386
    W1  W81  0.0108012051513
    W1  W82  -0.0419457952005
    W1  W83  0.076603675484
    W1  W84  -0.0842408490408
    W1  W85  0.00974655405285
    W1  W86  0.0421731499408
    W1  W87  -0.0138020142921
    W1  W88  0.0166147842807
    W1  W89  0.000192637545117
    W1  W90  0.0241137480388
    W1  W91  0.0963243464391
    W1  W92  0.0268600854859
    W1  W93  -0.02041737418
    W1  W94  -0.0111245924896
    W1  W95  -0.0105082152158
    W1  W96  -0.0029813545399
    W1  W97  0.0722022053835
    W1  W98  -0.00841357313228
    W1  W99  -0.0228939073988
    W1  W100  0.0560895636162
    W1  W101  -0.00627962648261
    W1  W102  -0.00373110715626
    W1  W103  0.0115694668205
    W1  W104  0.0296539120528
    W1  W105  0.0272557959487
    W1  W106  -0.0389381721752
    W1  W107  0.0783310145993
    W1  W108  -0.0286524692684
    W1  W109  -0.0407973662217
    W1  W110  -0.0466073319588
    W1  W111  0.0132899078931
    W1  W112  -0.0167010453869
    W1  W113  -0.0541333910606
    W1  W114  0.0133646168577
    W1  W115  0.0256520692881
    W1  W116  -0.100420124742
    W1  W117  -0.0349409902774
    W1  W118  -0.0530046694956
    W1  W119  -0.122539814479
    W1  W120  -0.0112281338904
    W1  W121  -0.000495088201726
    W1  W122  -0.0367197307179
    W1  W123  -0.057609790488
    W1  W124  -0.115446934928
    W1  W125  0.0290441947018
    W1  W126  0.032539704425
    W1  W127  0.0240926386857
    W1  W128  -0.0595866046747
    W1  W129  0.00589066073028
    W1  W130  0.027827774106
    W1  W131  -0.00105111629308
    W1  W132  0.0358454084377
    W1  W133  -0.0497812248763
    W1  W134  -0.0158017515122
    W1  W135  -0.0205558872008
    W1  W136  -0.0488617156957
    W1  W137  0.106796971423
    W1  W138  -0.0437282194926
    W1  W139  0.0489771648138
    W1  W140  -0.0393419455089
    W1  W141  -0.00445711187837
    W1  W142  0.0326979314064
    W1  W143  -0.0258400214477
    W1  W144  -0.0969578417041
    W1  W145  0.0105849164416
    W1  W146  0.0308626794917
    W1  W147  -0.0345004612751
    W1  W148  0.120333549541
    W1  W149  -0.0603197496744
    W2  W2  0.138431926101
    W2  W3  0.0650282687842
    W2  W4  -0.0451379762754
    W2  W5  0.0694163920567
    W2  W6  0.0389113823831
    W2  W7  0.0140715506723
    W2  W8  -0.0232635768529
    W2  W9  0.0308106913029
    W2  W10  0.043816693275
    W2  W11  -0.0248537858099
    W2  W12  0.0495226425036
    W2  W13  0.0353550548603
    W2  W14  0.0969776339188
    W2  W15  -0.0215387223693
    W2  W16  -0.0740481383133
    W2  W17  -0.029494857542
    W2  W18  -0.012171412892
    W2  W19  0.0749760392997
    W2  W20  -0.0258513360594
    W2  W21  0.0475633927155
    W2  W22  0.0858011419364
    W2  W23  -0.0104286568846
    W2  W24  0.0181749652268
    W2  W25  -0.0117907223381
    W2  W26  0.0365358664024
    W2  W27  0.00746867197151
    W2  W28  -0.0190660772028
    W2  W29  0.000589332499823
    W2  W30  0.0285913421802
    W2  W31  0.0139023304663
    W2  W32  0.034080016561
    W2  W33  0.0631984836555
    W2  W34  -0.0228835742171
    W2  W35  0.0473524685398
    W2  W36  0.0735528739541
    W2  W37  -0.00161087239479
    W2  W38  -0.00571648534923
    W2  W39  0.036405880601
    W2  W40  -0.0548503840488
    W2  W41  -0.00372048419397
    W2  W42  0.070832550081
    W2  W43  -0.0442978066826
    W2  W44  -0.00901555189037
    W2  W45  0.0149502165939
    W2  W46  -0.0105814745428
    W2  W47  -0.0475388085593
    W2  W48  -0.0185490140778
    W2  W49  0.024768524891
    W2  W50  -0.0123971009328
    W2  W51  0.0541146483306
    W2  W52  -0.0348280953876
    W2  W53  0.0337914162277
    W2  W54  -0.0730496966885
    W2  W55  -0.0604195154615
    W2  W56  -0.0239452117492
    W2  W57  0.0371213892624
    W2  W58  0.0237528532427
    W2  W59  -0.00488005091382
    W2  W60  0.111274863404
    W2  W61  0.132024618505
    W2  W62  -0.072389242691
    W2  W63  -0.0518004879776
    W2  W64  -0.00539237557386
    W2  W65  -0.0518351198243
    W2  W66  -0.019712039506
    W2  W67  0.0502155086428
    W2  W68  0.0227225222007
    W2  W69  0.0399037976113
    W2  W70  -0.00759802906174
    W2  W71  0.0781842693634
    W2  W72  0.0424628688437
    W2  W73  -0.0060101152931
    W2  W74  0.040446919179
    W2  W75  0.0179184127168
    W2  W76  -0.0196056467778
    W2  W77  -0.0410430056924
    W2  W78  -0.0772858296806
    W2  W79  -0.0019528103526
    W2  W80  0.0199166718439
    W2  W81  -0.0100020139733
    W2  W82  -0.0776194853828
    W2  W83  0.0659548760443
    W2  W84  -0.00421319918163
    W2  W85  -0.00950978230151
    W2  W86  -0.0177072420457
    W2  W87  0.0581172345747
    W2  W88  0.0122569485872
    W2  W89  0.0596201145875
    W2  W90  0.0367166102875
    W2  W91  0.0432444200838
    W2  W92  -0.0176169154539
    W2  W93  -0.0196886423082
    W2  W94  0.0175758600159
    W2  W95  0.0355352713419
    W2  W96  -0.00793949692647
    W2  W97  -0.0471222670691
    W2  W98  0.0692584309255
    W2  W99  0.0928034424536
    W2  W100  0.0785868956819
    W2  W101  -0.0398705738011
    W2  W102  0.0417393640146
    W2  W103  0.00424622885274
    W2  W104  0.0443327837269
    W2  W105  0.0424696826076
    W2  W106  0.0788884256856
    W2  W107  0.0253690341353
    W2  W108  -0.0678030230929
    W2  W109  0.00967996676492
    W2  W110  0.0135969606903
    W2  W111  -0.00766099406245
    W2  W112  -0.0280101794315
    W2  W113  0.00320814104403
    W2  W114  -0.0782684026329
    W2  W115  -0.0161835779766
    W2  W116  0.0499540044401
    W2  W117  0.106568777669
    W2  W118  -0.0613098592679
    W2  W119  -0.0608336060352
    W2  W120  -0.00508846396014
    W2  W121  -0.0439609583436
    W2  W122  0.00220640400967
    W2  W123  -0.0165843031082
    W2  W124  -0.0217519443814
    W2  W125  -0.0268107157128
    W2  W126  -0.0117076710048
    W2  W127  -0.00589934344553
    W2  W128  -0.0851039822164
    W2  W129  -0.00223023287884
    W2  W130  -0.0823597220394
    W2  W131  0.0324589497845
    W2  W132  -0.021187146007
    W2  W133  0.0236969367168
    W2  W134  -0.0818602060897
    W2  W135  0.0769045104929
    W2  W136  -0.00442108393489
    W2  W137  -0.0330801028532
    W2  W138  -0.0604197463663
    W2  W139  -0.0107495952179
    W2  W140  0.0697440868719
    W2  W141  0.0784611479233
    W2  W142  0.0110485883142
    W2  W143  0.0466760701227
    W2  W144  -0.036543754168
    W2  W145  -0.00694983426646
    W2  W146  -0.037302393704
    W2  W147  -0.0106840348199
    W2  W148  -0.0365867815796
    W2  W149  -0.00126102390946
    W3  W3  0.214650577463
    W3  W4  -0.0139050766531
    W3  W5  0.0486959096334
    W3  W6  0.123592104119
    W3  W7  0.0612956591137
    W3  W8  -0.0405853842486
    W3  W9  0.0627879711643
    W3  W10  -0.0765393378991
    W3  W11  0.00793524190066
    W3  W12  0.00616940900033
    W3  W13  0.0462588218871
    W3  W14  0.111402080119
    W3  W15  0.0384186347554
    W3  W16  -0.0329111598202
    W3  W17  -0.0405624864984
    W3  W18  -0.0320957937099
    W3  W19  0.000919738576733
    W3  W20  -0.0384393076637
    W3  W21  0.0437137480335
    W3  W22  0.128439783351
    W3  W23  -0.0122842181145
    W3  W24  -0.0996406886356
    W3  W25  0.00919854947752
    W3  W26  0.0150680330132
    W3  W27  0.0362874974677
    W3  W28  -0.0133512996896
    W3  W29  -0.0115368079293
    W3  W30  0.0485987369581
    W3  W31  0.00205174118172
    W3  W32  0.076509404575
    W3  W33  0.0473114100819
    W3  W34  0.0517844287721
    W3  W35  0.0509062839502
    W3  W36  -0.0132892622793
    W3  W37  0.00715958349232
    W3  W38  0.0476461040492
    W3  W39  0.078119425676
    W3  W40  -0.0219429989165
    W3  W41  0.00663933877762
    W3  W42  0.0513028476598
    W3  W43  -0.00875371073438
    W3  W44  0.0173489184428
    W3  W45  -0.076194819976
    W3  W46  0.0494790840973
    W3  W47  -0.0105706376407
    W3  W48  -0.0243506713009
    W3  W49  -0.00405213697829
    W3  W50  -0.0177136199325
    W3  W51  -0.0198361134546
    W3  W52  -0.0602910576563
    W3  W53  0.0675433129696
    W3  W54  -0.085957691026
    W3  W55  -0.0559548459239
    W3  W56  -0.0479279754488
    W3  W57  -0.0337147713769
    W3  W58  0.0785745475141
    W3  W59  0.00983395294524
    W3  W60  0.0626170250587
    W3  W61  0.0256640477883
    W3  W62  -0.0156163420863
    W3  W63  -0.0821902897564
    W3  W64  -0.0478799709037
    W3  W65  0.0776778540813
    W3  W66  -0.00904245363676
    W3  W67  -0.00911800521431
    W3  W68  0.0658749106424
    W3  W69  -0.0171093661762
    W3  W70  0.042370060404
    W3  W71  0.121512653951
    W3  W72  -0.014032076193
    W3  W73  -0.0533512433869
    W3  W74  -0.0742264363057
    W3  W75  0.0919077830922
    W3  W76  -0.0326528517363
    W3  W77  -0.04982254733
    W3  W78  -0.0295484909913
    W3  W79  -0.0143287573976
    W3  W80  -0.0529306960384
    W3  W81  0.0022957265104
    W3  W82  -0.0384720915227
    W3  W83  -0.0207650257387
    W3  W84  -0.144100161029
    W3  W85  -0.0257191994924
    W3  W86  -0.0563453919162
    W3  W87  0.0998019699584
    W3  W88  -0.0023035205288
    W3  W89  0.100236584578
    W3  W90  0.0250114435747
    W3  W91  0.00444258139223
    W3  W92  -0.0351178875912
    W3  W93  -0.0335572036441
    W3  W94  0.0490366602565
    W3  W95  0.0108901027349
    W3  W96  -0.0206734595307
    W3  W97  0.017209799789
    W3  W98  0.0121643777663
    W3  W99  0.0767799004631
    W3  W100  -0.016670045679
    W3  W101  -0.0229010305953
    W3  W102  0.0549682041569
    W3  W103  0.0705321069469
    W3  W104  0.0444052760956
    W3  W105  0.096032746929
    W3  W106  0.133288986663
    W3  W107  0.0379428164365
    W3  W108  -0.105656501799
    W3  W109  -0.0818699162424
    W3  W110  0.0556430475608
    W3  W111  -0.10516858643
    W3  W112  -0.0487689203828
    W3  W113  0.0146064232338
    W3  W114  -0.0523294133879
    W3  W115  -0.00503472666458
    W3  W116  0.0485250426004
    W3  W117  -0.0232338762054
    W3  W118  -0.0891412221306
    W3  W119  0.00859131615145
    W3  W120  -0.0270531165817
    W3  W121  -0.0560764735846
    W3  W122  -0.04129722785
    W3  W123  -0.0406631598692
    W3  W124  0.0720930746958
    W3  W125  0.0141094825926
    W3  W126  0.0647351465
    W3  W127  0.0371049731674
    W3  W128  -0.118659824769
    W3  W129  0.0210028802766
    W3  W130  -0.102896604021
    W3  W131  -0.0578291153376
    W3  W132  0.0366446240465
    W3  W133  0.0324834013475
    W3  W134  -0.109626538625
    W3  W135  0.0340154588784
    W3  W136  -0.00781709378737
    W3  W137  0.0691959309994
    W3  W138  0.0137638026878
    W3  W139  -0.0574029102228
    W3  W140  0.075101052602
    W3  W141  0.0885363673654
    W3  W142  0.0393573635013
    W3  W143  -0.088980011604
    W3  W144  -0.03850825232
    W3  W145  -0.0644818043914
    W3  W146  -0.0133825381594
    W3  W147  0.0311096998728
    W3  W148  -0.0139302844286
    W3  W149  -0.0558492777131
    W4  W4  0.2200252882
    W4  W5  -0.104652420195
    W4  W6  0.0335435199616
    W4  W7  -0.0362793439038
    W4  W8  -0.0516926024365
    W4  W9  -0.143984176866
    W4  W10  0.0448592209922
    W4  W11  -0.0247800762583
    W4  W12  -0.0357371369579
    W4  W13  -0.00430748748286
    W4  W14  -0.0386163631027
    W4  W15  -0.0196293073302
    W4  W16  -0.0735436681621
    W4  W17  0.00256520685516
    W4  W18  -0.00441149809156
    W4  W19  0.0189367635219
    W4  W20  -0.0515763531258
    W4  W21  -0.0996571407963
    W4  W22  -0.0474643053895
    W4  W23  0.0659062491825
    W4  W24  -0.0507011946372
    W4  W25  0.0115503264186
    W4  W26  -0.0201055051981
    W4  W27  0.0821431990744
    W4  W28  0.0381664657692
    W4  W29  0.114883726506
    W4  W30  -0.03259638583
    W4  W31  -0.0107702635203
    W4  W32  -0.0652759780507
    W4  W33  -0.0165622882339
    W4  W34  0.0165781887402
    W4  W35  -0.0312938187742
    W4  W36  -0.0837359520304
    W4  W37  0.0291105391282
    W4  W38  -0.0283667691368
    W4  W39  -0.0300089300825
    W4  W40  0.0226529563289
    W4  W41  -0.0212430683454
    W4  W42  0.00585114494979
    W4  W43  0.04272603177
    W4  W44  0.0116254808864
    W4  W45  -0.00499076684012
    W4  W46  0.053438404668
    W4  W47  0.0155682125209
    W4  W48  -0.0575800867414
    W4  W49  -0.0736207532712
    W4  W50  -0.0123395386087
    W4  W51  -0.0374891254821
    W4  W52  0.0202780511476
    W4  W53  0.030135962821
    W4  W54  -0.04800682683
    W4  W55  -0.00684979524331
    W4  W56  -0.00531252344275
    W4  W57  -0.0574722548901
    W4  W58  -0.00385854562568
    W4  W59  -0.0627043038643
    W4  W60  -0.0212544004391
    W4  W61  -0.0268004145709
    W4  W62  -0.0392723941898
    W4  W63  -0.0295238542297
    W4  W64  0.00628255173749
    W4  W65  -0.032305771284
    W4  W66  0.0109512165258
    W4  W67  -0.0139920087844
    W4  W68  -0.0338683753005
    W4  W69  0.0197780980134
    W4  W70  0.00112198556323
    W4  W71  0.018350989031
    W4  W72  -0.0316447798038
    W4  W73  -0.0515447192019
    W4  W74  0.033257659223
    W4  W75  -0.0420296091431
    W4  W76  0.0855342448334
    W4  W77  -0.0181552388353
    W4  W78  0.0318480988754
    W4  W79  -0.00417407967198
    W4  W80  -0.0190480930192
    W4  W81  -0.0718658996321
    W4  W82  0.06051412427
    W4  W83  -0.0171103426861
    W4  W84  0.000810864307743
    W4  W85  -0.0291549668384
    W4  W86  -0.0165426479537
    W4  W87  -0.0384141543492
    W4  W88  -0.0795164335124
    W4  W89  -0.0492079635727
    W4  W90  0.0476587459134
    W4  W91  5.74205357927e-05
    W4  W92  0.0233521572669
    W4  W93  0.0430031141418
    W4  W94  0.0463959101166
    W4  W95  -0.0917780096086
    W4  W96  -0.0573550351369
    W4  W97  0.0934277949019
    W4  W98  -0.0365384793769
    W4  W99  -0.0634276447441
    W4  W100  0.0524189110825
    W4  W101  0.0475417041692
    W4  W102  -0.0280597703593
    W4  W103  0.0197038260294
    W4  W104  0.0163158054468
    W4  W105  0.00632924548488
    W4  W106  -0.0556960036042
    W4  W107  0.0633334658938
    W4  W108  -0.0321084548479
    W4  W109  -0.0503639172141
    W4  W110  -0.0325524795386
    W4  W111  -0.0431740272303
    W4  W112  0.0637178092722
    W4  W113  0.0273443827588
    W4  W114  0.0979757627739
    W4  W115  0.0481410794172
    W4  W116  -0.028750072812
    W4  W117  -0.0399829647565
    W4  W118  0.0422235631207
    W4  W119  0.0521326810115
    W4  W120  0.0110656079896
    W4  W121  0.0486850011688
    W4  W122  0.00764810258055
    W4  W123  -0.00249380457591
    W4  W124  0.00517979625433
    W4  W125  0.0576932521228
    W4  W126  0.0425566275448
    W4  W127  0.0731498966355
    W4  W128  0.0203198233565
    W4  W129  -0.0699402803139
    W4  W130  0.0260406267474
    W4  W131  -0.0776299991368
    W4  W132  0.0171923138176
    W4  W133  -0.012746535617
    W4  W134  0.0488947087853
    W4  W135  -0.0364376091767
    W4  W136  -0.00835756974182
    W4  W137  0.0642440973156
    W4  W138  -0.0952074132956
    W4  W139  -0.0238300656974
    W4  W140  0.0195043352208
    W4  W141  -0.0845095317155
    W4  W142  0.0406114615618
    W4  W143  -0.0340375006552
    W4  W144  -0.0977650434809
    W4  W145  0.0640235239911
    W4  W146  -0.0357504192453
    W4  W147  -0.0303415777417
    W4  W148  0.0832265474675
    W4  W149  0.0257894109427
    W5  W5  0.266076960564
    W5  W6  -0.0276838546927
    W5  W7  0.00442317731074
    W5  W8  0.0756972086995
    W5  W9  0.121379336619
    W5  W10  0.0117598498287
    W5  W11  0.0908369403181
    W5  W12  0.00723076916376
    W5  W13  -0.0499143507249
    W5  W14  0.0236439010778
    W5  W15  -0.0300786535659
    W5  W16  -0.0210923788258
    W5  W17  -0.0575049775074
    W5  W18  -0.0641623886232
    W5  W19  0.0149425103406
    W5  W20  -0.0119162939814
    W5  W21  0.0749059641624
    W5  W22  0.0996886380268
    W5  W23  -0.0120841661884
    W5  W24  -0.0311051060782
    W5  W25  0.0460761991824
    W5  W26  0.0543355013224
    W5  W27  -0.074378639798
    W5  W28  -0.000434023253651
    W5  W29  -0.0823892701125
    W5  W30  0.0072827301162
    W5  W31  0.0575055490742
    W5  W32  0.135422063778
    W5  W33  0.0531059381394
    W5  W34  -0.0893196846815
    W5  W35  0.0378453182656
    W5  W36  0.0806586835962
    W5  W37  -0.00423639156877
    W5  W38  0.00305859754941
    W5  W39  -0.0254695311443
    W5  W40  -0.0506486573558
    W5  W41  0.0762846785956
    W5  W42  0.00518869520923
    W5  W43  -0.0510556928529
    W5  W44  -0.0385324038257
    W5  W45  0.00854466425215
    W5  W46  -0.0346416593982
    W5  W47  -0.0252598035849
    W5  W48  0.0293794595663
    W5  W49  0.0806312726056
    W5  W50  -0.021938684614
    W5  W51  0.0327109603653
    W5  W52  0.0121338323189
    W5  W53  -0.046359920993
    W5  W54  0.00595254513098
    W5  W55  -0.0135040747103
    W5  W56  0.0454256332633
    W5  W57  0.0915384539644
    W5  W58  0.0464286995058
    W5  W59  0.0325283883743
    W5  W60  0.0893050026189
    W5  W61  -0.0108950797679
    W5  W62  0.00377511643489
    W5  W63  0.0518941361853
    W5  W64  0.0214421169109
    W5  W65  -0.0239489853686
    W5  W66  0.024866041129
    W5  W67  0.052139796259
    W5  W68  0.0755641490293
    W5  W69  0.0135725234913
    W5  W70  -0.039647059265
    W5  W71  0.061294712805
    W5  W72  0.0173445148732
    W5  W73  0.0220892276321
    W5  W74  -0.097500018128
    W5  W75  0.0174263154005
    W5  W76  -0.0797108557896
    W5  W77  -0.0790728379028
    W5  W78  -0.0158117685147
    W5  W79  -0.0325468507183
    W5  W80  -0.0088531722503
    W5  W81  0.0132338405883
    W5  W82  -0.126474743555
    W5  W83  0.0115807354859
    W5  W84  -0.0817251639761
    W5  W85  0.0178749224583
    W5  W86  -0.0316982164859
    W5  W87  -0.00600821450022
    W5  W88  0.0382510870017
    W5  W89  0.0224287908697
    W5  W90  -0.0319293022432
    W5  W91  0.0446753743464
    W5  W92  -0.0119282348423
    W5  W93  -0.0238819070741
    W5  W94  -0.0354936451354
    W5  W95  0.0540748102579
    W5  W96  -0.0139305332208
    W5  W97  -0.0998767644618
    W5  W98  0.0252085167405
    W5  W99  0.052798288868
    W5  W100  -0.0489632438362
    W5  W101  -0.0188680680005
    W5  W102  0.010198383921
    W5  W103  -0.0134078638095
    W5  W104  -0.00986127907866
    W5  W105  -0.000384588470954
    W5  W106  0.0787103496026
    W5  W107  0.000487163967191
    W5  W108  -0.0363807584136
    W5  W109  0.0666205686973
    W5  W110  0.0532907623744
    W5  W111  0.00569920872218
    W5  W112  -0.0681050298084
    W5  W113  -0.00372615403671
    W5  W114  -0.0463437935194
    W5  W115  -0.0553983501018
    W5  W116  0.0220108621845
    W5  W117  -0.0398347115735
    W5  W118  -0.108290115237
    W5  W119  -0.0655783041186
    W5  W120  -0.0479807066653
    W5  W121  -0.0836043303936
    W5  W122  -0.0179452026389
    W5  W123  -0.0642336279189
    W5  W124  -0.056481932613
    W5  W125  0.0114361348648
    W5  W126  -0.00783054817802
    W5  W127  0.0277268430205
    W5  W128  -0.0913382883777
    W5  W129  0.0819184563991
    W5  W130  -0.0874147441335
    W5  W131  0.0328907391461
    W5  W132  -0.0678854013737
    W5  W133  0.0148536203383
    W5  W134  -0.0552767865705
    W5  W135  0.036917003581
    W5  W136  0.0865991795018
    W5  W137  -0.0374653366767
    W5  W138  -0.0544976465324
    W5  W139  0.100496046285
    W5  W140  0.0591367497414
    W5  W141  0.0374766489178
    W5  W142  0.000322148246461
    W5  W143  -0.0238852156052
    W5  W144  0.0442029235401
    W5  W145  -0.0639247687999
    W5  W146  0.049779463369
    W5  W147  -0.0643221308951
    W5  W148  -0.0487296019858
    W5  W149  0.0214487948462
    W6  W6  0.247179037585
    W6  W7  0.033552814071
    W6  W8  -0.040960964812
    W6  W9  -0.0443375833381
    W6  W10  -0.0799760841949
    W6  W11  -0.0376238465902
    W6  W12  0.0223028224156
    W6  W13  0.0764130463146
    W6  W14  0.078276542005
    W6  W15  -0.018271351312
    W6  W16  -0.0521425788302
    W6  W17  0.00147048950383
    W6  W18  0.023042633045
    W6  W19  -0.0267918951209
    W6  W20  0.0219192037339
    W6  W21  0.0167319454353
    W6  W22  0.0867705509577
    W6  W23  0.0287292826189
    W6  W24  -0.0259106964247
    W6  W25  0.00478880755953
    W6  W26  -0.00431227143225
    W6  W27  0.0789157526348
    W6  W28  -0.00504833291299
    W6  W29  0.00152316026354
    W6  W30  0.0337774704907
    W6  W31  -0.0236098847512
    W6  W32  0.0049365827494
    W6  W33  0.0207730777068
    W6  W34  0.0719899505064
    W6  W35  0.040587097855
    W6  W36  -0.0444879992638
    W6  W37  0.00576017552969
    W6  W38  0.0499670490038
    W6  W39  0.103876118867
    W6  W40  0.0117554541193
    W6  W41  -0.0648613256582
    W6  W42  0.059970760167
    W6  W43  0.0167531735233
    W6  W44  0.00634210304372
    W6  W45  -0.124353196382
    W6  W46  0.0310341451919
    W6  W47  -0.0301069244465
    W6  W48  -0.0585977152806
    W6  W49  -0.038254208301
    W6  W50  -0.0287215494124
    W6  W51  -0.0511101611222
    W6  W52  -0.053744834909
    W6  W53  0.0705901774477
    W6  W54  -0.119567861394
    W6  W55  -0.0624426113251
    W6  W56  -0.0477550902596
    W6  W57  -0.0883489010514
    W6  W58  0.0400827373623
    W6  W59  -0.0605055590993
    W6  W60  0.0472972952668
    W6  W61  0.00928947278669
    W6  W62  0.00548589797336
    W6  W63  -0.0930054362305
    W6  W64  -0.0399479374487
    W6  W65  0.0651704181106
    W6  W66  -0.0239227790501
    W6  W67  0.00902903732895
    W6  W68  -0.00564739656638
    W6  W69  -0.00470109337182
    W6  W70  0.0135659527948
    W6  W71  0.0580675097251
    W6  W72  0.0171687445926
    W6  W73  -0.0561494714051
    W6  W74  0.00332553468332
    W6  W75  0.0452432913286
    W6  W76  0.0169282102379
    W6  W77  0.009760773643
    W6  W78  -0.0623642183299
    W6  W79  -0.0392352660594
    W6  W80  -0.0356547190692
    W6  W81  0.0117004199033
    W6  W82  -0.023385415005
    W6  W83  -0.0103538056567
    W6  W84  -0.0747381314374
    W6  W85  -0.0484461872828
    W6  W86  -0.0150364408782
    W6  W87  0.0994139127585
    W6  W88  -0.0288981758284
    W6  W89  0.0882566660462
    W6  W90  0.0597062403351
    W6  W91  0.00722845609452
    W6  W92  -0.0456074608261
    W6  W93  -0.016020966702
    W6  W94  0.0828120537142
    W6  W95  -0.0157869220405
    W6  W96  0.0086418269304
    W6  W97  0.074181526301
    W6  W98  -0.00435216454266
    W6  W99  0.0565515022198
    W6  W100  0.015401047468
    W6  W101  0.0210295394799
    W6  W102  0.0200543126729
    W6  W103  0.0819363615466
    W6  W104  0.0664820896013
    W6  W105  0.0525145384267
    W6  W106  0.0937017467424
    W6  W107  0.00904760850985
    W6  W108  -0.109674435872
    W6  W109  -0.0833910019104
    W6  W110  -0.00585425624371
    W6  W111  -0.0893675781828
    W6  W112  0.0216699735854
    W6  W113  0.0287854254111
    W6  W114  -0.0353916290905
    W6  W115  -0.00406026782208
    W6  W116  0.0474014114641
    W6  W117  0.00508671808316
    W6  W118  -0.05290756146
    W6  W119  0.015190301334
    W6  W120  0.0219965637982
    W6  W121  0.009883416488
    W6  W122  -0.0291436651625
    W6  W123  0.0150327319333
    W6  W124  0.0874951349142
    W6  W125  -0.012860856123
    W6  W126  0.0742837723511
    W6  W127  0.00797592806688
    W6  W128  -0.0728275816688
    W6  W129  -0.0128969135055
    W6  W130  -0.0559735124965
    W6  W131  -0.0592773252864
    W6  W132  0.0917687526785
    W6  W133  0.0264987669286
    W6  W134  -0.0630382521748
    W6  W135  0.0238877785388
    W6  W136  -0.0174020962969
    W6  W137  0.114448349433
    W6  W138  0.0167715320682
    W6  W139  -0.0867564153329
    W6  W140  0.0267574904864
    W6  W141  0.0429653232415
    W6  W142  0.061341106471
    W6  W143  -0.0639702284243
    W6  W144  -0.0731002035174
    W6  W145  -0.0805720477516
    W6  W146  -0.0564604346928
    W6  W147  0.0260226750879
    W6  W148  0.0469701148599
    W6  W149  -0.0670951115735
    W7  W7  0.298127666456
    W7  W8  -0.0892847358637
    W7  W9  0.162647587544
    W7  W10  -0.143443417988
    W7  W11  0.0609024378376
    W7  W12  0.146811772666
    W7  W13  0.120365338347
    W7  W14  0.027923778919
    W7  W15  0.117814618015
    W7  W16  -0.0478428886645
    W7  W17  0.121683836335
    W7  W18  -0.0495806828212
    W7  W19  0.0372351723311
    W7  W20  -0.0165448455341
    W7  W21  0.0866349148433
    W7  W22  0.0276118790942
    W7  W23  -0.108590785536
    W7  W24  -0.123440762885
    W7  W25  -0.125742627784
    W7  W26  0.0875849097372
    W7  W27  -0.0449366897693
    W7  W28  -0.0168219725801
    W7  W29  -0.0780121893065
    W7  W30  0.0291140994639
    W7  W31  -0.0117736192789
    W7  W32  -0.0199071894551
    W7  W33  0.0194088813634
    W7  W34  0.0860853755084
    W7  W35  -0.0424309293487
    W7  W36  -0.0199782966477
    W7  W37  0.139348511546
    W7  W38  -0.129629192885
    W7  W39  -0.0505103692234
    W7  W40  -0.069578033255
    W7  W41  -0.046941894073
    W7  W42  0.0484019093134
    W7  W43  0.0333591083835
    W7  W44  0.0452397107709
    W7  W45  0.0344993012817
    W7  W46  0.0840483556903
    W7  W47  0.0455932766831
    W7  W48  -0.0454182210606
    W7  W49  -0.091919539317
    W7  W50  -0.0103571840129
    W7  W51  -0.016800214443
    W7  W52  0.058427097592
    W7  W53  0.0319088325824
    W7  W54  -0.0984437911214
    W7  W55  -0.00163873268172
    W7  W56  -0.169822361601
    W7  W57  0.00746890041478
    W7  W58  -0.058984322317
    W7  W59  0.0495163558213
    W7  W60  -0.0988815396446
    W7  W61  0.0784321866075
    W7  W62  -0.0440067840076
    W7  W63  -0.0230227145142
    W7  W64  -0.0966235565944
    W7  W65  0.047317287685
    W7  W66  -0.171327703388
    W7  W67  -0.0752101666385
    W7  W68  0.0325691772075
    W7  W69  -0.115444958996
    W7  W70  0.192684618063
    W7  W71  -0.00825436345927
    W7  W72  -0.0111926346517
    W7  W73  -0.0193348813055
    W7  W74  0.067812595464
    W7  W75  0.129331558893
    W7  W76  -0.0403524698557
    W7  W77  -0.000451423695617
    W7  W78  0.0213291102408
    W7  W79  -0.0737520788658
    W7  W80  0.00159732920902
    W7  W81  0.0791821787132
    W7  W82  -0.000963050440841
    W7  W83  0.0190554095112
    W7  W84  -0.0649288151067
    W7  W85  -0.0875054598242
    W7  W86  -0.0997596263014
    W7  W87  0.110704469487
    W7  W88  0.0513102816666
    W7  W89  0.0757404014305
    W7  W90  0.0277551861884
    W7  W91  -0.023096666831
    W7  W92  -0.0623149141788
    W7  W93  0.00689500840127
    W7  W94  -0.0791769708015
    W7  W95  0.0875757754387
    W7  W96  0.0562288953951
    W7  W97  0.0487318441973
    W7  W98  0.0461791104656
    W7  W99  0.0623633188509
    W7  W100  -0.0483984417564
    W7  W101  -0.0272622526293
    W7  W102  0.0485441302827
    W7  W103  0.080824032982
    W7  W104  0.0416793858485
    W7  W105  0.0578421175336
    W7  W106  0.0159575577574
    W7  W107  -0.0118979455538
    W7  W108  -0.0267428360729
    W7  W109  -0.0534325831176
    W7  W110  -0.0679934281122
    W7  W111  0.0102022500531
    W7  W112  -0.0731305779917
    W7  W113  -0.0246368597255
    W7  W114  0.00119586437027
    W7  W115  -0.0265023093241
    W7  W116  0.0409322723613
    W7  W117  0.128608630948
    W7  W118  0.0103787679044
    W7  W119  -0.0118612429808
    W7  W120  -0.122363071745
    W7  W121  -0.116719378
    W7  W122  0.00266532802069
    W7  W123  -0.110715205799
    W7  W124  -0.0957116448596
    W7  W125  -0.0229848692064
    W7  W126  -0.0457776178142
    W7  W127  -0.115708394673
    W7  W128  0.00582147668226
    W7  W129  -0.024976032242
    W7  W130  -0.0112126109402
    W7  W131  -0.0176713166996
    W7  W132  0.0574840108866
    W7  W133  0.0123025587039
    W7  W134  -0.156160360843
    W7  W135  -0.00610657921436
    W7  W136  -0.0943458520189
    W7  W137  0.000558428431136
    W7  W138  0.118719847283
    W7  W139  0.0333716604939
    W7  W140  -0.00566144026239
    W7  W141  0.0716337935305
    W7  W142  -0.131082751727
    W7  W143  0.00755308117218
    W7  W144  0.0266431840625
    W7  W145  0.00247767584269
    W7  W146  0.0236219186685
    W7  W147  0.0775256505774
    W7  W148  -0.0771520854661
    W7  W149  0.00907492132401
    W8  W8  0.352075248874
    W8  W9  -0.0960325656094
    W8  W10  -0.0424516819071
    W8  W11  0.0450605010434
    W8  W12  -0.108871420392
    W8  W13  -0.114945812178
    W8  W14  -0.0601764520156
    W8  W15  -0.0486689923707
    W8  W16  0.0750031053403
    W8  W17  -0.0218105492599
    W8  W18  -0.0131739132088
    W8  W19  -0.102564565086
    W8  W20  0.0307222652574
    W8  W21  0.0417625711472
    W8  W22  0.00202643500384
    W8  W23  0.0190168440719
    W8  W24  0.0413788680746
    W8  W25  0.0457439213304
    W8  W26  0.0787213838328
    W8  W27  -0.0789913803288
    W8  W28  0.00611489248075
    W8  W29  -0.117606062465
    W8  W30  -0.0274326307363
    W8  W31  0.011585825894
    W8  W32  0.129710787368
    W8  W33  -0.00740956465425
    W8  W34  -0.0601021557796
    W8  W35  0.086502581489
    W8  W36  0.0382781239475
    W8  W37  -0.107683360431
    W8  W38  0.0282164111275
    W8  W39  0.0188069370553
    W8  W40  0.0734586705737
    W8  W41  0.0220064250063
    W8  W42  -0.0344568755748
    W8  W43  0.0273088322971
    W8  W44  -0.0644268242239
    W8  W45  -0.0862807122552
    W8  W46  -0.0823723490251
    W8  W47  -0.058306813098
    W8  W48  -0.0367247153755
    W8  W49  0.177368499964
    W8  W50  0.0149548944985
    W8  W51  -0.0481732608763
    W8  W52  0.0639657200626
    W8  W53  -0.0460039216526
    W8  W54  -0.0147804823741
    W8  W55  0.0976801962992
    W8  W56  0.164157992058
    W8  W57  0.00262055630822
    W8  W58  -0.0235801332604
    W8  W59  -0.025045755821
    W8  W60  -0.0221765780194
    W8  W61  -0.22350355222
    W8  W62  0.0739076811849
    W8  W63  0.141838145364
    W8  W64  0.0385146574314
    W8  W65  -0.0256127371637
    W8  W66  0.0713976814426
    W8  W67  0.0130597021509
    W8  W68  -0.0134197474046
    W8  W69  0.0362792837634
    W8  W70  -0.169661628829
    W8  W71  0.0721194111343
    W8  W72  0.0256375288699
    W8  W73  0.0770850052845
    W8  W74  -0.0216321392561
    W8  W75  -0.0294348076258
    W8  W76  0.0777200688012
    W8  W77  0.00983368329197
    W8  W78  0.0259224236779
    W8  W79  -0.0365591920973
    W8  W80  0.00677149079573
    W8  W81  -0.0390688855154
    W8  W82  -0.068700164349
    W8  W83  0.0403070439318
    W8  W84  -0.00980068971366
    W8  W85  0.0656901882189
    W8  W86  0.125073450471
    W8  W87  -0.0330197957518
    W8  W88  0.00355291548901
    W8  W89  -0.0124831075941
    W8  W90  -0.0587022420432
    W8  W91  0.0993305307261
    W8  W92  0.0531747560486
    W8  W93  -0.0240483990125
    W8  W94  -0.0395357198288
    W8  W95  0.0559608441734
    W8  W96  -0.00832047829664
    W8  W97  -0.0557969392631
    W8  W98  -0.0859001111547
    W8  W99  0.00552242246719
    W8  W100  -0.129093771431
    W8  W101  0.081001107745
    W8  W102  -0.109112744178
    W8  W103  0.000828952569917
    W8  W104  -0.0164705606226
    W8  W105  -0.041907557379
    W8  W106  0.0519560868335
    W8  W107  -0.0387008971273
    W8  W108  0.085713229241
    W8  W109  0.0109719157221
    W8  W110  0.0134712401769
    W8  W111  0.00941871103267
    W8  W112  -0.110105005654
    W8  W113  0.0318845368497
    W8  W114  -0.0648867796082
    W8  W115  -0.0259765988625
    W8  W116  -0.0517648734711
    W8  W117  -0.0938960745904
    W8  W118  -0.0116438814821
    W8  W119  0.00478281803045
    W8  W120  0.031416106211
    W8  W121  0.180407810781
    W8  W122  -0.0208056763767
    W8  W123  0.00108183495996
    W8  W124  -0.0478599730925
    W8  W125  -0.00205825197973
    W8  W126  -0.0382263115255
    W8  W127  -0.0195184913775
    W8  W128  -0.0374168999696
    W8  W129  0.0147093681764
    W8  W130  -0.0289685375966
    W8  W131  0.0516064005768
    W8  W132  -0.0269994288167
    W8  W133  -0.0931912667238
    W8  W134  0.0469560399297
    W8  W135  0.0172827903937
    W8  W136  0.0273416836962
    W8  W137  -0.0201679751371
    W8  W138  0.0178044522184
    W8  W139  0.100855286438
    W8  W140  -0.0851167084143
    W8  W141  -0.0118645750002
    W8  W142  0.0279986061949
    W8  W143  0.0131867971155
    W8  W144  -0.0440185610062
    W8  W145  -0.0646991486633
    W8  W146  0.0193911947061
    W8  W147  -0.043528987604
    W8  W148  0.0754943484975
    W8  W149  0.0245404987524
    W9  W9  0.567790200105
    W9  W10  -0.148351654547
    W9  W11  0.13877737846
    W9  W12  0.0998810717095
    W9  W13  0.0648504562718
    W9  W14  0.0177779468335
    W9  W15  -0.0146957204215
    W9  W16  0.116976229252
    W9  W17  -0.0667389147483
    W9  W18  0.0430603116112
    W9  W19  0.068169473621
    W9  W20  -0.0586560894776
    W9  W21  0.0883439963947
    W9  W22  0.0514891491709
    W9  W23  -0.0654726137462
    W9  W24  0.0681886012245
    W9  W25  -0.175145437619
    W9  W26  -0.00509146351677
    W9  W27  -0.120643547361
    W9  W28  -0.0426536233834
    W9  W29  0.000775405234219
    W9  W30  0.0899000607895
    W9  W31  -0.0347207538507
    W9  W32  0.0562761799949
    W9  W33  0.0367427378367
    W9  W34  -0.00160536886385
    W9  W35  0.0390524295637
    W9  W36  0.125243675902
    W9  W37  0.152950164899
    W9  W38  0.10499418947
    W9  W39  -0.101744301464
    W9  W40  -0.169883182906
    W9  W41  0.09860402452
    W9  W42  -0.00411923211061
    W9  W43  -0.0557237870811
    W9  W44  0.0378475853442
    W9  W45  0.0719593510196
    W9  W46  0.0119148918098
    W9  W47  0.0832617788181
    W9  W48  0.244391922934
    W9  W49  -0.0179007077937
    W9  W50  -0.0294601622087
    W9  W51  -0.0195365036054
    W9  W52  -0.146272600817
    W9  W53  -0.0640763014653
    W9  W54  0.20589432987
    W9  W55  -0.0408960014216
    W9  W56  -0.162642748372
    W9  W57  0.132145774071
    W9  W58  -0.0138998706438
    W9  W59  0.127253003213
    W9  W60  -0.000595542897958
    W9  W61  0.122348839377
    W9  W62  0.00017924966118
    W9  W63  -0.0826775529388
    W9  W64  -0.0485133871928
    W9  W65  0.00443895344307
    W9  W66  0.00393329765781
    W9  W67  -0.0662389145974
    W9  W68  0.225226669669
    W9  W69  -0.0901876150119
    W9  W70  0.286470058804
    W9  W71  -0.0508851541868
    W9  W72  0.0275773187198
    W9  W73  -0.0242543382595
    W9  W74  -0.015974821311
    W9  W75  0.0200374533378
    W9  W76  -0.207801804229
    W9  W77  -0.142411223285
    W9  W78  -0.0457085829249
    W9  W79  0.00497707879773
    W9  W80  -0.0460954075506
    W9  W81  0.0506609236335
    W9  W82  0.00865701725211
    W9  W83  -0.126457769574
    W9  W84  -0.251659143857
    W9  W85  -0.0568962185802
    W9  W86  -0.191459132178
    W9  W87  0.0937171020528
    W9  W88  0.247541029234
    W9  W89  -0.0426488541391
    W9  W90  -0.142132009886
    W9  W91  -0.0315910249093
    W9  W92  -0.0510560024296
    W9  W93  -0.0112732129285
    W9  W94  -0.0815871089086
    W9  W95  0.133050143233
    W9  W96  0.0822858717278
    W9  W97  -0.0809974439073
    W9  W98  0.0317358494992
    W9  W99  0.0450416132636
    W9  W100  -0.0442908635947
    W9  W101  -0.11157552745
    W9  W102  0.214693527367
    W9  W103  -0.0723807981433
    W9  W104  -0.0541419228578
    W9  W105  -0.0665051671672
    W9  W106  0.0273274040766
    W9  W107  0.0114515319448
    W9  W108  -0.0287781140482
    W9  W109  0.00831263638603
    W9  W110  0.00427064134109
    W9  W111  -0.0199895413692
    W9  W112  0.0688430710438
    W9  W113  -0.0978379366191
    W9  W114  0.0297779809262
    W9  W115  -0.12453189814
    W9  W116  -0.0504640953647
    W9  W117  0.107309833367
    W9  W118  -0.0275419066154
    W9  W119  -0.027466234999
    W9  W120  -0.0946792527429
    W9  W121  -0.242046697877
    W9  W122  -0.053559476756
    W9  W123  0.027161746655
    W9  W124  0.0754442364634
    W9  W125  0.0118041495088
    W9  W126  -0.00251925224084
    W9  W127  -0.110239457585
    W9  W128  0.0778182510265
    W9  W129  0.0768372984567
    W9  W130  -0.000937820137934
    W9  W131  -0.00283158927374
    W9  W132  0.049136333201
    W9  W133  0.133337009868
    W9  W134  -0.176528285816
    W9  W135  0.126499389613
    W9  W136  0.0715767431947
    W9  W137  -0.0315555139888
    W9  W138  0.0671137399688
    W9  W139  -0.0228329256709
    W9  W140  0.0361866603101
    W9  W141  0.141913420973
    W9  W142  -0.104629432961
    W9  W143  -0.136997288579
    W9  W144  0.194349476497
    W9  W145  -0.053406698425
    W9  W146  0.0744470339525
    W9  W147  0.0579815994395
    W9  W148  -0.0767196481677
    W9  W149  -0.00607882799581
    W10  W10  0.459611492593
    W10  W11  -0.0539779580001
    W10  W12  -0.0190616686186
    W10  W13  -0.0464261390875
    W10  W14  0.0429968783003
    W10  W15  -0.0863723825881
    W10  W16  -0.0921469061409
    W10  W17  -0.0371747553095
    W10  W18  -0.0291782509588
    W10  W19  0.132592295119
    W10  W20  0.00137395968283
    W10  W21  -0.158305489339
    W10  W22  -0.0581558033989
    W10  W23  0.126802136308
    W10  W24  0.0102707320074
    W10  W25  0.175789469408
    W10  W26  -0.111379687697
    W10  W27  0.0629473889454
    W10  W28  0.0305367135787
    W10  W29  0.0830902909367
    W10  W30  0.0130398052019
    W10  W31  0.0637865021966
    W10  W32  -0.0242378365189
    W10  W33  -0.0165252618794
    W10  W34  -0.0183851551827
    W10  W35  -0.0168353359174
    W10  W36  -0.0132864394345
    W10  W37  -0.0786392575474
    W10  W38  -0.118270781744
    W10  W39  -0.0811790992403
    W10  W40  -0.0257621161459
    W10  W41  -0.0448625298726
    W10  W42  -0.0607001533751
    W10  W43  -0.0855921685985
    W10  W44  0.00289652934763
    W10  W45  0.165512187808
    W10  W46  0.0222435059099
    W10  W47  -0.0762017328935
    W10  W48  -0.0254747445583
    W10  W49  -0.0142360761364
    W10  W50  -0.0808340216657
    W10  W51  0.0989280909838
    W10  W52  -0.00310397975079
    W10  W53  -0.0285825023659
    W10  W54  0.0122808447337
    W10  W55  0.00706902943587
    W10  W56  0.104311524135
    W10  W57  0.0430084682969
    W10  W58  0.0947312877122
    W10  W59  -0.045331145015
    W10  W60  0.0785542602424
    W10  W61  0.0928629703672
    W10  W62  -0.0289409589333
    W10  W63  -0.00407550822122
    W10  W64  0.0829336857725
    W10  W65  -0.130167572233
    W10  W66  0.0724952765813
    W10  W67  0.11390517794
    W10  W68  -0.00454830514286
    W10  W69  0.0449568260697
    W10  W70  -0.0767345766521
    W10  W71  -0.0325207880567
    W10  W72  0.047306171271
    W10  W73  -0.0081423237026
    W10  W74  0.019071702676
    W10  W75  -0.0722249132687
    W10  W76  0.0182037808169
    W10  W77  -0.0186190894119
    W10  W78  -0.0257537467893
    W10  W79  0.0955722006296
    W10  W80  0.048306291235
    W10  W81  0.020616292864
    W10  W82  -0.0594542552713
    W10  W83  0.114373478643
    W10  W84  0.117727930647
    W10  W85  0.0966364988471
    W10  W86  0.0394779087191
    W10  W87  -0.128716704742
    W10  W88  -0.0243882413744
    W10  W89  -0.0822564902524
    W10  W90  -0.00557321692531
    W10  W91  0.0700199885553
    W10  W92  0.0822203268585
    W10  W93  0.0715217124114
    W10  W94  -0.0306526625782
    W10  W95  -0.0981248879243
    W10  W96  -0.101356945688
    W10  W97  0.0447758800857
    W10  W98  0.0952391472376
    W10  W99  -0.0791883768395
    W10  W100  0.220400018475
    W10  W101  -0.0875199638266
    W10  W102  0.0204831060037
    W10  W103  -0.110175357789
    W10  W104  0.00429643903028
    W10  W105  -0.00307006218577
    W10  W106  -0.113488881321
    W10  W107  0.0922074720967
    W10  W108  -0.036888316089
    W10  W109  0.0618839617272
    W10  W110  0.0569875798762
    W10  W111  0.148256857386
    W10  W112  0.0425078672317
    W10  W113  -0.0642972192691
    W10  W114  0.0117066988713
    W10  W115  0.0437719272741
    W10  W116  -0.0749647923291
    W10  W117  -0.0090199630695
    W10  W118  -0.0133543573364
    W10  W119  -0.119664293969
    W10  W120  -0.0328331730644
    W10  W121  -0.0522580952554
    W10  W122  -0.00848531199638
    W10  W123  -0.0224619391947
    W10  W124  -0.160279651031
    W10  W125  -0.0216923298378
    W10  W126  0.0441196726213
    W10  W127  0.105856494559
    W10  W128  -0.0946717711356
    W10  W129  -0.0508928889677
    W10  W130  0.0446356967236
    W10  W131  0.0108147135324
    W10  W132  -0.169696732922
    W10  W133  -0.0137936555584
    W10  W134  0.0925926459254
    W10  W135  -0.0748750952568
    W10  W136  0.000807129602163
    W10  W137  -0.0426054173996
    W10  W138  -0.179076241905
    W10  W139  0.0659447643796
    W10  W140  0.0298731238563
    W10  W141  -0.103817082785
    W10  W142  0.078484239498
    W10  W143  0.0896885477506
    W10  W144  -0.00474024194288
    W10  W145  0.122314613146
    W10  W146  0.0199587252065
    W10  W147  -0.138117007221
    W10  W148  0.0324224288331
    W10  W149  0.0498990578756
    W11  W11  0.175556923887
    W11  W12  0.0040567901276
    W11  W13  -0.0253141416007
    W11  W14  -0.0569674128279
    W11  W15  -0.0196958214642
    W11  W16  -0.0155357223484
    W11  W17  -0.00346152091502
    W11  W18  -0.0612173551668
    W11  W19  0.0143316397064
    W11  W20  -0.033160849952
    W11  W21  0.0499061593225
    W11  W22  0.0283630212327
    W11  W23  0.013972497472
    W11  W24  -0.0841742762399
    W11  W25  0.00243960922201
    W11  W26  0.0600770975797
    W11  W27  -0.0542253928893
    W11  W28  0.018254481801
    W11  W29  -0.0525919181908
    W11  W30  -0.0391471098366
    W11  W31  0.0382066130255
    W11  W32  0.0757011320509
    W11  W33  -0.0101764592214
    W11  W34  -0.0484434560595
    W11  W35  -0.0107799400768
    W11  W36  0.0175661370457
    W11  W37  0.066853380511
    W11  W38  -0.0489035824597
    W11  W39  -0.0922104106437
    W11  W40  -0.0746849539078
    W11  W41  0.0523784806353
    W11  W42  -0.0188054162289
    W11  W43  0.0219790272701
    W11  W44  -0.026922623424
    W11  W45  0.0120538768255
    W11  W46  -0.0199075465455
    W11  W47  0.0241996614965
    W11  W48  0.0287608366076
    W11  W49  0.0198931554051
    W11  W50  -0.0204994719572
    W11  W51  -0.0514115220081
    W11  W52  -0.00025594065709
    W11  W53  -0.0644086364012
    W11  W54  0.0299571067566
    W11  W55  0.0243617754033
    W11  W56  -0.0123589868833
    W11  W57  0.0579500389652
    W11  W58  -0.0057738398567
    W11  W59  0.020633754834
    W11  W60  -0.0398365271077
    W11  W61  -0.0718075338277
    W11  W62  0.0048579491299
    W11  W63  0.0612589638861
    W11  W64  0.0159116437885
    W11  W65  -0.0304396793621
    W11  W66  0.0223322840799
    W11  W67  -0.0102466388333
    W11  W68  0.0922592455926
    W11  W69  -0.0211028338087
    W11  W70  0.0285234966881
    W11  W71  0.0174037727555
    W11  W72  -0.0107764801477
    W11  W73  -0.00241801242447
    W11  W74  -0.0639179716112
    W11  W75  -0.0227785477671
    W11  W76  -0.0320443017498
    W11  W77  -0.0831256041434
    W11  W78  0.0394724740317
    W11  W79  -0.0650373363694
    W11  W80  -0.0302399072426
    W11  W81  -0.00540801250853
    W11  W82  -0.0752562925799
    W11  W83  -0.0363718923265
    W11  W84  -0.12220971791
    W11  W85  -0.0364346045663
    W11  W86  -0.0788152673853
    W11  W87  -0.0156101088559
    W11  W88  0.0367345562686
    W11  W89  -0.0319429676396
    W11  W90  -0.046891553943
    W11  W91  0.0157104600338
    W11  W92  0.0186851770379
    W11  W93  0.0284938351435
    W11  W94  -0.0422963886524
    W11  W95  0.00917283633547
    W11  W96  0.00199907691448
    W11  W97  -0.0273385449668
    W11  W98  -0.0206342563946
    W11  W99  -0.0111185025356
    W11  W100  -0.0917667283113
    W11  W101  0.0168325817015
    W11  W102  0.000566231058357
    W11  W103  0.000872581727081
    W11  W104  -0.00963128248156
    W11  W105  -0.0580766936994
    W11  W106  0.0213243128131
    W11  W107  0.0101994921596
    W11  W108  -0.0267665905705
    W11  W109  0.0430622557138
    W11  W110  -0.00621142236329
    W11  W111  -0.0267556377355
    W11  W112  0.00234798889562
    W11  W113  0.00741280687216
    W11  W114  0.0625662497478
    W11  W115  -0.0625893642486
    W11  W116  -0.0221763935009
    W11  W117  -0.0597498153325
    W11  W118  -0.0193157058899
    W11  W119  0.0175405743608
    W11  W120  -0.0564156544569
    W11  W121  -0.0645586776513
    W11  W122  -0.0163728386721
    W11  W123  -0.0469372211658
    W11  W124  -0.0279996337566
    W11  W125  0.0315544474216
    W11  W126  0.00589555596678
    W11  W127  -0.00375982662813
    W11  W128  -0.0170607373727
    W11  W129  0.00649744082235
    W11  W130  -0.0227926045163
    W11  W131  -0.0312835972075
    W11  W132  -0.0255646851552
    W11  W133  0.0142491226846
    W11  W134  -0.061315285693
    W11  W135  0.00581072904479
    W11  W136  0.0600299143568
    W11  W137  0.00186691468634
    W11  W138  -0.0398367231878
    W11  W139  0.0885543828386
    W11  W140  0.0131520223275
    W11  W141  -0.0168956552667
    W11  W142  -0.0286012496155
    W11  W143  -0.0800818455811
    W11  W144  0.0670149152479
    W11  W145  -0.0384149455908
    W11  W146  0.0234836538655
    W11  W147  -0.0672322445841
    W11  W148  -0.0184135428513
    W11  W149  0.0635455120369
    W12  W12  0.249013394552
    W12  W13  0.118807262134
    W12  W14  -0.0377168882975
    W12  W15  0.0101294746125
    W12  W16  -0.0858998706604
    W12  W17  0.102565044601
    W12  W18  -0.013077206133
    W12  W19  0.0751439480835
    W12  W20  0.0382184705628
    W12  W21  0.035636021442
    W12  W22  0.0351729482242
    W12  W23  -0.0450570872219
    W12  W24  0.0133663779159
    W12  W25  -0.0908272111591
    W12  W26  0.0193680783528
    W12  W27  -0.00719802198455
    W12  W28  0.0177094996662
    W12  W29  -0.0503304284489
    W12  W30  0.061748141327
    W12  W31  -0.0301518923939
    W12  W32  -0.096307950959
    W12  W33  0.0382554760539
    W12  W34  0.0158421331193
    W12  W35  -0.0276139345348
    W12  W36  -0.015465605122
    W12  W37  0.0926086049127
    W12  W38  -0.0653284729806
    W12  W39  -0.0344239493648
    W12  W40  -0.0654329032958
    W12  W41  -0.0270177350207
    W12  W42  0.0618501003249
    W12  W43  -0.0222170103388
    W12  W44  -0.040671537179
    W12  W45  0.0652614798977
    W12  W46  0.0167259950997
    W12  W47  -0.000245099892642
    W12  W48  0.0337018025866
    W12  W49  -0.0973239204743
    W12  W50  0.0117425530004
    W12  W51  0.0685698820033
    W12  W52  0.0441897998274
    W12  W53  0.0248832483649
    W12  W54  -0.0733967491788
    W12  W55  -0.0566920528811
    W12  W56  -0.143931840423
    W12  W57  0.0238424643449
    W12  W58  -0.0364926606165
    W12  W59  -0.00959548782136
    W12  W60  0.0312861715112
    W12  W61  0.167382131223
    W12  W62  -0.015250828372
    W12  W63  -0.027042093991
    W12  W64  -0.0341568100583
    W12  W65  0.0183138686545
    W12  W66  -0.144897339841
    W12  W67  0.0726698370353
    W12  W68  0.00699673610319
    W12  W69  -0.0454978480962
    W12  W70  0.130041315866
    W12  W71  -0.0896216060204
    W12  W72  0.0562156170807
    W12  W73  -0.0420548626338
    W12  W74  0.0849851793542
    W12  W75  0.00209199080777
    W12  W76  -0.100904769501
    W12  W77  0.025932996161
    W12  W78  -0.054601847045
    W12  W79  -0.0387018839938
    W12  W80  0.0631289605575
    W12  W81  0.0810179572005
    W12  W82  -0.0382907024002
    W12  W83  -0.0244141830972
    W12  W84  0.00317287550566
    W12  W85  -0.114641813754
    W12  W86  -0.051388298884
    W12  W87  0.0504573536277
    W12  W88  0.0530042178323
    W12  W89  0.0453536901594
    W12  W90  0.0651148679315
    W12  W91  0.0154111517181
    W12  W92  -0.0608942505559
    W12  W93  0.0283149427165
    W12  W94  0.00620495548272
    W12  W95  0.00367657275633
    W12  W96  0.0453423845698
    W12  W97  -0.0263364464522
    W12  W98  0.0675969777735
    W12  W99  0.0319772334329
    W12  W100  0.0194752257139
    W12  W101  -0.0120386846656
    W12  W102  0.0443201088624
    W12  W103  -0.0234925292417
    W12  W104  0.0505152097722
    W12  W105  -0.0365308260731
    W12  W106  -0.0564806729503
    W12  W107  -0.0330837842446
    W12  W108  -0.0394372182341
    W12  W109  0.0270506009509
    W12  W110  -0.0938015252611
    W12  W111  0.0370206380094
    W12  W112  0.0153373147414
    W12  W113  -0.0287161956594
    W12  W114  0.0243664496479
    W12  W115  -0.0502162180595
    W12  W116  0.0149227995588
    W12  W117  0.125649068688
    W12  W118  -0.0330695055604
    W12  W119  -0.0954708824914
    W12  W120  -0.0474695367619
    W12  W121  -0.135135167214
    W12  W122  0.0602714477117
    W12  W123  -0.0453688103767
    W12  W124  -0.105145858046
    W12  W125  -0.0192240984652
    W12  W126  -0.024030514957
    W12  W127  -0.0620816437044
    W12  W128  0.0550354657498
    W12  W129  0.0301866477189
    W12  W130  0.025399072064
    W12  W131  0.0400090373998
    W12  W132  0.0826057073129
    W12  W133  0.0256440053124
    W12  W134  -0.0638516826242
    W12  W135  0.0195394276464
    W12  W136  0.0108033248649
    W12  W137  0.0365636799598
    W12  W138  0.0265310123709
    W12  W139  0.0376466320369
    W12  W140  0.00470020779827
    W12  W141  0.0502462811582
    W12  W142  -0.0780932357623
    W12  W143  0.0695522974624
    W12  W144  0.0359222231862
    W12  W145  -0.0323785306057
    W12  W146  -0.00910621253417
    W12  W147  0.022555084106
    W12  W148  -0.0766281237725
    W12  W149  -0.00647122442236
    W13  W13  0.162056714371
    W13  W14  0.0679663959795
    W13  W15  0.0335680712808
    W13  W16  -0.0360715519469
    W13  W17  0.0857945071774
    W13  W18  0.0340971615842
    W13  W19  0.068102543274
    W13  W20  0.0280377862739
    W13  W21  0.0294924541943
    W13  W22  0.0181031797896
    W13  W23  -0.0200960843543
    W13  W24  -0.00172961184288
    W13  W25  -0.0558976616958
    W13  W26  0.00547113505458
    W13  W27  0.0426610108247
    W13  W28  -0.00267950049459
    W13  W29  -0.0276351533075
    W13  W30  0.0291750677683
    W13  W31  -0.0297409813085
    W13  W32  -0.0730718924035
    W13  W33  -0.0042577170989
    W13  W34  0.0961498561221
    W13  W35  -0.00415922310021
    W13  W36  -0.0367701094135
    W13  W37  0.0524860850391
    W13  W38  -0.0492242706789
    W13  W39  0.0462358382057
    W13  W40  -0.0639588604117
    W13  W41  -0.0950052688111
    W13  W42  0.0440558739462
    W13  W43  0.0143278280741
    W13  W44  -0.0021427124034
    W13  W45  -0.00058284656169
    W13  W46  0.00537519558184
    W13  W47  -0.0121983181809
    W13  W48  -0.0008440962347
    W13  W49  -0.0807039037141
    W13  W50  -0.0110583200998
    W13  W51  -0.03377295004
    W13  W52  -0.090657923685
    W13  W53  0.0363803512561
    W13  W54  -0.0694732255991
    W13  W55  -0.0309717083795
    W13  W56  -0.150204794629
    W13  W57  -0.0292677560629
    W13  W58  0.000176290801858
    W13  W59  0.00270155346342
    W13  W60  -0.0207339713524
    W13  W61  0.142355297827
    W13  W62  -0.00802538032987
    W13  W63  -0.0883450811084
    W13  W64  -0.0320384821332
    W13  W65  0.0454773642
    W13  W66  -0.0765426179844
    W13  W67  0.0146412589644
    W13  W68  0.0140843897107
    W13  W69  -0.033208759299
    W13  W70  0.113381579685
    W13  W71  -0.046722659778
    W13  W72  0.0401117649741
    W13  W73  -0.0334741080608
    W13  W74  0.0883106809871
    W13  W75  0.0120007487682
    W13  W76  -0.0242663330657
    W13  W77  0.0431691706868
    W13  W78  -0.0526465004635
    W13  W79  -0.0208327375018
    W13  W80  0.0151639791086
    W13  W81  0.0688444359251
    W13  W82  -0.0167870183545
    W13  W83  -0.00864926321567
    W13  W84  0.000727962204401
    W13  W85  -0.0863641227377
    W13  W86  -0.0466102706162
    W13  W87  0.113579786586
    W13  W88  0.0419625315131
    W13  W89  0.0669544117082
    W13  W90  0.0329917218314
    W13  W91  -0.00887547759666
    W13  W92  -0.0252178702429
    W13  W93  0.0469481314958
    W13  W94  0.0332707589992
    W13  W95  -0.00980412012984
    W13  W96  0.0442661569383
    W13  W97  0.0493950350193
    W13  W98  0.0606026320612
    W13  W99  0.0504930130585
    W13  W100  0.0421654599094
    W13  W101  -0.0297796617601
    W13  W102  0.0684729011801
    W13  W103  0.0143967390414
    W13  W104  0.0761375071818
    W13  W105  -0.0164259455268
    W13  W106  0.0219386873918
    W13  W107  -0.0280112618118
    W13  W108  -0.0728200375157
    W13  W109  -0.0409849981681
    W13  W110  -0.0467848085506
    W13  W111  -0.00993861559361
    W13  W112  0.0501045106232
    W13  W113  -0.00242797873193
    W13  W114  -0.0212550091733
    W13  W115  -0.0437521217348
    W13  W116  0.0344796027905
    W13  W117  0.142044126646
    W13  W118  0.0296918566591
    W13  W119  0.0126130960522
    W13  W120  -0.0137094475512
    W13  W121  -0.0510948200355
    W13  W122  0.0133437659783
    W13  W123  0.0379944811784
    W13  W124  0.0360738826577
    W13  W125  -0.0779974779683
    W13  W126  0.0248707259183
    W13  W127  -0.0953940498448
    W13  W128  0.00133107345153
    W13  W129  -0.0737361391988
    W13  W130  0.00790696948712
    W13  W131  -0.0204925372234
    W13  W132  0.077312321621
    W13  W133  0.0440701421545
    W13  W134  -0.09702103664
    W13  W135  0.0304003247132
    W13  W136  -0.0580699572014
    W13  W137  0.0349786487049
    W13  W138  0.0721236513225
    W13  W139  -0.0815812666263
    W13  W140  -0.0132226852281
    W13  W141  0.0656441225483
    W13  W142  -0.0236294755947
    W13  W143  0.0304609912787
    W13  W144  0.0421917984551
    W13  W145  -0.0366563476122
    W13  W146  -0.0828299029926
    W13  W147  0.0451122796334
    W13  W148  -0.0541307528842
    W13  W149  -0.00558431542526
    W14  W14  0.353022423512
    W14  W15  0.0598005822496
    W14  W16  0.00461647511703
    W14  W17  -0.053519938596
    W14  W18  0.0635383699696
    W14  W19  0.0457039753596
    W14  W20  -0.0206660785021
    W14  W21  -0.0150633369949
    W14  W22  0.0323156266208
    W14  W23  -0.0553737304033
    W14  W24  0.0142321598712
    W14  W25  0.0611025956751
    W14  W26  0.0231401186239
    W14  W27  -0.00674693687764
    W14  W28  -0.0182423204944
    W14  W29  0.0158470216612
    W14  W30  0.0102611242854
    W14  W31  0.0524590278947
    W14  W32  0.11310943874
    W14  W33  0.0781551023596
    W14  W34  0.0645467402467
    W14  W35  0.04327762593
    W14  W36  0.0196832235789
    W14  W37  -0.0223226999558
    W14  W38  0.00268430580876
    W14  W39  0.128206934339
    W14  W40  0.0032061180647
    W14  W41  -0.0928388392299
    W14  W42  0.000570606885842
    W14  W43  -0.0564244690015
    W14  W44  0.0791274825366
    W14  W45  -0.0509541898063
    W14  W46  0.057256903291
    W14  W47  -0.0409583759139
    W14  W48  -0.0710674186572
    W14  W49  -0.0104245033156
    W14  W50  -0.112950117534
    W14  W51  -0.0881917765635
    W14  W52  -0.122770448688
    W14  W53  -0.00200161786442
    W14  W54  -0.0538831367113
    W14  W55  -0.013389742031
    W14  W56  -0.0337429966412
    W14  W57  0.0295928871911
    W14  W58  0.116060629975
    W14  W59  0.0765611161743
    W14  W60  0.0878990008513
    W14  W61  0.11424748094
    W14  W62  -0.00824084752212
    W14  W63  -0.129898161465
    W14  W64  -0.021176013867
    W14  W65  0.0499611092239
    W14  W66  0.00397747725986
    W14  W67  -0.0343439922676
    W14  W68  -0.0236211881114
    W14  W69  0.00182752703182
    W14  W70  0.0376174869285
    W14  W71  0.0524049278811
    W14  W72  -0.00594713703758
    W14  W73  0.0486047757942
    W14  W74  0.00483339729224
    W14  W75  0.12595672233
    W14  W76  0.0110654838739
    W14  W77  -0.00218347908404
    W14  W78  -0.0353757603777
    W14  W79  0.011409051936
    W14  W80  -0.0663002374722
    W14  W81  0.0527293644126
    W14  W82  -0.00443171145522
    W14  W83  0.0707990047769
    W14  W84  0.0607036323246
    W14  W85  0.0747198212238
    W14  W86  -0.0338360499175
    W14  W87  0.132744900041
    W14  W88  0.012406384671
    W14  W89  0.0720478791148
    W14  W90  -0.0269995390009
    W14  W91  -0.0131218115271
    W14  W92  -0.0668396623922
    W14  W93  0.0177911857851
    W14  W94  -0.0326670287293
    W14  W95  0.0984970712838
    W14  W96  -0.044411518084
    W14  W97  0.0920840701771
    W14  W98  0.0888569359571
    W14  W99  0.11414784537
    W14  W100  0.130137950524
    W14  W101  -0.0790915098143
    W14  W102  0.0993554407873
    W14  W103  0.0553998025139
    W14  W104  0.039426832642
    W14  W105  0.122790820675
    W14  W106  0.146364636508
    W14  W107  -0.00466561131362
    W14  W108  -0.107054303964
    W14  W109  -0.0992746493355
    W14  W110  0.118840518587
    W14  W111  0.0543024498785
    W14  W112  -0.0331099557513
    W14  W113  -0.000409992449263
    W14  W114  -0.170907120452
    W14  W115  -0.00921411151884
    W14  W116  0.119412043249
    W14  W117  0.153966317319
    W14  W118  -0.0155660034456
    W14  W119  0.0497835891207
    W14  W120  -0.0750040760893
    W14  W121  -0.00197730658668
    W14  W122  -0.0779228413582
    W14  W123  0.0311994738426
    W14  W124  0.0606698833068
    W14  W125  -0.111812563023
    W14  W126  0.0430832916326
    W14  W127  -0.0383226591018
    W14  W128  -0.145333729232
    W14  W129  -0.0734559398805
    W14  W130  -0.112589121115
    W14  W131  -0.0505679606871
    W14  W132  -0.0809832335597
    W14  W133  0.0747264064547
    W14  W134  -0.0714339701553
    W14  W135  0.0348020527126
    W14  W136  -0.0420043466724
    W14  W137  -0.0816758784135
    W14  W138  0.0337687373977
    W14  W139  -0.0995533554055
    W14  W140  0.0749692502915
    W14  W141  0.0482270517534
    W14  W142  0.0511019277264
    W14  W143  0.0243881261513
    W14  W144  -0.0171550500843
    W14  W145  -0.00863488709156
    W14  W146  -0.0198132129972
    W14  W147  0.0358829572996
    W14  W148  -0.0106742748254
    W14  W149  0.0135735529317
    W15  W15  0.306697249253
    W15  W16  0.0473312516118
    W15  W17  0.0735847142879
    W15  W18  -0.078961268568
    W15  W19  0.00590115613318
    W15  W20  -0.0688816155484
    W15  W21  0.0342560399972
    W15  W22  0.00235231323935
    W15  W23  -0.176761115599
    W15  W24  -0.177408080144
    W15  W25  -0.0305865308379
    W15  W26  0.0704425469751
    W15  W27  -0.0398435461693
    W15  W28  0.0141676635822
    W15  W29  -0.0688754972954
    W15  W30  -0.000890736185512
    W15  W31  0.0041666404322
    W15  W32  0.00624670096171
    W15  W33  0.0298818117975
    W15  W34  0.0579251370731
    W15  W35  -0.0417824533312
    W15  W36  -0.0866557035321
    W15  W37  -0.0209363836508
    W15  W38  -0.0617798889974
    W15  W39  0.0654985821335
    W15  W40  0.0443860598749
    W15  W41  0.0456491233956
    W15  W42  -0.00284490217787
    W15  W43  0.0272438357915
    W15  W44  0.00566128965738
    W15  W45  0.0445369379743
    W15  W46  0.0505767743477
    W15  W47  0.0550534432549
    W15  W48  -0.0269768874999
    W15  W49  -0.013851969038
    W15  W50  0.100710493479
    W15  W51  0.0198176831051
    W15  W52  0.0442523341313
    W15  W53  0.0608596640673
    W15  W54  -0.0515045335734
    W15  W55  0.0574910584745
    W15  W56  -0.0862385836587
    W15  W57  0.00373913186934
    W15  W58  0.0357150758567
    W15  W59  0.151506115168
    W15  W60  -0.0688724238397
    W15  W61  0.0480988446424
    W15  W62  -0.000201770886191
    W15  W63  0.0250953926991
    W15  W64  -0.0499479854488
    W15  W65  0.173509493509
    W15  W66  -0.0938707884894
    W15  W67  -0.0582152667415
    W15  W68  -0.0207491464816
    W15  W69  -0.0434141334986
    W15  W70  0.0576111430145
    W15  W71  0.0513219559487
    W15  W72  -0.106024683571
    W15  W73  0.0223804272983
    W15  W74  -0.0828638062863
    W15  W75  0.131197418262
    W15  W76  -0.0216835176933
    W15  W77  0.063783122901
    W15  W78  0.1305648544
    W15  W79  0.0389887024318
    W15  W80  0.00130651000124
    W15  W81  0.0150788024663
    W15  W82  0.0816133115645
    W15  W83  -0.0520981073577
    W15  W84  0.0485130309723
    W15  W85  -0.0136378158941
    W15  W86  4.33867377673e-05
    W15  W87  0.0551130560698
    W15  W88  -0.0452850178667
    W15  W89  0.100838019394
    W15  W90  0.0226596621104
    W15  W91  -0.0640696912029
    W15  W92  -0.00738715891849
    W15  W93  0.00243088746927
    W15  W94  -0.00927024157636
    W15  W95  0.00152936189517
    W15  W96  -0.046847774074
    W15  W97  -0.0501529772195
    W15  W98  0.0135675009105
    W15  W99  0.0355550017894
    W15  W100  -0.115301597431
    W15  W101  -0.0110494660086
    W15  W102  -0.0142914227146
    W15  W103  0.0330352427714
    W15  W104  0.00791243031415
    W15  W105  0.110284445636
    W15  W106  0.040162337251
    W15  W107  -0.0445530959669
    W15  W108  0.0716056191624
    W15  W109  -0.0758093818471
    W15  W110  0.065972172942
    W15  W111  -0.0330673190662
    W15  W112  -0.181972713992
    W15  W113  0.0376011682203
    W15  W114  -0.0514185881911
    W15  W115  0.0451823701213
    W15  W116  0.0733195505295
    W15  W117  0.00286325742255
    W15  W118  0.035604167627
    W15  W119  0.0946576499171
    W15  W120  -0.0593827548573
    W15  W121  0.00832337976263
    W15  W122  0.055780714388
    W15  W123  -0.0824718633077
    W15  W124  -0.00516343445078
    W15  W125  -0.00197350614755
    W15  W126  -0.0486619065637
    W15  W127  -0.00422101984089
    W15  W128  -0.000374542492782
    W15  W129  -0.0100141298931
    W15  W130  -0.0422967035578
    W15  W131  -0.000639884148734
    W15  W132  -0.0137186798305
    W15  W133  -0.043781811448
    W15  W134  -0.0259445849672
    W15  W135  -0.0460350936967
    W15  W136  -0.079233301429
    W15  W137  -0.0706419860091
    W15  W138  0.157724552595
    W15  W139  -0.0202547472618
    W15  W140  0.0181786105845
    W15  W141  0.0764201170567
    W15  W142  -0.0795394148456
    W15  W143  0.0742981267249
    W15  W144  0.0229115467177
    W15  W145  0.0362175211105
    W15  W146  0.00493431307821
    W15  W147  0.125149163688
    W15  W148  -0.169891579339
    W15  W149  0.0155497781953
    W16  W16  0.327596972239
    W16  W17  -0.0414729317487
    W16  W18  0.088165755518
    W16  W19  -0.0897393134667
    W16  W20  0.0219471637455
    W16  W21  -0.00615795611408
    W16  W22  -0.0634678656054
    W16  W23  -0.055569816814
    W16  W24  0.113435614148
    W16  W25  -0.0412721632009
    W16  W26  -0.044112602928
    W16  W27  -0.0775233856628
    W16  W28  -0.0258497623484
    W16  W29  -0.0307880484068
    W16  W30  0.0438944052269
    W16  W31  -0.0499092190105
    W16  W32  0.0401061606634
    W16  W33  -0.0245581897125
    W16  W34  0.0414909589946
    W16  W35  0.0561618362211
    W16  W36  0.0153066713454
    W16  W37  -0.0749268917939
    W16  W38  0.143355937686
    W16  W39  0.0519629880285
    W16  W40  0.0647585456979
    W16  W41  0.0317782634439
    W16  W42  -0.0808969028411
    W16  W43  -0.00662618417932
    W16  W44  0.0188255669861
    W16  W45  -0.033314529922
    W16  W46  -0.0273513587776
    W16  W47  0.0286955269183
    W16  W48  0.121850256396
    W16  W49  0.0819271061568
    W16  W50  0.0325763460116
    W16  W51  -0.0504843559092
    W16  W52  -0.0719633941182
    W16  W53  -0.0324657147477
    W16  W54  0.166074343041
    W16  W55  0.0791721119327
    W16  W56  0.0356036854105
    W16  W57  0.00250802507794
    W16  W58  0.0040141363597
    W16  W59  0.0922685144839
    W16  W60  -0.0658170809755
    W16  W61  -0.0894707025196
    W16  W62  0.112432693754
    W16  W63  0.0112488202971
    W16  W64  -0.00728756256371
    W16  W65  0.0980339655708
    W16  W66  0.0697633839033
    W16  W67  -0.0706959737092
    W16  W68  0.0290466816686
    W16  W69  -0.0337669554681
    W16  W70  0.0335111237576
    W16  W71  -0.0472492372975
    W16  W72  -0.0123787232498
    W16  W73  0.0566785514615
    W16  W74  -0.0348777911731
    W16  W75  0.015868214873
    W16  W76  -0.0326553491592
    W16  W77  0.0444424287709
    W16  W78  0.0336063723676
    W16  W79  0.0743371124123
    W16  W80  -0.0236191786234
    W16  W81  0.0214753962983
    W16  W82  0.106560648138
    W16  W83  -0.0812646884493
    W16  W84  -0.0206513405887
    W16  W85  0.0725254646465
    W16  W86  0.0587106848577
    W16  W87  0.0206928633691
    W16  W88  0.103661333494
    W16  W89  -0.0320529539103
    W16  W90  -0.127795663875
    W16  W91  -0.0246039321552
    W16  W92  0.0132678242847
    W16  W93  -0.026305613541
    W16  W94  -0.0387542582259
    W16  W95  0.0706553323029
    W16  W96  0.0302881715586
    W16  W97  -0.0330896922824
    W16  W98  -0.060515037249
    W16  W99  -0.0213896652091
    W16  W100  -0.0899188676211
    W16  W101  -0.0215703121424
    W16  W102  0.0409499547133
    W16  W103  -0.0551299894092
    W16  W104  -0.0696833916124
    W16  W105  -0.0273265695454
    W16  W106  0.000537156424553
    W16  W107  -0.0584910993119
    W16  W108  0.120952263103
    W16  W109  -0.052509511385
    W16  W110  0.0582068838845
    W16  W111  0.0160199581152
    W16  W112  -0.0282539273552
    W16  W113  -0.0377717631222
    W16  W114  -0.0560305315791
    W16  W115  -0.015115966518
    W16  W116  -0.0614969967149
    W16  W117  -0.0267539127553
    W16  W118  0.057197705183
    W16  W119  0.060983378889
    W16  W120  0.0244427078617
    W16  W121  0.0803104159598
    W16  W122  -0.0352717197682
    W16  W123  0.0974410704045
    W16  W124  0.110108762449
    W16  W125  -0.0260441196961
    W16  W126  -0.011544292685
    W16  W127  -0.0673478642851
    W16  W128  0.0832886886131
    W16  W129  0.0332636223361
    W16  W130  0.0497732133586
    W16  W131  0.0274452095311
    W16  W132  0.026144519013
    W16  W133  -0.00472020663156
    W16  W134  0.0459167100159
    W16  W135  0.0200253856688
    W16  W136  -0.0047352294037
    W16  W137  -0.0386398955762
    W16  W138  0.169286834848
    W16  W139  -0.0648742812223
    W16  W140  -0.0912078383791
    W16  W141  0.0527523391377
    W16  W142  -0.0129303981075
    W16  W143  -0.0273907805079
    W16  W144  0.0841606760044
    W16  W145  -0.0305605287779
    W16  W146  0.0484893132741
    W16  W147  0.0987414791011
    W16  W148  0.00771488945016
    W16  W149  -0.0418183285611
    W17  W17  0.209444324989
    W17  W18  -0.0371383682931
    W17  W19  0.0171861625639
    W17  W20  0.0585100550362
    W17  W21  0.0473049150051
    W17  W22  -0.0305054596525
    W17  W23  -0.0328947762079
    W17  W24  -0.0723640002736
    W17  W25  -0.0267005183849
    W17  W26  0.0382244569156
    W17  W27  0.0178068442292
    W17  W28  0.00603494175279
    W17  W29  -0.101820693484
    W17  W30  -0.0197535652479
    W17  W31  -0.0133469697903
    W17  W32  -0.0939856047049
    W17  W33  -0.0549203083908
    W17  W34  0.0701205320026
    W17  W35  -0.055150582099
    W17  W36  -0.0654064054922
    W17  W37  0.0202667522331
    W17  W38  -0.146834691795
    W17  W39  -0.00716843853858
    W17  W40  -0.0160405880789
    W17  W41  -0.083327696344
    W17  W42  0.0161432518399
    W17  W43  0.0577029873003
    W17  W44  -0.0282752581031
    W17  W45  0.031511218146
    W17  W46  -0.0177922733663
    W17  W47  -0.00717934762728
    W17  W48  -0.0641748659329
    W17  W49  -0.0453876142694
    W17  W50  0.0427211967479
    W17  W51  0.00650477713218
    W17  W52  0.0492035427179
    W17  W53  0.0249664569335
    W17  W54  -0.096292654182
    W17  W55  0.0365371639276
    W17  W56  -0.0776748524261
    W17  W57  -0.044707965191
    W17  W58  -0.059556944868
    W17  W59  -0.0138050120374
    W17  W60  -0.116205643428
    W17  W61  0.0266610095983
    W17  W62  0.0043968741317
    W17  W63  0.04599936657
    W17  W64  -0.01881436264
    W17  W65  0.0318443922086
    W17  W66  -0.106499067874
    W17  W67  0.0106680315359
    W17  W68  -0.0439816341985
    W17  W69  -0.0429583967415
    W17  W70  0.019064231216
    W17  W71  -0.0607580584523
    W17  W72  0.0150701226678
    W17  W73  -0.000108657027663
    W17  W74  0.0743411747384
    W17  W75  0.00671353684947
    W17  W76  0.0285546611294
    W17  W77  0.0983256769192
    W17  W78  0.0218109823627
    W17  W79  -0.038496592741
    W17  W80  0.0593733439129
    W17  W81  0.067913443414
    W17  W82  -0.0280916738216
    W17  W83  0.0361231448077
    W17  W84  0.0770598056184
    W17  W85  -0.0686472832807
    W17  W86  0.027175893393
    W17  W87  0.0267518970578
    W17  W88  -0.0210067753138
    W17  W89  0.0566992063487
    W17  W90  0.0543008860289
    W17  W91  -0.00429157184145
    W17  W92  0.0193265819432
    W17  W93  0.0386284273425
    W17  W94  -0.00657017259424
    W17  W95  -0.0333431979559
    W17  W96  0.0503985666417
    W17  W97  0.0231165907031
    W17  W98  0.026296991663
    W17  W99  -0.00123678554834
    W17  W100  -0.0451931193428
    W17  W101  0.0187379999117
    W17  W102  -0.0517465394906
    W17  W103  0.0260614348132
    W17  W104  0.0566376682022
    W17  W105  -0.0284542582061
    W17  W106  -0.0434732671793
    W17  W107  -0.0544299596689
    W17  W108  0.0263903654959
    W17  W109  0.0139112800381
    W17  W110  -0.0816964623554
    W17  W111  0.0267165198769
    W17  W112  -0.0302879406753
    W17  W113  0.0146283192872
    W17  W114  0.0112197611594
    W17  W115  -0.00596813972506
    W17  W116  0.0119349792401
    W17  W117  0.0554566313272
    W17  W118  0.0602328193878
    W17  W119  0.000632074072877
    W17  W120  -0.00580857777648
    W17  W121  0.012262692801
    W17  W122  0.055186055946
    W17  W123  -0.03079029867
    W17  W124  -0.0751366344067
    W17  W125  -0.0585758472604
    W17  W126  -0.0380734554432
    W17  W127  -0.0894022910954
    W17  W128  0.0278659075197
    W17  W129  -0.0641150043918
    W17  W130  0.0534713817325
    W17  W131  0.0242082240898
    W17  W132  0.0455163418367
    W17  W133  -0.0474640833712
    W17  W134  -0.0322534568684
    W17  W135  -0.0507422150356
    W17  W136  -0.0948886226452
    W17  W137  0.012281404911
    W17  W138  0.0981356631345
    W17  W139  0.023753316972
    W17  W140  -0.0793522828195
    W17  W141  0.00524997238043
    W17  W142  -0.0671339821775
    W17  W143  0.0913020280323
    W17  W144  0.0354717257063
    W17  W145  -0.00101341700592
    W17  W146  -0.0527683728079
    W17  W147  0.0238362147042
    W17  W148  -0.0713366544364
    W17  W149  0.0177870434675
    W18  W18  0.245526948345
    W18  W19  -0.0385847319287
    W18  W20  0.0530144375242
    W18  W21  -0.0578014793406
    W18  W22  -0.0703825564849
    W18  W23  -4.06333774389e-05
    W18  W24  0.226488965444
    W18  W25  -0.0521328772024
    W18  W26  -0.0397269408518
    W18  W27  -0.0250875596818
    W18  W28  -0.00434839263672
    W18  W29  0.059551441762
    W18  W30  0.0266216001792
    W18  W31  -0.0413357085279
    W18  W32  -0.0187885552348
    W18  W33  0.028049064909
    W18  W34  0.0148926012194
    W18  W35  0.0381984515381
    W18  W36  0.0252068062097
    W18  W37  0.00953639947622
    W18  W38  0.125612575048
    W18  W39  0.0576382709706
    W18  W40  0.0476618532431
    W18  W41  -0.0638884114046
    W18  W42  -0.021859787804
    W18  W43  -0.0295780031246
    W18  W44  0.0317384612957
    W18  W45  -0.0715373567426
    W18  W46  -0.00101041657699
    W18  W47  -0.00443322410035
    W18  W48  0.0555679974649
    W18  W49  -0.026271626081
    W18  W50  -0.0675292495583
    W18  W51  -0.0868389769464
    W18  W52  -0.0719142325688
    W18  W53  -0.0452514524363
    W18  W54  0.078613464045
    W18  W55  -0.00840628167529
    W18  W56  -0.0131498573344
    W18  W57  0.0025211697996
    W18  W58  -0.0145883898669
    W18  W59  -0.0045539930398
    W18  W60  0.0411192539916
    W18  W61  0.0231028563024
    W18  W62  0.0627899426886
    W18  W63  -0.081123419329
    W18  W64  -0.000729145438099
    W18  W65  0.00883536133575
    W18  W66  0.0190974571668
    W18  W67  -0.0204679661212
    W18  W68  -0.0569145796887
    W18  W69  0.00231011494492
    W18  W70  0.0562507111983
    W18  W71  -0.111308761344
    W18  W72  0.0436162510196
    W18  W73  0.0387844965295
    W18  W74  0.0977825555619
    W18  W75  -0.0237977247456
    W18  W76  -0.00431374432884
    W18  W77  0.0361268899812
    W18  W78  -0.063275686016
    W18  W79  0.00395585987006
    W18  W80  -0.0244823799805
    W18  W81  0.0270226209005
    W18  W82  0.0856902009466
    W18  W83  -0.0342370693473
    W18  W84  0.0641345523144
    W18  W85  0.0262129721496
    W18  W86  0.0157358202663
    W18  W87  0.0497575174165
    W18  W88  0.0717904257444
    W18  W89  -0.0550108610578
    W18  W90  -0.0517136721711
    W18  W91  -0.010849613918
    W18  W92  -0.0708417329168
    W18  W93  0.0130196416062
    W18  W94  -0.009712310703
    W18  W95  0.0788554154277
    W18  W96  0.0349860372495
    W18  W97  0.0664855635912
    W18  W98  -0.0126054978223
    W18  W99  0.00766123488481
    W18  W100  0.0780376144952
    W18  W101  0.00557448912896
    W18  W102  0.0626363414436
    W18  W103  -0.0260686921892
    W18  W104  -0.0218198011848
    W18  W105  -0.0464596517832
    W18  W106  -0.0184857389527
    W18  W107  -0.0519139211599
    W18  W108  0.00131684612857
    W18  W109  -0.0461385304707
    W18  W110  -0.0154550433915
    W18  W111  0.0678950852179
    W18  W112  0.107818558345
    W18  W113  -0.0269301997115
    W18  W114  -0.0423043647109
    W18  W115  -0.0364454871719
    W18  W116  0.00237285120146
    W18  W117  0.12000233332
    W18  W118  0.0436355899932
    W18  W119  0.0252088835752
    W18  W120  0.01969784196
    W18  W121  0.0575126537586
    W18  W122  -0.0383017845197
    W18  W123  0.135276899963
    W18  W124  0.0839187809728
    W18  W125  -0.0569124419659
    W18  W126  0.0145802643744
    W18  W127  -0.0775391143848
    W18  W128  0.0891796099153
    W18  W129  -0.0100813439114
    W18  W130  0.0388639014734
    W18  W131  -0.00197847183502
    W18  W132  0.0530697758593
    W18  W133  0.0629555101715
    W18  W134  0.0537529629901
    W18  W135  0.0536237450274
    W18  W136  0.0403371713221
    W18  W137  -0.00773163505206
    W18  W138  0.0431940145557
    W18  W139  -0.0865370949307
    W18  W140  -0.0378697392029
    W18  W141  -0.0161232944252
    W18  W142  0.0244270346252
    W18  W143  0.00170699292537
    W18  W144  -0.00267260636663
    W18  W145  -0.0345183796212
    W18  W146  0.00114173631334
    W18  W147  0.0444606809275
    W18  W148  0.0972654420002
    W18  W149  -0.0180704921722
    W19  W19  0.222918470952
    W19  W20  -0.0764562850214
    W19  W21  -0.0238744417367
    W19  W22  0.00824356538073
    W19  W23  0.0275019595927
    W19  W24  -0.0481146441429
    W19  W25  -0.00732370932271
    W19  W26  0.0107159984651
    W19  W27  0.0330557266233
    W19  W28  0.0220837381801
    W19  W29  0.043058039975
    W19  W30  0.00571059181605
    W19  W31  0.0166104263541
    W19  W32  -0.0370281241373
    W19  W33  0.0103691405567
    W19  W34  0.00799594722058
    W19  W35  8.06548103627e-05
    W19  W36  0.0064266439922
    W19  W37  0.0370729868489
    W19  W38  -0.109482780609
    W19  W39  -0.0598869851578
    W19  W40  -0.128167644403
    W19  W41  -0.0104185620319
    W19  W42  0.026632051988
    W19  W43  -0.0201455831034
    W19  W44  -0.0259018670201
    W19  W45  0.136804012015
    W19  W46  -0.00460253221106
    W19  W47  -0.0221693030828
    W19  W48  0.0292720819613
    W19  W49  -0.0349579104462
    W19  W50  -0.0081738909355
    W19  W51  0.0335579564979
    W19  W52  -0.0904929675771
    W19  W53  0.00775687114721
    W19  W54  -0.0232275239056
    W19  W55  -0.0162260546955
    W19  W56  -0.0921075527436
    W19  W57  0.0601542444133
    W19  W58  0.0328000092286
    W19  W59  0.0224140282727
    W19  W60  0.0281178920683
    W19  W61  0.185884788516
    W19  W62  -0.0854744226551
    W19  W63  -0.0486649619234
    W19  W64  0.028272531815
    W19  W65  -0.0810967778696
    W19  W66  -0.000149967771857
    W19  W67  0.0584821143923
    W19  W68  0.0846619504826
    W19  W69  0.0259402304457
    W19  W70  0.0728368109934
    W19  W71  0.0233893838431
    W19  W72  0.0325951831273
    W19  W73  -0.0372856808787
    W19  W74  0.0644118650818
    W19  W75  -0.0611584216897
    W19  W76  -0.0173073066665
    W19  W77  -0.0611909499737
    W19  W78  -0.0227961062009
    W19  W79  0.0303191944172
    W19  W80  0.0335705564199
    W19  W81  -0.0141947981509
    W19  W82  -0.058818632994
    W19  W83  0.0221807909786
    W19  W84  -0.0135412562056
    W19  W85  -0.0520706888967
    W19  W86  -0.0713324751354
    W19  W87  0.0184825185052
    W19  W88  0.0375584107162
    W19  W89  -0.0107987207327
    W19  W90  0.00577478736112
    W19  W91  0.0455081259593
    W19  W92  0.059597074799
    W19  W93  0.0828306198193
    W19  W94  0.00836605369465
    W19  W95  -0.060882765009
    W19  W96  -0.0450421920569
    W19  W97  -0.0192750372977
    W19  W98  0.0880981708559
    W19  W99  0.0139986162786
    W19  W100  0.104777880068
    W19  W101  -0.0651606781841
    W19  W102  0.0775941839917
    W19  W103  -0.0708459004522
    W19  W104  0.0554871115869
    W19  W105  -0.0336028950754
    W19  W106  -0.0157315503556
    W19  W107  0.0621683203716
    W19  W108  -0.0680696402438
    W19  W109  0.0166402959357
    W19  W110  -0.00415857905734
    W19  W111  0.00768928317696
    W19  W112  0.0379195630593
    W19  W113  -0.0128630845732
    W19  W114  0.0266777493141
    W19  W115  -0.0315026872822
    W19  W116  -0.0253069707124
    W19  W117  0.114247033222
    W19  W118  0.023355082772
    W19  W119  -0.0195912755985
    W19  W120  -0.0406634820739
    W19  W121  -0.0868995767306
    W19  W122  0.0276569217461
    W19  W123  -0.00595023812392
    W19  W124  -0.0511195035903
    W19  W125  -0.023369926351
    W19  W126  0.0122269168499
    W19  W127  -0.00608676137707
    W19  W128  -0.040626498897
    W19  W129  -0.0989629158856
    W19  W130  -0.0116693545721
    W19  W131  -0.0114490500608
    W19  W132  -0.0502276839734
    W19  W133  0.0283466822994
    W19  W134  -0.0825920672134
    W19  W135  0.0438603023364
    W19  W136  -0.0185210325238
    W19  W137  -0.0395829135475
    W19  W138  -0.0983323627245
    W19  W139  -0.00380957468154
    W19  W140  0.0524319754993
    W19  W141  0.0361598694694
    W19  W142  -0.010122395698
    W19  W143  0.0533702691372
    W19  W144  0.03834378744
    W19  W145  0.0627333235371
    W19  W146  -0.0733634494017
    W19  W147  -0.0513541292175
    W19  W148  -0.0738729676181
    W19  W149  0.0812920606187
    W20  W20  0.177176265847
    W20  W21  0.0310020870655
    W20  W22  -0.0167682013307
    W20  W23  0.0351328471977
    W20  W24  0.0906025076608
    W20  W25  0.0545937221791
    W20  W26  -0.0570845403092
    W20  W27  0.0161877744956
    W20  W28  -0.0259584022674
    W20  W29  -0.0870241405126
    W20  W30  0.00126141109815
    W20  W31  -0.00172763214885
    W20  W32  -0.0428404229905
    W20  W33  -0.057165751616
    W20  W34  0.0317655118556
    W20  W35  -0.0221305108507
    W20  W36  0.00144492013273
    W20  W37  -0.0373279764441
    W20  W38  -0.00264487363425
    W20  W39  0.0434547905025
    W20  W40  0.0356811842805
    W20  W41  -0.0950018426408
    W20  W42  -0.0220547767654
    W20  W43  -0.00541241005462
    W20  W44  -0.00286484674491
    W20  W45  -0.0579442872713
    W20  W46  -0.0506845237518
    W20  W47  -0.0388004398857
    W20  W48  -0.0239377370342
    W20  W49  -0.00548909535927
    W20  W50  -0.0282532562919
    W20  W51  0.0025411188247
    W20  W52  0.0110272198179
    W20  W53  -0.0265024842105
    W20  W54  -9.59236880804e-05
    W20  W55  -0.00514875409911
    W20  W56  0.0387663300944
    W20  W57  -0.0498752957933
    W20  W58  -0.0233410023956
    W20  W59  -0.063074341278
    W20  W60  -0.0242357762564
    W20  W61  -0.0414753962095
    W20  W62  0.0804963074425
    W20  W63  0.020801796048
    W20  W64  0.00880586163091
    W20  W65  0.0214293781351
    W20  W66  -0.0182328457779
    W20  W67  0.036414656912
    W20  W68  -0.0735147399896
    W20  W69  -0.0225167686796
    W20  W70  -0.0648964287521
    W20  W71  -0.1213428379
    W20  W72  0.0567603449689
    W20  W73  0.0267287317007
    W20  W74  0.022038021004
    W20  W75  -0.00824296429314
    W20  W76  -0.00954672636904
    W20  W77  0.107686565379
    W20  W78  -0.0603535843081
    W20  W79  -0.0256772906487
    W20  W80  0.0294134459878
    W20  W81  0.109232938101
    W20  W82  -0.0467831157271
    W20  W83  0.0479153990468
    W20  W84  0.0928969410193
    W20  W85  0.0205942072262
    W20  W86  0.0707288697923
    W20  W87  -0.00749691133352
    W20  W88  0.00201515781116
    W20  W89  0.0248394550804
    W20  W90  0.0117713072448
    W20  W91  -0.0197139790722
    W20  W92  -0.0279412518731
    W20  W93  -0.0195376002291
    W20  W94  -0.00105252636558
    W20  W95  0.00997890810506
    W20  W96  0.0890800975554
    W20  W97  0.0367466292314
    W20  W98  0.0143121018818
    W20  W99  -0.00894480977555
    W20  W100  0.00736920051764
    W20  W101  0.00236526616793
    W20  W102  -0.038855123427
    W20  W103  0.0161606567428
    W20  W104  0.00591416063407
    W20  W105  -0.0451762450426
    W20  W106  -0.0265040746903
    W20  W107  -0.0802003732523
    W20  W108  0.00651021911835
    W20  W109  0.0607088097806
    W20  W110  -0.0370193579203
    W20  W111  0.0745782793698
    W20  W112  0.0516472618846
    W20  W113  -0.0192078218582
    W20  W114  -0.0403603923266
    W20  W115  -0.0154623858017
    W20  W116  0.0198048510162
    W20  W117  -0.00546553840372
    W20  W118  -0.00656881504524
    W20  W119  -0.0572647826369
    W20  W120  0.0493549044047
    W20  W121  0.0106978370675
    W20  W122  -0.00844284005928
    W20  W123  0.0493752257078
    W20  W124  0.00165885006646
    W20  W125  -0.0817815246344
    W20  W126  0.00659561078191
    W20  W127  -0.0627427110319
    W20  W128  0.00997058605703
    W20  W129  0.0329652655728
    W20  W130  0.0613749159695
    W20  W131  0.0449081960947
    W20  W132  0.0323483562843
    W20  W133  0.000117657660925
    W20  W134  0.043887414573
    W20  W135  -0.0490084156692
    W20  W136  -0.0157005998335
    W20  W137  0.0353938874143
    W20  W138  0.0813268121724
    W20  W139  -0.00244192477501
    W20  W140  -0.0848821127756
    W20  W141  -0.0345395871311
    W20  W142  0.0152712736343
    W20  W143  0.0318133224216
    W20  W144  0.0560872204919
    W20  W145  -0.0712927627511
    W20  W146  0.00321216708897
    W20  W147  -0.00932484549759
    W20  W148  0.0202400788747
    W20  W149  -0.0610143148648
    W21  W21  0.282732158972
    W21  W22  0.0938925642196
    W21  W23  -0.0430542813011
    W21  W24  -0.074394892551
    W21  W25  -0.0457036614187
    W21  W26  0.0737695676177
    W21  W27  -0.00401038999914
    W21  W28  -0.0784264336748
    W21  W29  -0.122634074544
    W21  W30  -0.0579509603888
    W21  W31  0.0112398336284
    W21  W32  0.0148182641747
    W21  W33  -0.0562379894802
    W21  W34  -0.00504901218899
    W21  W35  -0.0147454883938
    W21  W36  0.101930846818
    W21  W37  0.0107857947811
    W21  W38  -0.0385582791241
    W21  W39  0.0359106688627
    W21  W40  -0.0826131734593
    W21  W41  0.01083982582
    W21  W42  0.0685234965204
    W21  W43  0.0538671241978
    W21  W44  -0.00969454696733
    W21  W45  -0.0386597843609
    W21  W46  -0.106465577586
    W21  W47  0.00375051206168
    W21  W48  -0.0268392466318
    W21  W49  0.0745504461994
    W21  W50  0.0816390755769
    W21  W51  0.0309524145597
    W21  W52  -0.0401952133417
    W21  W53  0.023963355353
    W21  W54  -0.0280566751122
    W21  W55  -0.0261149826492
    W21  W56  -0.0340512385665
    W21  W57  -0.0113256142632
    W21  W58  -0.0757795453627
    W21  W59  0.00706152131124
    W21  W60  -0.0686612251415
    W21  W61  0.00315051261854
    W21  W62  -0.0631746428572
    W21  W63  0.0423404972471
    W21  W64  -0.020932850829
    W21  W65  -0.0196266302343
    W21  W66  -0.0192317930572
    W21  W67  -0.0352003831852
    W21  W68  0.0375399754006
    W21  W69  0.00964447619192
    W21  W70  -0.0647109056
    W21  W71  0.0720518803984
    W21  W72  0.00206480342278
    W21  W73  0.0166058712262
    W21  W74  -0.0208138024563
    W21  W75  0.0212151224493
    W21  W76  0.00390690249916
    W21  W77  0.0111813708513
    W21  W78  -0.0302178331259
    W21  W79  -0.0543196052471
    W21  W80  0.0209035988737
    W21  W81  0.00525021175608
    W21  W82  -0.110583805927
    W21  W83  0.0667765410733
    W21  W84  -0.0333182411144
    W21  W85  -0.0431511378374
    W21  W86  -0.0116397353169
    W21  W87  0.058684653571
    W21  W88  -0.0119924087003
    W21  W89  0.109394062631
    W21  W90  0.0318047324685
    W21  W91  -0.0493058305666
    W21  W92  0.0238559731265
    W21  W93  -0.0777769255426
    W21  W94  0.0204102655358
    W21  W95  0.0329361672488
    W21  W96  0.118978211993
    W21  W97  -0.104067917032
    W21  W98  0.019756818753
    W21  W99  0.0936030904603
    W21  W100  -0.107799015864
    W21  W101  -0.0121643193497
    W21  W102  -0.0431330190412
    W21  W103  0.0783369439093
    W21  W104  0.0266755324688
    W21  W105  -0.00178796420527
    W21  W106  0.122883639581
    W21  W107  -0.0458898480163
    W21  W108  0.005481250469
    W21  W109  0.0907498014949
    W21  W110  -0.0300899631775
    W21  W111  -0.0957058116755
    W21  W112  -0.0373365891897
    W21  W113  0.0489540320735
    W21  W114  -0.0515522543405
    W21  W115  -0.022524156696
    W21  W116  0.085951475177
    W21  W117  0.0172142389629
    W21  W118  -0.00464069339395
    W21  W119  0.0164090166553
    W21  W120  0.0737798711907
    W21  W121  -0.0178503684319
    W21  W122  0.0209775112463
    W21  W123  -0.0047144545173
    W21  W124  0.0880677195781
    W21  W125  -0.0469393435361
    W21  W126  -0.0638073699261
    W21  W127  -0.0910136827652
    W21  W128  -0.0459142190446
    W21  W129  0.00532237276117
    W21  W130  -0.0510768321962
    W21  W131  0.0575241427101
    W21  W132  0.0234629872072
    W21  W133  -0.00529544724374
    W21  W134  -0.13917991933
    W21  W135  0.0494423245305
    W21  W136  -0.0776791306322
    W21  W137  -0.0383802347517
    W21  W138  0.0778136537714
    W21  W139  -0.0249618363525
    W21  W140  -0.0115902945948
    W21  W141  0.10682245489
    W21  W142  -0.0554866399486
    W21  W143  -0.00149278189243
    W21  W144  0.078351751198
    W21  W145  -0.0562356123154
    W21  W146  -0.0718750784631
    W21  W147  0.0243624275489
    W21  W148  -0.127147963281
    W21  W149  -0.0266970376423
    W22  W22  0.204745502054
    W22  W23  0.00104834503421
    W22  W24  -0.0903140094694
    W22  W25  0.0169055530173
    W22  W26  0.0304038087278
    W22  W27  0.0283217463245
    W22  W28  -0.0133935591955
    W22  W29  -0.0544979367764
    W22  W30  0.0312288978327
    W22  W31  0.0106640730844
    W22  W32  0.0631111461126
    W22  W33  0.0377347697632
    W22  W34  -0.0148245482562
    W22  W35  0.0443330108863
    W22  W36  0.0263081956474
    W22  W37  -0.00898846965452
    W22  W38  0.0347823009015
    W22  W39  0.0554672342505
    W22  W40  -0.0455214708679
    W22  W41  0.0488633510183
    W22  W42  0.0712724649283
    W22  W43  -0.0122340910748
    W22  W44  -0.0388974249345
    W22  W45  -0.0504438328102
    W22  W46  -0.0184951273294
    W22  W47  -0.0261110951296
    W22  W48  -0.00439518203896
    W22  W49  0.037297852892
    W22  W50  0.0291059929592
    W22  W51  0.046163204753
    W22  W52  -0.0279180116474
    W22  W53  0.0578676537669
    W22  W54  -0.0841294972647
    W22  W55  -0.0699050262753
    W22  W56  -0.0185298226899
    W22  W57  -0.00996102737031
    W22  W58  0.050598274307
    W22  W59  -0.0138786866595
    W22  W60  0.0879617863261
    W22  W61  0.0299063144932
    W22  W62  -0.0286163329865
    W22  W63  -0.0203399443426
    W22  W64  -0.0171670525101
    W22  W65  0.0350272267691
    W22  W66  -0.0046108806165
    W22  W67  0.0509758606792
    W22  W68  0.0704666026129
    W22  W69  0.0189428784691
    W22  W70  -0.0296389305138
    W22  W71  0.119771507015
    W22  W72  0.00864078897883
    W22  W73  -0.0497682135266
    W22  W74  -0.088552805832
    W22  W75  0.0337912003869
    W22  W76  -0.0541877834896
    W22  W77  -0.0499549170453
    W22  W78  -0.0464875963612
    W22  W79  -0.0255308032838
    W22  W80  -0.0089053633053
    W22  W81  -0.010100122904
    W22  W82  -0.106091853184
    W22  W83  -0.0111792623511
    W22  W84  -0.12786778324
    W22  W85  -0.0468297405438
    W22  W86  -0.0321446285419
    W22  W87  0.0542415792949
    W22  W88  -0.0150077634584
    W22  W89  0.103961906421
    W22  W90  0.049350083347
    W22  W91  0.0218135751255
    W22  W92  -0.0115424551572
    W22  W93  -0.0490087002247
    W22  W94  0.0712665709089
    W22  W95  -0.0169411361589
    W22  W96  -0.000270843067668
    W22  W97  -0.0746372617763
    W22  W98  0.016243189973
    W22  W99  0.0769910052103
    W22  W100  -0.0505344576219
    W22  W101  -0.00499906493835
    W22  W102  0.00883419717528
    W22  W103  0.0414863551743
    W22  W104  0.0440555435603
    W22  W105  0.0455767534575
    W22  W106  0.121012367047
    W22  W107  0.0206117160182
    W22  W108  -0.0843184815555
    W22  W109  0.00757526530332
    W22  W110  0.0288863213923
    W22  W111  -0.113606784059
    W22  W112  -0.0526153967047
    W22  W113  0.0304815381874
    W22  W114  -0.0377157829883
    W22  W115  -0.0197898385745
    W22  W116  0.0475379600898
    W22  W117  -0.0530760194258
    W22  W118  -0.116437820675
    W22  W119  -0.0378103913625
    W22  W120  0.0158405848629
    W22  W121  -0.0685345898943
    W22  W122  0.00180818929133
    W22  W123  -0.0511609274641
    W22  W124  0.0410165178063
    W22  W125  0.0260099143292
    W22  W126  0.0325408742265
    W22  W127  0.0494241558019
    W22  W128  -0.109061605117
    W22  W129  0.0616319675209
    W22  W130  -0.102011117349
    W22  W131  -0.000731927767226
    W22  W132  0.0307249841263
    W22  W133  0.0114889988089
    W22  W134  -0.0991849728773
    W22  W135  0.0473291917838
    W22  W136  0.0277902597662
    W22  W137  0.0590870070456
    W22  W138  -0.0270398921262
    W22  W139  -0.00463338365973
    W22  W140  0.0740712204941
    W22  W141  0.093407929459
    W22  W142  0.0293939513968
    W22  W143  -0.0539438254057
    W22  W144  -0.0143305595391
    W22  W145  -0.0837495299767
    W22  W146  -0.027634497506
    W22  W147  -0.00995630714814
    W22  W148  -0.0572790922044
    W22  W149  -0.0489907203974
    W23  W23  0.288369088872
    W23  W24  0.00315072362405
    W23  W25  0.0986638291594
    W23  W26  -0.098271258131
    W23  W27  0.115228223236
    W23  W28  -0.0139822675112
    W23  W29  0.0536501003286
    W23  W30  -0.0164420377384
    W23  W31  0.00525202861216
    W23  W32  -0.0293669573411
    W23  W33  -0.102511386504
    W23  W34  0.026092188148
    W23  W35  0.0184962762662
    W23  W36  0.00557893671465
    W23  W37  -0.0323824893152
    W23  W38  -0.0253711040033
    W23  W39  -0.0552713708693
    W23  W40  -0.063608467068
    W23  W41  -0.060649783574
    W23  W42  -0.0164278491131
    W23  W43  0.0186307227899
    W23  W44  -0.00451331972316
    W23  W45  -0.00354203416576
    W23  W46  -0.0431917350101
    W23  W47  -0.0560057964214
    W23  W48  -0.0141171409397
    W23  W49  0.0165867401739
    W23  W50  -0.0526787991138
    W23  W51  -0.0103377683497
    W23  W52  -0.0904502385829
    W23  W53  -0.00551620913977
    W23  W54  0.0146179346742
    W23  W55  -0.018564544927
    W23  W56  0.0778274928412
    W23  W57  -0.0650888964631
    W23  W58  0.0113548190501
    W23  W59  -0.136367370405
    W23  W60  -0.0240534886219
    W23  W61  -0.0652717538753
    W23  W62  -0.0156992131694
    W23  W63  -0.0164080390033
    W23  W64  0.0531195868906
    W23  W65  -0.129983176656
    W23  W66  0.122414755253
    W23  W67  0.0437165286324
    W23  W68  0.0637147788587
    W23  W69  0.0332771467516
    W23  W70  -0.0837448016927
    W23  W71  0.0169137636238
    W23  W72  0.0638276038315
    W23  W73  -0.0610143013014
    W23  W74  0.0220887929857
    W23  W75  -0.119562917009
    W23  W76  0.0692556357865
    W23  W77  -0.0435540844244
    W23  W78  -0.0705234157709
    W23  W79  0.0100344977281
    W23  W80  0.000129116267985
    W23  W81  -0.0228600102883
    W23  W82  -0.0906939318677
    W23  W83  0.063527230387
    W23  W84  -0.0771816482495
    W23  W85  0.0124492787149
    W23  W86  0.010357882858
    W23  W87  -0.0637527763358
    W23  W88  -0.00731274072069
    W23  W89  -0.0576165350292
    W23  W90  -0.00983902315322
    W23  W91  0.050874432176
    W23  W92  0.102591619698
    W23  W93  0.0223146212202
    W23  W94  0.0447387728991
    W23  W95  -0.110158676719
    W23  W96  0.0116728450037
    W23  W97  0.0718446417275
    W23  W98  -0.00752577970133
    W23  W99  -0.0681742512486
    W23  W100  0.0870316021261
    W23  W101  -0.0180798097925
    W23  W102  -0.00441131608869
    W23  W103  -0.0211174821913
    W23  W104  0.0252266639651
    W23  W105  -0.0735055131787
    W23  W106  -0.0281889649401
    W23  W107  0.0869546584076
    W23  W108  -0.0730003909143
    W23  W109  0.0457211538209
    W23  W110  -0.0249846410529
    W23  W111  -0.0319955378753
    W23  W112  0.13919993756
    W23  W113  -0.0198306416263
    W23  W114  0.0728687093432
    W23  W115  0.00114269648334
    W23  W116  -0.0993768455456
    W23  W117  -0.09151488773
    W23  W118  0.00160165041317
    W23  W119  -0.0424453207924
    W23  W120  0.0717323706797
    W23  W121  0.00624152552503
    W23  W122  -0.046941762558
    W23  W123  0.0536431065336
    W23  W124  0.0336758449397
    W23  W125  0.000822195263742
    W23  W126  0.086275188744
    W23  W127  0.0437062354639
    W23  W128  -0.0701318661508
    W23  W129  -0.0646654683636
    W23  W130  0.0510420201572
    W23  W131  -0.0418132893023
    W23  W132  -0.0140709317936
    W23  W133  -0.000991769564938
    W23  W134  -0.00265118377117
    W23  W135  -0.0172295758043
    W23  W136  -0.0171512328225
    W23  W137  0.0958605724227
    W23  W138  -0.128341731777
    W23  W139  -0.0166857570681
    W23  W140  -0.0318970957437
    W23  W141  -0.0627861155844
    W23  W142  0.0994886888168
    W23  W143  -0.0852723858583
    W23  W144  0.000592404421953
    W23  W145  0.00710096934502
    W23  W146  -0.0559091947915
    W23  W147  -0.124513731906
    W23  W148  0.109554539287
    W23  W149  -0.0145444023756
    W24  W24  0.419676763341
    W24  W25  -0.093117548244
    W24  W26  -0.0468063609179
    W24  W27  -0.0815936951183
    W24  W28  0.00171679738679
    W24  W29  0.0687285105579
    W24  W30  0.0616018907168
    W24  W31  -0.0639850574527
    W24  W32  -0.026914993355
    W24  W33  0.0740061160304
    W24  W34  -0.0685652585468
    W24  W35  0.0776304642804
    W24  W36  0.0965641120646
    W24  W37  -0.00340458640953
    W24  W38  0.204672088755
    W24  W39  0.0412533332883
    W24  W40  0.0709532213629
    W24  W41  -0.0351012748395
    W24  W42  -0.017822299431
    W24  W43  -0.0825238941883
    W24  W44  -0.00587887963368
    W24  W45  -0.0595774081678
    W24  W46  -0.0420248566639
    W24  W47  -0.0284467779777
    W24  W48  0.124879506276
    W24  W49  0.01061691424
    W24  W50  -0.0723051059336
    W24  W51  -0.0395043493506
    W24  W52  -0.0313020780807
    W24  W53  -0.085403546913
    W24  W54  0.133103642241
    W24  W55  -0.0240063545291
    W24  W56  0.0337922126514
    W24  W57  0.0570064782089
    W24  W58  -0.0521316975354
    W24  W59  -0.0276350032758
    W24  W60  0.130494340405
    W24  W61  0.0475066057921
    W24  W62  0.087073429448
    W24  W63  -0.0586946063471
    W24  W64  0.0253016554437
    W24  W65  -0.0490405134798
    W24  W66  0.0231181302905
    W24  W67  0.0405805780003
    W24  W68  -0.086999177381
    W24  W69  0.0361488500021
    W24  W70  0.0341948111833
    W24  W71  -0.176851005359
    W24  W72  0.104679810264
    W24  W73  0.0722355396447
    W24  W74  0.161444981717
    W24  W75  -0.0868612768776
    W24  W76  -0.0459835383602
    W24  W77  0.0371475757758
    W24  W78  -0.121996186675
    W24  W79  0.00996848641809
    W24  W80  0.0167252309486
    W24  W81  0.0229328248151
    W24  W82  0.0854862370723
    W24  W83  -0.0397942247028
    W24  W84  0.116895514224
    W24  W85  0.0423538694369
    W24  W86  0.0617795346517
    W24  W87  0.014841692099
    W24  W88  0.126851021384
    W24  W89  -0.109772883849
    W24  W90  -0.0696189701892
    W24  W91  0.0360105565522
    W24  W92  -0.103086005458
    W24  W93  -0.00212792561961
    W24  W94  -0.0253834526495
    W24  W95  0.132015274426
    W24  W96  0.0516945734474
    W24  W97  0.00016201563511
    W24  W98  -0.0167868918465
    W24  W99  0.00802101350323
    W24  W100  0.111692772412
    W24  W101  0.0232871689184
    W24  W102  0.0646148517922
    W24  W103  -0.0986218601314
    W24  W104  -0.0536831499603
    W24  W105  -0.111618337205
    W24  W106  -0.0720699969587
    W24  W107  -0.0831777308266
    W24  W108  0.0461282754452
    W24  W109  0.00568061636113
    W24  W110  -0.0499902728757
    W24  W111  0.140545625317
    W24  W112  0.134995961856
    W24  W113  -0.0547604990082
    W24  W114  -0.0597057708941
    W24  W115  -0.0680468125458
    W24  W116  -0.028136781004
    W24  W117  0.175912146104
    W24  W118  0.0187821143169
    W24  W119  -0.0556487537859
    W24  W120  0.0438132758624
    W24  W121  0.0721937138401
    W24  W122  -0.0200606927654
    W24  W123  0.17674327828
    W24  W124  0.0304632896939
    W24  W125  -0.0537563451632
    W24  W126  -0.0273436161409
    W24  W127  -0.0954850364833
    W24  W128  0.164149272014
    W24  W129  0.0580145117268
    W24  W130  0.0633719258084
    W24  W131  0.0766718026943
    W24  W132  0.0656988415108
    W24  W133  0.0672729520383
    W24  W134  0.119913467866
    W24  W135  0.108181877611
    W24  W136  0.123335750466
    W24  W137  -0.035976058583
    W24  W138  0.0036761778847
    W24  W139  -0.0407156378056
    W24  W140  -0.0545749408256
    W24  W141  -0.0218004705616
    W24  W142  0.0187770998923
    W24  W143  0.0581983777049
    W24  W144  -0.0149182262509
    W24  W145  -0.0531150588823
    W24  W146  0.0356795019623
    W24  W147  0.0300631853025
    W24  W148  0.140645696564
    W24  W149  -0.021263691897
    W25  W25  0.328973133313
    W25  W26  -0.0601211575942
    W25  W27  0.0622183461265
    W25  W28  0.0187809227865
    W25  W29  -0.0411113964268
    W25  W30  -0.0522829028332
    W25  W31  0.0910042038573
    W25  W32  0.0701847672068
    W25  W33  -0.0508844000302
    W25  W34  -0.000830795754944
    W25  W35  -0.0215920999211
    W25  W36  -0.0507467607408
    W25  W37  -0.110805838469
    W25  W38  -0.0690097859784
    W25  W39  0.0340448551281
    W25  W40  0.0229699743729
    W25  W41  -0.0432567605534
    W25  W42  -0.0682145570579
    W25  W43  -0.0200552606868
    W25  W44  -0.0132348327776
    W25  W45  -0.0143709542483
    W25  W46  -0.0285853065663
    W25  W47  -0.0639413608291
    W25  W48  -0.0797066537199
    W25  W49  0.0360182644881
    W25  W50  -0.0576220698917
    W25  W51  -0.0102463875835
    W25  W52  -0.0331683504428
    W25  W53  -0.0344663361538
    W25  W54  -0.0231451809788
    W25  W55  0.0243597192193
    W25  W56  0.127930262448
    W25  W57  -0.0220309454829
    W25  W58  0.123287431271
    W25  W59  -0.03231360983
    W25  W60  0.0260995317671
    W25  W61  -0.0811684512664
    W25  W62  0.0520419810969
    W25  W63  0.0391519342507
    W25  W64  0.0719653047398
    W25  W65  0.00708303482937
    W25  W66  0.0989840471182
    W25  W67  0.0690921617411
    W25  W68  -0.0183509658687
    W25  W69  0.0354477927183
    W25  W70  -0.170031173021
    W25  W71  0.0165911743895
    W25  W72  -0.00844190850276
    W25  W73  0.0120643576621
    W25  W74  -0.13593650115
    W25  W75  -0.0135241787421
    W25  W76  0.0345759819759
    W25  W77  0.0239263162024
    W25  W78  0.0178969949563
    W25  W79  0.0180565073174
    W25  W80  -0.0200744280463
    W25  W81  0.0422955566646
    W25  W82  -0.106675391925
    W25  W83  0.062895005289
    W25  W84  0.057397254168
    W25  W85  0.0851505659571
    W25  W86  0.0499181187109
    W25  W87  -0.0747264727457
    W25  W88  -0.0886491817981
    W25  W89  0.0126730575923
    W25  W90  -0.00242201933273
    W25  W91  0.007570597821
    W25  W92  0.0577209252522
    W25  W93  0.0306595659836
    W25  W94  0.0206417803667
    W25  W95  -0.0969205053633
    W25  W96  -0.0601967698015
    W25  W97  0.0443129314717
    W25  W98  0.0281699133559
    W25  W99  -0.0401092430828
    W25  W100  0.038494795455
    W25  W101  -0.0201113028752
    W25  W102  -0.05440782065
    W25  W103  0.00434774843408
    W25  W104  0.0149504720733
    W25  W105  0.0152754314209
    W25  W106  0.0313136805925
    W25  W107  0.0118462281967
    W25  W108  -0.0614105620196
    W25  W109  0.0504227141501
    W25  W110  0.101344160808
    W25  W111  0.0344882735276
    W25  W112  0.00106309486577
    W25  W113  0.0184456469385
    W25  W114  -0.0303072227478
    W25  W115  0.0224927486996
    W25  W116  0.0195308103663
    W25  W117  -0.152507301525
    W25  W118  -0.0439437030373
    W25  W119  -0.00469321801588
    W25  W120  0.0104553423014
    W25  W121  0.012937337415
    W25  W122  -0.0341473112604
    W25  W123  -0.0100184034294
    W25  W124  -0.00458708003976
    W25  W125  -0.0406658654582
    W25  W126  0.0829237698739
    W25  W127  0.101261322642
    W25  W128  -0.156622212403
    W25  W129  -0.0196269349638
    W25  W130  -0.0231789419608
    W25  W131  -0.0352085626785
    W25  W132  -0.126587034723
    W25  W133  -0.0153559833814
    W25  W134  0.0640326340879
    W25  W135  -0.102059175326
    W25  W136  0.0149683273915
    W25  W137  0.0117857805495
    W25  W138  -0.0671308683456
    W25  W139  0.029263033915
    W25  W140  0.0143740656165
    W25  W141  -0.0921566897759
    W25  W142  0.113614483632
    W25  W143  -0.0105823654345
    W25  W144  0.0317681458556
    W25  W145  -0.018750006743
    W25  W146  -0.0068737578958
    W25  W147  -0.117746837295
    W25  W148  0.00342153432747
    W25  W149  0.0117595164917
    W26  W26  0.228391901145
    W26  W27  -0.0862146212372
    W26  W28  0.0342041441525
    W26  W29  -0.0766487458211
    W26  W30  -0.0537007252344
    W26  W31  0.0265423115799
    W26  W32  0.0810853104508
    W26  W33  0.0776719893549
    W26  W34  -0.0643352466307
    W26  W35  0.0170377033825
    W26  W36  0.0141320412247
    W26  W37  0.0437996996281
    W26  W38  -0.0570345061738
    W26  W39  0.0142551674437
    W26  W40  -0.000435345107827
    W26  W41  0.0256840908908
    W26  W42  0.046311303231
    W26  W43  0.0343870246135
    W26  W44  -0.0497093709781
    W26  W45  -0.0371514046534
    W26  W46  -0.0182141020879
    W26  W47  -0.000820992488375
    W26  W48  -0.063084086389
    W26  W49  0.0389354109481
    W26  W50  0.0181611230658
    W26  W51  -0.0628902718722
    W26  W52  0.0654777578542
    W26  W53  -0.0199304388569
    W26  W54  -0.105024796427
    W26  W55  0.0345570483056
    W26  W56  -0.0387948463823
    W26  W57  0.0597824889134
    W26  W58  -0.0337323448374
    W26  W59  0.0473394978834
    W26  W60  0.0130580723351
    W26  W61  -0.0118677448485
    W26  W62  -0.0271755413731
    W26  W63  0.0612046669848
    W26  W64  -0.00778210331359
    W26  W65  0.00500421730572
    W26  W66  -0.0685822510596
    W26  W67  -0.00740892219185
    W26  W68  -0.0270410589443
    W26  W69  0.0223299254172
    W26  W70  -0.00916265623349
    W26  W71  0.069773478528
    W26  W72  -0.0211227881647
    W26  W73  0.0526063054752
    W26  W74  0.0253473384377
    W26  W75  0.0296319134342
    W26  W76  0.0320407778993
    W26  W77  -0.0208806786555
    W26  W78  0.0474916924936
    W26  W79  -0.0940026900414
    W26  W80  -0.00379580086015
    W26  W81  -0.0415094612831
    W26  W82  -0.0404945375146
    W26  W83  -0.000156857345212
    W26  W84  0.0170838287911
    W26  W85  -0.051289912529
    W26  W86  -0.0165170342195
    W26  W87  0.0611497399396
    W26  W88  -0.020823848975
    W26  W89  0.0405749506513
    W26  W90  0.021022420389
    W26  W91  0.0392874005672
    W26  W92  -0.0348542650004
    W26  W93  0.0238194143913
    W26  W94  -0.0276644227267
    W26  W95  0.0733341578155
    W26  W96  -0.0255576920484
    W26  W97  -0.0505901162903
    W26  W98  -0.0131879255811
    W26  W99  0.0808405537451
    W26  W100  -0.0927749258914
    W26  W101  0.0768903525812
    W26  W102  -0.0501813418731
    W26  W103  0.047050516632
    W26  W104  0.0333663305369
    W26  W105  0.00514089376178
    W26  W106  0.0816693519894
    W26  W107  -0.0473825455497
    W26  W108  0.00279761655112
    W26  W109  -0.0181594394906
    W26  W110  -0.0211554650965
    W26  W111  -0.0167640252489
    W26  W112  -0.105369488096
    W26  W113  0.0722518760315
    W26  W114  -0.041726012202
    W26  W115  -0.0470166901993
    W26  W116  0.0747172343842
    W26  W117  0.0807762232198
    W26  W118  0.0017440646083
    W26  W119  0.0612825380607
    W26  W120  -0.0536120194696
    W26  W121  0.0649842540428
    W26  W122  0.0331962266781
    W26  W123  -0.0534452348261
    W26  W124  -0.0600046074831
    W26  W125  -0.00382451011858
    W26  W126  -0.0664912565509
    W26  W127  -0.049425281298
    W26  W128  -0.0105389307779
    W26  W129  -0.0319440788365
    W26  W130  -0.0939355477205
    W26  W131  0.00920132865603
    W26  W132  -0.0043270636209
    W26  W133  -0.0230867718107
    W26  W134  -0.0538076841433
    W26  W135  0.0566855174867
    W26  W136  0.0286244115442
    W26  W137  -0.0655462899101
    W26  W138  -4.18083818949e-06
    W26  W139  0.072279350125
    W26  W140  0.0273230104989
    W26  W141  0.0268233791902
    W26  W142  -0.0536852228746
    W26  W143  0.0573273292784
    W26  W144  -0.0514405998374
    W26  W145  -0.035052743751
    W26  W146  -0.0284838317716
    W26  W147  0.00460621085257
    W26  W148  -0.0424575977806
    W26  W149  0.0936607895671
    W27  W27  0.200077708349
    W27  W28  -0.0293136790304
    W27  W29  0.0560630322335
    W27  W30  -0.0190104352043
    W27  W31  -0.011070504217
    W27  W32  -0.095030083799
    W27  W33  -0.0933987248992
    W27  W34  0.0776245723683
    W27  W35  -0.0245484841638
    W27  W36  -0.0373742810462
    W27  W37  -0.0307943137222
    W27  W38  -0.0401223838255
    W27  W39  0.0273268739868
    W27  W40  -0.0441510083212
    W27  W41  -0.0640448039062
    W27  W42  0.0338795053544
    W27  W43  0.0410076954094
    W27  W44  0.0146946624578
    W27  W45  -0.00616425116283
    W27  W46  -0.0175094330355
    W27  W47  -0.0257726863399
    W27  W48  -0.0550586255447
    W27  W49  -0.0357970554882
    W27  W50  0.0208664104931
    W27  W51  0.0316119914174
    W27  W52  -0.0872203657491
    W27  W53  0.0783220269029
    W27  W54  -0.0532582911032
    W27  W55  -0.051940353148
    W27  W56  -0.00670241272617
    W27  W57  -0.110408084232
    W27  W58  0.0131268619419
    W27  W59  -0.0952902969993
    W27  W60  -0.0367957297803
    W27  W61  0.0300230273985
    W27  W62  -0.0603004560695
    W27  W63  -0.0606919663474
    W27  W64  0.00845602739384
    W27  W65  -0.0377839000086
    W27  W66  0.0450874921466
    W27  W67  0.0162490590093
    W27  W68  0.0154969806297
    W27  W69  0.0281441499167
    W27  W70  -0.0599875232331
    W27  W71  0.0466372341475
    W27  W72  0.0101754699952
    W27  W73  -0.0804573417059
    W27  W74  0.0077736972511
    W27  W75  -0.0473131205587
    W27  W76  0.068391524417
    W27  W77  0.0162634828194
    W27  W78  -0.0470439748092
    W27  W79  0.0308927408636
    W27  W80  0.0105533570674
    W27  W81  -0.0214529779713
    W27  W82  -0.0370662346534
    W27  W83  0.0525807887065
    W27  W84  -0.0200833329578
    W27  W85  -0.0259204911611
    W27  W86  0.00499792738106
    W27  W87  -0.00929821177461
    W27  W88  -0.0760075788764
    W27  W89  0.0384426995109
    W27  W90  0.0696185878948
    W27  W91  -0.0234436366766
    W27  W92  0.0757642477761
    W27  W93  -0.00510389819234
    W27  W94  0.102154941082
    W27  W95  -0.138659632
    W27  W96  0.0184630729225
    W27  W97  0.0570559920704
    W27  W98  0.0198563307397
    W27  W99  -0.0248186964099
    W27  W100  0.073708060905
    W27  W101  -0.0274789618968
    W27  W102  -0.0126306878121
    W27  W103  0.033048810308
    W27  W104  0.0537869864117
    W27  W105  0.011490456533
    W27  W106  0.00784975981755
    W27  W107  0.065052865296
    W27  W108  -0.0701048691172
    W27  W109  0.0104966498613
    W27  W110  -0.017226829736
    W27  W111  -0.0929029137289
    W27  W112  0.0893572442909
    W27  W113  0.0184974945303
    W27  W114  0.0440784326493
    W27  W115  0.0528795445778
    W27  W116  -0.00965475564056
    W27  W117  -0.0560427712662
    W27  W118  0.0167340530977
    W27  W119  0.005463520038
    W27  W120  0.0951621319601
    W27  W121  -0.00166864594558
    W27  W122  0.00117418152692
    W27  W123  0.0332716444335
    W27  W124  0.0935473991358
    W27  W125  -0.00771349425154
    W27  W126  0.0669102477662
    W27  W127  0.0459969570938
    W27  W128  -0.0672217611214
    W27  W129  -0.0724451703723
    W27  W130  0.0251960880685
    W27  W131  -0.0422854788076
    W27  W132  0.0240266549364
    W27  W133  -0.00412664517991
    W27  W134  -0.0315053800052
    W27  W135  -0.0307764649322
    W27  W136  -0.0911596520044
    W27  W137  0.0882373805469
    W27  W138  -0.0503893851105
    W27  W139  -0.100353077477
    W27  W140  0.00249628291414
    W27  W141  -0.00342669203972
    W27  W142  0.0697083299544
    W27  W143  -0.0388923081391
    W27  W144  -0.0167291081084
    W27  W145  0.0290752884931
    W27  W146  -0.102157638225
    W27  W147  -0.0317826248596
    W27  W148  0.00695463648448
    W27  W149  -0.0519847871759
    W28  W28  0.171820496516
    W28  W29  -0.000398474602246
    W28  W30  0.0104306277867
    W28  W31  0.00667472767807
    W28  W32  0.0179749885522
    W28  W33  0.0639165586043
    W28  W34  -0.0406588729906
    W28  W35  0.00975615898778
    W28  W36  -0.0795239302419
    W28  W37  0.00798859344656
    W28  W38  0.00309659304043
    W28  W39  -0.00463962425224
    W28  W40  0.0363893561494
    W28  W41  0.0271900900859
    W28  W42  -0.0180191920139
    W28  W43  -0.0148384795689
    W28  W44  -0.0648288287762
    W28  W45  0.00225970802341
    W28  W46  0.0228983166885
    W28  W47  -0.00475869911098
    W28  W48  0.0196066728017
    W28  W49  -0.0295133607212
    W28  W50  -0.0140091376298
    W28  W51  -0.0373036924286
    W28  W52  0.041081912934
    W28  W53  -0.0264939704213
    W28  W54  -0.0325990335319
    W28  W55  0.0218850823753
    W28  W56  -0.0154216447741
    W28  W57  0.0350034068486
    W28  W58  0.0496315082489
    W28  W59  0.0178579977614
    W28  W60  0.0624504774841
    W28  W61  -0.00195847356674
    W28  W62  0.0549483739745
    W28  W63  0.0212103366097
    W28  W64  0.0258166836132
    W28  W65  0.052396758517
    W28  W66  -0.019525335212
    W28  W67  0.0655216362734
    W28  W68  -0.0163715519099
    W28  W69  0.0111870559145
    W28  W70  0.0232077325906
    W28  W71  -0.0310680859761
    W28  W72  -0.00643898224025
    W28  W73  -0.00285772833873
    W28  W74  -0.0233194507711
    W28  W75  -0.0307438957617
    W28  W76  -0.0296238491521
    W28  W77  -0.00571941790636
    W28  W78  0.0410758695025
    W28  W79  -0.0192430476093
    W28  W80  -0.00431525365879
    W28  W81  -0.00658215862683
    W28  W82  0.0123368484555
    W28  W83  -0.0915053410305
    W28  W84  0.00702701190016
    W28  W85  -0.036727611033
    W28  W86  -0.00525654327371
    W28  W87  -0.0131260436895
    W28  W88  -0.00499923012308
    W28  W89  -0.029272055912
    W28  W90  0.00303335008955
    W28  W91  0.0464456341642
    W28  W92  -0.0261557051361
    W28  W93  0.0718441108321
    W28  W94  0.0157247194791
    W28  W95  -0.0325978142865
    W28  W96  -0.0807845807165
    W28  W97  -0.00183551132644
    W28  W98  -0.0200649759486
    W28  W99  -0.0265647735445
    W28  W100  -0.0240164127684
    W28  W101  0.0585500721195
    W28  W102  -0.00705655162063
    W28  W103  -0.0453448366617
    W28  W104  0.0118749721122
    W28  W105  -0.0366058803953
    W28  W106  -0.0355827409473
    W28  W107  -0.0187936551088
    W28  W108  -0.015947565513
    W28  W109  -0.0333386965253
    W28  W110  0.00571698791615
    W28  W111  0.0212024230647
    W28  W112  -0.0146586942373
    W28  W113  0.0198824041721
    W28  W114  0.0325038159092
    W28  W115  -0.0339181302988
    W28  W116  -0.0137683897
    W28  W117  -0.0173034529342
    W28  W118  -0.0199602417161
    W28  W119  0.0171385252333
    W28  W120  -0.0529054593076
    W28  W121  0.0133999948658
    W28  W122  0.0291614098122
    W28  W123  -0.0177478666109
    W28  W124  -0.0629148964371
    W28  W125  0.0311901368794
    W28  W126  0.0267781527824
    W28  W127  0.048855526248
    W28  W128  0.0287315586985
    W28  W129  0.00797788491484
    W28  W130  -0.0124269563594
    W28  W131  -0.0268879196776
    W28  W132  0.0073850381928
    W28  W133  -0.00339710494826
    W28  W134  0.0618247723257
    W28  W135  -0.00745411615578
    W28  W136  0.102402836595
    W28  W137  0.0252037113066
    W28  W138  -0.044143116068
    W28  W139  0.0572160042781
    W28  W140  0.0221945895627
    W28  W141  -0.0450656245533
    W28  W142  0.0158009148253
    W28  W143  0.0202319046577
    W28  W144  -0.029471414583
    W28  W145  -0.0310323698986
    W28  W146  0.0118008163569
    W28  W147  -0.0284183252234
    W28  W148  0.0147576928743
    W28  W149  0.0571862324439
    W29  W29  0.289584068853
    W29  W30  0.0057055102474
    W29  W31  -0.0206137701848
    W29  W32  -0.0601323341971
    W29  W33  0.0255408785365
    W29  W34  -0.0227664181583
    W29  W35  -0.0180109809075
    W29  W36  0.0159580770135
    W29  W37  0.0603580268208
    W29  W38  0.0768522739072
    W29  W39  -0.0524575387602
    W29  W40  -0.000965944563861
    W29  W41  0.028886170838
    W29  W42  0.008086871672
    W29  W43  -0.0263377244283
    W29  W44  0.0765459747232
    W29  W45  0.0368602446868
    W29  W46  0.080881693625
    W29  W47  0.0460297279984
    W29  W48  0.0306549628406
    W29  W49  -0.0845017486856
    W29  W50  -0.0430285678404
    W29  W51  0.00886936894562
    W29  W52  -0.0256676297699
    W29  W53  0.0137086648227
    W29  W54  0.0747716894805
    W29  W55  -0.0644150479225
    W29  W56  -0.00600103514112
    W29  W57  0.0033847834779
    W29  W58  -0.00424820905457
    W29  W59  -0.0289205518962
    W29  W60  0.0583980065392
    W29  W61  0.06747386139
    W29  W62  -0.0837108960519
    W29  W63  -0.107850560276
    W29  W64  -0.00397044516852
    W29  W65  -0.0879676156128
    W29  W66  0.0457492402175
    W29  W67  -0.0472871809151
    W29  W68  -0.00613910158206
    W29  W69  0.0289752021473
    W29  W70  0.0687331009997
    W29  W71  0.00171033634222
    W29  W72  -0.02786312604
    W29  W73  -0.0466967415789
    W29  W74  0.0492596952968
    W29  W75  -0.0325011416083
    W29  W76  0.0248051058316
    W29  W77  -0.0821293833641
    W29  W78  -0.0183180691854
    W29  W79  0.0511277926557
    W29  W80  -0.038126132396
    W29  W81  -0.0928642278299
    W29  W82  0.122914871736
    W29  W83  -0.019360802102
    W29  W84  -0.0103677584078
    W29  W85  0.0205947259897
    W29  W86  -0.0657793225239
    W29  W87  -0.045110163855
    W29  W88  -0.0178762538178
    W29  W89  -0.102922637517
    W29  W90  0.00614033111182
    W29  W91  -0.0364452026369
    W29  W92  -0.018885396365
    W29  W93  -0.00300148660655
    W29  W94  0.0180637024246
    W29  W95  -0.0225590896919
    W29  W96  -0.0464815616806
    W29  W97  0.0686466253138
    W29  W98  -0.00786290127637
    W29  W99  -0.049561826833
    W29  W100  0.153423525024
    W29  W101  -0.0230113512148
    W29  W102  0.0650547449129
    W29  W103  -0.0196406398501
    W29  W104  -0.0436724606997
    W29  W105  0.0321258620273
    W29  W106  -0.067193295765
    W29  W107  0.100102452682
    W29  W108  -0.0310550503724
    W29  W109  -0.0368410037629
    W29  W110  -0.000676150370798
    W29  W111  -0.0129366903739
    W29  W112  0.12242514736
    W29  W113  -0.026706545985
    W29  W114  0.0848897695583
    W29  W115  0.0586401420026
    W29  W116  -0.0271432858222
    W29  W117  0.0287270651434
    W29  W118  0.0249577988315
    W29  W119  0.012905005114
    W29  W120  0.00825944250349
    W29  W121  -0.0301681622871
    W29  W122  -0.0239684087505
    W29  W123  0.0358842555455
    W29  W124  0.0514127913329
    W29  W125  0.0771689860976
    W29  W126  0.0291909937632
    W29  W127  0.0838443209932
    W29  W128  0.0576181657921
    W29  W129  -0.014397865577
    W29  W130  0.0242654853017
    W29  W131  -0.0585890370371
    W29  W132  -0.0111274318082
    W29  W133  0.0565590973489
    W29  W134  0.0502731871074
    W29  W135  0.0205683029435
    W29  W136  0.0255470898294
    W29  W137  0.00598110470235
    W29  W138  -0.139222291219
    W29  W139  -0.0717079663524
    W29  W140  0.0794397484084
    W29  W141  -0.0590317351297
    W29  W142  0.0347895485103
    W29  W143  -0.0613134526079
    W29  W144  -0.0849174394229
    W29  W145  0.113476414136
    W29  W146  0.0184204973462
    W29  W147  -0.00353573850524
    W29  W148  0.100093081275
    W29  W149  -0.00353608388162
    W30  W30  0.241535158616
    W30  W31  -0.0611137035121
    W30  W32  -0.00199948986517
    W30  W33  0.0605985301586
    W30  W34  0.050437116287
    W30  W35  0.0750804191306
    W30  W36  -0.0247084344458
    W30  W37  -0.0145343011344
    W30  W38  0.0856826425429
    W30  W39  0.00860304619408
    W30  W40  0.026251710626
    W30  W41  0.0152138096322
    W30  W42  0.00377330101651
    W30  W43  -0.0609030723036
    W30  W44  -0.0048191605642
    W30  W45  0.0202088723374
    W30  W46  0.0723484098483
    W30  W47  -0.0149435411212
    W30  W48  0.0799619092593
    W30  W49  -0.0135078426683
    W30  W50  -0.00958564681514
    W30  W51  0.0544361330825
    W30  W52  0.0186266735618
    W30  W53  0.0477984644316
    W30  W54  -0.00280927528146
    W30  W55  -0.0167385860971
    W30  W56  -0.02663659931
    W30  W57  -0.00551200233311
    W30  W58  0.0413087223217
    W30  W59  0.00887957376734
    W30  W60  0.0666395784363
    W30  W61  0.050030394532
    W30  W62  0.0509792330191
    W30  W63  -0.053640830158
    W30  W64  -0.0435642965351
    W30  W65  0.0677149052061
    W30  W66  -0.0403609287654
    W30  W67  0.0367163413163
    W30  W68  0.0492585484955
    W30  W69  -0.0524706811734
    W30  W70  0.114160331683
    W30  W71  -0.00935956793923
    W30  W72  0.0437235562907
    W30  W73  -0.0424999573675
    W30  W74  0.0207405784045
    W30  W75  0.0448281015437
    W30  W76  -0.0893983126118
    W30  W77  -0.00677477048374
    W30  W78  -0.0418815092007
    W30  W79  0.0542299638821
    W30  W80  0.0152344716094
    W30  W81  0.041591093738
    W30  W82  0.0441293285297
    W30  W83  -0.0561442076371
    W30  W84  -0.0918396924314
    W30  W85  -0.00249260342572
    W30  W86  0.012143219523
    W30  W87  0.0380635825093
    W30  W88  0.0963395602597
    W30  W89  0.0109894262394
    W30  W90  -0.0214245258298
    W30  W91  0.0627960697853
    W30  W92  -0.03590001693
    W30  W93  -0.013503603176
    W30  W94  -0.00773549403397
    W30  W95  0.0344985136749
    W30  W96  -0.0229898763178
    W30  W97  -0.00169542327007
    W30  W98  0.00267639098277
    W30  W99  0.00154426883881
    W30  W100  0.0192211253028
    W30  W101  -0.0343800922155
    W30  W102  0.0831388261473
    W30  W103  -0.0544322351536
    W30  W104  -0.00121332367306
    W30  W105  0.0311287484704
    W30  W106  -0.0362148388991
    W30  W107  0.0247356219437
    W30  W108  0.00435965389967
    W30  W109  -0.0847617384782
    W30  W110  0.00757766635329
    W30  W111  0.0236469271666
    W30  W112  -0.0481362841125
    W30  W113  -0.0749591979073
    W30  W114  -0.0250753178158
    W30  W115  -0.00816364911106
    W30  W116  -0.0809213525996
    W30  W117  0.0180788346725
    W30  W118  -0.0654074428389
    W30  W119  -0.0975860760072
    W30  W120  -0.0496596751932
    W30  W121  -0.0561902215178
    W30  W122  -0.0150139749277
    W30  W123  -0.0258675660005
    W30  W124  -0.0635590177098
    W30  W125  0.0294785753955
    W30  W126  0.0268569163886
    W30  W127  0.0103506111803
    W30  W128  0.0168996402342
    W30  W129  0.0745078713881
    W30  W130  0.0157325317518
    W30  W131  0.0169833603928
    W30  W132  0.0677325135279
    W30  W133  -0.00213531454349
    W30  W134  -0.00389751164342
    W30  W135  0.0226775655861
    W30  W136  0.0195865550115
    W30  W137  0.0675704959832
    W30  W138  0.0484008238036
    W30  W139  0.00382143867828
    W30  W140  -0.00935476775451
    W30  W141  0.0710113914209
    W30  W142  -0.00377137728774
    W30  W143  -0.00821201161402
    W30  W144  -0.0301714043314
    W30  W145  -0.0231936112588
    W30  W146  0.069496485141
    W30  W147  0.0600439463771
    W30  W148  0.0370210084795
    W30  W149  -0.072502110532
    W31  W31  0.0999333977311
    W31  W32  0.0616343309088
    W31  W33  0.00335996952608
    W31  W34  -0.0421103410412
    W31  W35  -0.0379388256308
    W31  W36  0.0130998627321
    W31  W37  0.000395860854151
    W31  W38  -0.0716108704067
    W31  W39  -0.0138552221235
    W31  W40  -0.0159861911628
    W31  W41  -0.0032359604405
    W31  W42  -0.0199830580175
    W31  W43  -0.0120836539487
    W31  W44  0.00965671217446
    W31  W45  0.0109167158948
    W31  W46  -0.00691316009222
    W31  W47  -0.00937160534729
    W31  W48  -0.056865477949
    W31  W49  0.00562942806273
    W31  W50  -0.042954689164
    W31  W51  -0.0141736485756
    W31  W52  0.0097856176686
    W31  W53  -0.0451595402243
    W31  W54  -0.0135397088146
    W31  W55  0.00521108745449
    W31  W56  0.0378160031717
    W31  W57  0.0411313972473
    W31  W58  0.0383121639645
    W31  W59  0.0154157613865
    W31  W60  0.0187120935012
    W31  W61  -0.011149896938
    W31  W62  -0.0148292010169
    W31  W63  0.0291208136667
    W31  W64  0.0293534087305
    W31  W65  -0.0274883004317
    W31  W66  0.0188988364444
    W31  W67  0.00827139432356
    W31  W68  -0.0158349364442
    W31  W69  0.0171590504192
    W31  W70  -0.0613938790952
    W31  W71  0.0130566055651
    W31  W72  -0.0235686640681
    W31  W73  0.0306666316833
    W31  W74  -0.0616076601902
    W31  W75  0.0175363885415
    W31  W76  0.00996624155616
    W31  W77  -0.0193370390568
    W31  W78  0.0247245346233
    W31  W79  -0.0276102433089
    W31  W80  -0.0201881121715
    W31  W81  0.0135465632407
    W31  W82  -0.0626973819076
    W31  W83  0.0499321786321
    W31  W84  0.0468865867784
    W31  W85  0.03528385273
    W31  W86  -0.0221592076705
    W31  W87  -0.0293763403307
    W31  W88  -0.0481277777401
    W31  W89  0.00185183286479
    W31  W90  0.00153254826091
    W31  W91  -0.0167405913507
    W31  W92  -0.00182376711679
    W31  W93  0.0148719806719
    W31  W94  -0.0288543944486
    W31  W95  0.000197328182105
    W31  W96  -0.0258181242541
    W31  W97  0.00798685501761
    W31  W98  0.0334623217821
    W31  W99  0.00943841151853
    W31  W100  0.019377694557
    W31  W101  -0.0107611083993
    W31  W102  -0.0247188522101
    W31  W103  0.0247573733105
    W31  W104  -0.00156759350373
    W31  W105  0.0203549589935
    W31  W106  0.0340815794765
    W31  W107  -0.000802744233641
    W31  W108  -0.0385945160882
    W31  W109  0.0495442429809
    W31  W110  0.0455606753231
    W31  W111  0.035374426075
    W31  W112  -0.0116081513582
    W31  W113  0.0202135373177
    W31  W114  -0.0169349018212
    W31  W115  -0.000755568471601
    W31  W116  0.0588959436592
    W31  W117  -0.0237534240046
    W31  W118  -0.0204557710994
    W31  W119  0.00951400962862
    W31  W120  -0.0338129309462
    W31  W121  -0.027962388641
    W31  W122  -0.0135787019738
    W31  W123  -0.0361867390282
    W31  W124  -0.0298519940153
    W31  W125  -0.0202935325255
    W31  W126  0.00423597610211
    W31  W127  0.0314870194378
    W31  W128  -0.075893019283
    W31  W129  -0.010740277514
    W31  W130  -0.0433480882484
    W31  W131  -0.0152269562293
    W31  W132  -0.0970333026587
    W31  W133  0.0132642846976
    W31  W134  0.00130763629335
    W31  W135  -0.035859827218
    W31  W136  0.019703790401
    W31  W137  -0.0522831913514
    W31  W138  -0.0554199479933
    W31  W139  0.0465185370258
    W31  W140  0.0446846027051
    W31  W141  -0.051308510744
    W31  W142  0.0165787718559
    W31  W143  0.00671005515163
    W31  W144  0.0225862551887
    W31  W145  0.00774469331465
    W31  W146  0.0101979641438
    W31  W147  -0.0649554169008
    W31  W148  -0.0291325923343
    W31  W149  0.0481829150429
    W32  W32  0.298782945032
    W32  W33  0.080112066001
    W32  W34  -0.0530257327947
    W32  W35  0.0786214829086
    W32  W36  0.0350047171419
    W32  W37  -0.0360727806056
    W32  W38  0.0444933663905
    W32  W39  0.0324517448815
    W32  W40  0.0273234679496
    W32  W41  0.0456096310357
    W32  W42  -0.0332024674388
    W32  W43  -0.0352152055058
    W32  W44  -0.00447924413524
    W32  W45  -0.0741127161045
    W32  W46  0.0132898059321
    W32  W47  -0.0277118249844
    W32  W48  -0.0191768095359
    W32  W49  0.101131783672
    W32  W50  -0.0709583966783
    W32  W51  -0.0846603820774
    W32  W52  -0.00417867502362
    W32  W53  -0.0571887464499
    W32  W54  -0.00866884511909
    W32  W55  0.042632506586
    W32  W56  0.0824975343269
    W32  W57  0.0695133549156
    W32  W58  0.0883292493566
    W32  W59  0.0610142629717
    W32  W60  0.074987608724
    W32  W61  -0.107771660585
    W32  W62  0.0503176597364
    W32  W63  0.0318370463967
    W32  W64  0.0110318100857
    W32  W65  0.0305399774399
    W32  W66  0.0589188765263
    W32  W67  -0.0106281534495
    W32  W68  0.0430067963065
    W32  W69  0.00733428872094
    W32  W70  -0.0424062093166
    W32  W71  0.103111701272
    W32  W72  -0.0181843377968
    W32  W73  0.0566661480013
    W32  W74  -0.107383512169
    W32  W75  0.070703206422
    W32  W76  -0.0110674813349
    W32  W77  -0.0757140970863
    W32  W78  0.0306985608192
    W32  W79  -0.0358522245303
    W32  W80  -0.071482855728
    W32  W81  -0.00959667447715
    W32  W82  -0.0595053430652
    W32  W83  -0.00185058603201
    W32  W84  -0.0815705676493
    W32  W85  0.0718544591955
    W32  W86  -0.00925705946774
    W32  W87  0.0334479615229
    W32  W88  0.0271007746606
    W32  W89  0.0107583742829
    W32  W90  -0.0771024670853
    W32  W91  0.0569374152801
    W32  W92  -0.0272008705302
    W32  W93  -0.00521649918156
    W32  W94  -0.0601523674679
    W32  W95  0.09930379429
    W32  W96  -0.0683621609707
    W32  W97  -0.0137351176765
    W32  W98  -0.0221501943852
    W32  W99  0.05732306243
    W32  W100  -0.0598545063787
    W32  W101  0.0114470172328
    W32  W102  0.0105351742266
    W32  W103  0.0249794868936
    W32  W104  -0.016100861035
    W32  W105  0.0496997592618
    W32  W106  0.128300361224
    W32  W107  -0.000478952044944
    W32  W108  -0.034129032472
    W32  W109  -0.0457367151489
    W32  W110  0.108650016576
    W32  W111  0.00895064094931
    W32  W112  -0.108169293312
    W32  W113  0.0140507633158
    W32  W114  -0.093288258992
    W32  W115  -0.043915214243
    W32  W116  0.0264256696459
    W32  W117  -0.0483252510902
    W32  W118  -0.0783621250005
    W32  W119  0.0251084678256
    W32  W120  -0.0824257205535
    W32  W121  0.0301899929355
    W32  W122  -0.0714445270907
    W32  W123  -0.0415972683572
    W32  W124  -0.0166075736724
    W32  W125  0.00261280003084
    W32  W126  0.0216819128434
    W32  W127  0.0291464822533
    W32  W128  -0.11929571167
    W32  W129  0.0327238947211
    W32  W130  -0.120543933447
    W32  W131  -0.0282658427735
    W32  W132  -0.0821348872753
    W32  W133  0.0069126864703
    W32  W134  -0.0254411773063
    W32  W135  0.030510167812
    W32  W136  0.0787907942853
    W32  W137  -0.0431321780066
    W32  W138  -0.0184972803585
    W32  W139  0.0674859664244
    W32  W140  0.0484183643393
    W32  W141  0.0115439133075
    W32  W142  0.0409451755487
    W32  W143  -0.0564740690485
    W32  W144  -0.0222572820745
    W32  W145  -0.0679532340847
    W32  W146  0.0632526569793
    W32  W147  -0.0358212153131
    W32  W148  0.0343642386952
    W32  W149  0.0397837442099
    W33  W33  0.223220945954
    W33  W34  -0.081858236641
    W33  W35  0.0489906452692
    W33  W36  -0.00754466827988
    W33  W37  0.0395593846874
    W33  W38  0.0858805236001
    W33  W39  0.0355503939107
    W33  W40  0.0638240326026
    W33  W41  0.0645670741219
    W33  W42  0.0287577330395
    W33  W43  -0.074339204512
    W33  W44  -0.0275618831365
    W33  W45  -0.0253592986493
    W33  W46  0.0763140303095
    W33  W47  0.00325450212107
    W33  W48  0.0242071401449
    W33  W49  -0.027545545187
    W33  W50  -0.0396291304456
    W33  W51  -0.00911934302619
    W33  W52  0.0851716901147
    W33  W53  -0.0120978454273
    W33  W54  -0.051552916585
    W33  W55  -0.0296208773481
    W33  W56  -0.0312695702305
    W33  W57  0.0878976713375
    W33  W58  0.0536292673833
    W33  W59  0.0591091784069
    W33  W60  0.178012664419
    W33  W61  0.0709879077073
    W33  W62  0.0243681425541
    W33  W63  -0.0312704329268
    W33  W64  -0.0205859385447
    W33  W65  0.0655491766145
    W33  W66  -0.0753612777316
    W33  W67  0.045113769449
    W33  W68  -0.0410821167118
    W33  W69  0.0090443083064
    W33  W70  0.0765325023748
    W33  W71  0.00762892062951
    W33  W72  -0.00911599346917
    W33  W73  0.0217009712713
    W33  W74  -0.00680540349645
    W33  W75  0.0621271169259
    W33  W76  -0.0810419497876
    W33  W77  -0.0415185551574
    W33  W78  0.00422246415858
    W33  W79  -0.0278552724653
    W33  W80  -0.022362614227
    W33  W81  -0.0126362510738
    W33  W82  0.046069728695
    W33  W83  -0.0821904893648
    W33  W84  0.00742550093355
    W33  W85  -0.0138245832265
    W33  W86  -0.0299036720221
    W33  W87  0.0456628392577
    W33  W88  0.0226615324846
    W33  W89  0.00186748038328
    W33  W90  0.012255742498
    W33  W91  0.0457733315391
    W33  W92  -0.128230181761
    W33  W93  0.0128546568374
    W33  W94  -0.016491881197
    W33  W95  0.0933848111918
    W33  W96  -0.0878841858589
    W33  W97  -0.0315341461796
    W33  W98  0.00226376030353
    W33  W99  0.0582348063766
    W33  W100  0.0117660075365
    W33  W101  0.0432118182931
    W33  W102  0.0411337938443
    W33  W103  -0.0171999439464
    W33  W104  -0.00780866698038
    W33  W105  0.0511916054563
    W33  W106  0.0227644978517
    W33  W107  -0.0234277116099
    W33  W108  -0.0281557515961
    W33  W109  -0.0718101078433
    W33  W110  0.0311594905461
    W33  W111  0.044377811744
    W33  W112  -0.0768991325979
    W33  W113  0.00516823132584
    W33  W114  -0.0501019566727
    W33  W115  -0.0327338504843
    W33  W116  0.0535508338851
    W33  W117  0.0802082477005
    W33  W118  -0.0874628347484
    W33  W119  -0.0242465509075
    W33  W120  -0.0996358153213
    W33  W121  -0.0231747314185
    W33  W122  0.0121546778741
    W33  W123  -0.0508860096116
    W33  W124  -0.0843645552015
    W33  W125  0.0446749897456
    W33  W126  -0.0118894004077
    W33  W127  0.0441224129787
    W33  W128  0.0215113979743
    W33  W129  0.0843995216774
    W33  W130  -0.0893750558322
    W33  W131  0.00151897949805
    W33  W132  0.0101171658775
    W33  W133  0.0323402460634
    W33  W134  0.0348750349338
    W33  W135  0.0573487142663
    W33  W136  0.137036416206
    W33  W137  -0.0230304384386
    W33  W138  -0.0412457283646
    W33  W139  0.0567015084996
    W33  W140  0.0945303465531
    W33  W141  0.0140060365624
    W33  W142  -0.00927661985729
    W33  W143  0.0365998226031
    W33  W144  -0.0954077405535
    W33  W145  -0.0384017495988
    W33  W146  0.0718593943443
    W33  W147  0.0313930902315
    W33  W148  0.0200461116742
    W33  W149  0.0285422246
    W34  W34  0.234941819709
    W34  W35  0.0140308247731
    W34  W36  -0.0653780151433
    W34  W37  -0.0276384191467
    W34  W38  -0.0539510712482
    W34  W39  0.0415232247519
    W34  W40  -0.0180360288778
    W34  W41  -0.120137002466
    W34  W42  -0.0112119371211
    W34  W43  0.0391455628625
    W34  W44  0.0581266054357
    W34  W45  -0.0050474706301
    W34  W46  0.0429564814169
    W34  W47  -0.0165772411682
    W34  W48  -0.0383418351202
    W34  W49  -0.0311354160585
    W34  W50  -0.00971113560916
    W34  W51  -0.0324055395201
    W34  W52  -0.0895470501288
    W34  W53  0.0715035957217
    W34  W54  -0.043004110172
    W34  W55  0.0287387831398
    W34  W56  -0.0593257171966
    W34  W57  -0.10671263235
    W34  W58  0.0142941897643
    W34  W59  -0.0109377477583
    W34  W60  -0.127305152297
    W34  W61  0.0107124875773
    W34  W62  0.0135799737501
    W34  W63  -0.0720136899824
    W34  W64  -0.0508217957175
    W34  W65  0.0575817987898
    W34  W66  -0.0150337160476
    W34  W67  -0.0580098837618
    W34  W68  0.0370643014195
    W34  W69  -0.0729416559391
    W34  W70  0.0740335168719
    W34  W71  0.0103860811813
    W34  W72  0.0167281295935
    W34  W73  -0.0403309067691
    W34  W74  0.0546745967788
    W34  W75  0.0610784270499
    W34  W76  0.0459195056472
    W34  W77  0.0602959973262
    W34  W78  -0.0154599320008
    W34  W79  0.0432231504631
    W34  W80  -0.00235447212529
    W34  W81  0.0668174434755
    W34  W82  0.0246816503962
    W34  W83  0.04646393504
    W34  W84  -0.0445482114897
    W34  W85  0.00274206392194
    W34  W86  0.0149259800483
    W34  W87  0.0808753381504
    W34  W88  0.03352285632
    W34  W89  0.0607990816761
    W34  W90  -0.0121564681902
    W34  W91  -0.00639855104143
    W34  W92  0.049501169552
    W34  W93  0.00983124048178
    W34  W94  -0.000888333141582
    W34  W95  -0.0236544919131
    W34  W96  0.0377896576749
    W34  W97  0.115149518511
    W34  W98  0.0220761854595
    W34  W99  -0.00131220654558
    W34  W100  0.0280340944864
    W34  W101  -0.0661688986195
    W34  W102  0.0510001878938
    W34  W103  0.0376164688666
    W34  W104  0.0499287814978
    W34  W105  0.0471442949281
    W34  W106  0.0124178415867
    W34  W107  0.0265696791561
    W34  W108  -0.0171333879575
    W34  W109  -0.0972804395809
    W34  W110  -0.00121182401626
    W34  W111  -0.0183920402607
    W34  W112  -0.00388627714248
    W34  W113  -0.0394854950156
    W34  W114  -0.0314430729245
    W34  W115  0.0268873144172
    W34  W116  -0.0460948274978
    W34  W117  0.0286999375258
    W34  W118  0.0585380440026
    W34  W119  0.0176441712033
    W34  W120  -0.00124831363817
    W34  W121  0.0118401653359
    W34  W122  -0.0428364607676
    W34  W123  0.0207342955424
    W34  W124  0.0452700820692
    W34  W125  -0.0672946750522
    W34  W126  0.0475892780401
    W34  W127  -0.0732144530979
    W34  W128  -0.0505399109619
    W34  W129  -0.0962631418408
    W34  W130  0.049004104323
    W34  W131  -0.0419156800252
    W34  W132  0.0485447387001
    W34  W133  -0.0163130191165
    W34  W134  -0.0798268388133
    W34  W135  -0.0383951327352
    W34  W136  -0.166455872959
    W34  W137  0.0613999816946
    W34  W138  0.133947804883
    W34  W139  -0.1022205692
    W34  W140  -0.0788415094084
    W34  W141  0.0581751171946
    W34  W142  0.00428431373712
    W34  W143  -0.0205562551945
    W34  W144  0.0237820973432
    W34  W145  0.0170358608092
    W34  W146  -0.0430769585657
    W34  W147  0.0669154716145
    W34  W148  0.00627712099527
    W34  W149  -0.0614441858672
    W35  W35  0.138036697675
    W35  W36  0.0181875520222
    W35  W37  -0.0610420357823
    W35  W38  0.0956604233437
    W35  W39  0.0526267358563
    W35  W40  0.0135919734487
    W35  W41  0.00712003216243
    W35  W42  0.00931878325532
    W35  W43  -0.0226831899422
    W35  W44  -0.0402310965418
    W35  W45  -0.050963290254
    W35  W46  -0.0122353171704
    W35  W47  -0.0545470155331
    W35  W48  0.0453328986374
    W35  W49  0.0874514827872
    W35  W50  -0.0110292110816
    W35  W51  -0.0329808263182
    W35  W52  -0.0587460316213
    W35  W53  0.0176109937191
    W35  W54  -0.0174817063314
    W35  W55  0.0192977571427
    W35  W56  0.028952988269
    W35  W57  0.000668469591267
    W35  W58  0.0405428909544
    W35  W59  -0.00307787909615
    W35  W60  0.0652692195614
    W35  W61  -0.0245763896004
    W35  W62  0.04232481782
    W35  W63  -0.0235213374666
    W35  W64  0.000820850202225
    W35  W65  0.013553871535
    W35  W66  0.0479503925707
    W35  W67  0.0342124608413
    W35  W68  0.0606897269958
    W35  W69  0.0185446373549
    W35  W70  0.00304304371435
    W35  W71  0.0752027250397
    W35  W72  0.05385747458
    W35  W73  -0.00139798599671
    W35  W74  0.0273307415952
    W35  W75  -0.0135551827552
    W35  W76  -0.00115634530897
    W35  W77  -0.0330203732902
    W35  W78  -0.0454042635225
    W35  W79  0.0202088948707
    W35  W80  -0.0064837555681
    W35  W81  -0.026478734189
    W35  W82  -0.0197435664906
    W35  W83  -0.0251329286512
    W35  W84  -0.097217992321
    W35  W85  0.0115067040267
    W35  W86  0.0411426712987
    W35  W87  0.061191374407
    W35  W88  0.0790354332165
    W35  W89  0.0100246063584
    W35  W90  -0.0508406328433
    W35  W91  0.104198667669
    W35  W92  0.0168827041288
    W35  W93  0.00204369429945
    W35  W94  0.0139693390046
    W35  W95  0.0397628602627
    W35  W96  -0.0328096938887
    W35  W97  -0.0226982653799
    W35  W98  -0.0284722483203
    W35  W99  0.0395706594093
    W35  W100  -0.0128889659406
    W35  W101  0.00787463406495
    W35  W102  0.0432020113359
    W35  W103  -0.0388299447272
    W35  W104  0.0222785911097
    W35  W105  -0.0106676275443
    W35  W106  0.0611425699486
    W35  W107  0.015952450447
    W35  W108  -0.00911292766641
    W35  W109  -0.0791812941218
    W35  W110  0.0268561568171
    W35  W111  -0.0275322453099
    W35  W112  -0.0447379464435
    W35  W113  -0.0121174607941
    W35  W114  -0.0676978571723
    W35  W115  -0.0423389223159
    W35  W116  -0.0655358110408
    W35  W117  0.020410456913
    W35  W118  -0.0358686896068
    W35  W119  -0.0166425326815
    W35  W120  0.00123384457207
    W35  W121  0.0706595440309
    W35  W122  -0.0329903174623
    W35  W123  0.0377146842502
    W35  W124  0.0139337838382
    W35  W125  -0.00259690732503
    W35  W126  0.0280369755916
    W35  W127  -0.0147448023344
    W35  W128  -0.0386565957703
    W35  W129  -0.00256736330405
    W35  W130  -0.0425944601509
    W35  W131  0.00709237524741
    W35  W132  0.0378329010062
    W35  W133  -0.0142974750872
    W35  W134  -0.0281198210529
    W35  W135  0.0842476010071
    W35  W136  0.0280163995346
    W35  W137  0.0324069128764
    W35  W138  0.00646686463402
    W35  W139  -0.0143961342053
    W35  W140  -0.0181831534473
    W35  W141  0.0764756365833
    W35  W142  0.0455573725504
    W35  W143  -0.0171381609831
    W35  W144  -0.0491255098237
    W35  W145  -0.0592299456329
    W35  W146  -0.0116107694159
    W35  W147  0.0125946907511
    W35  W148  0.0647787467913
    W35  W149  -0.0149937341844
    W36  W36  0.247725725333
    W36  W37  0.018959038793
    W36  W38  0.0340378118474
    W36  W39  -0.0302661349563
    W36  W40  -0.0691382519755
    W36  W41  0.025312601151
    W36  W42  0.0342548272193
    W36  W43  -0.0240459718432
    W36  W44  0.042137767101
    W36  W45  0.0136813050397
    W36  W46  -0.0633846033342
    W36  W47  -0.00335248657427
    W36  W48  0.0251970255766
    W36  W49  0.0738743721818
    W36  W50  -0.00681806842242
    W36  W51  0.0464486578228
    W36  W52  -0.0380049464557
    W36  W53  -0.0302141589708
    W36  W54  0.0776750263477
    W36  W55  -0.0413439510319
    W36  W56  0.0391270694529
    W36  W57  0.056794624354
    W36  W58  -0.0713099358118
    W36  W59  -0.00695160042181
    W36  W60  0.0230917776212
    W36  W61  0.0360135352136
    W36  W62  -0.0829238055869
    W36  W63  -0.00410633081646
    W36  W64  0.00312347350123
    W36  W65  -0.138575157688
    W36  W66  0.0426095054449
    W36  W67  -0.0376359624028
    W36  W68  0.0301657105214
    W36  W69  0.0344971518307
    W36  W70  -0.0383138561712
    W36  W71  0.0338255731717
    W36  W72  0.0345805388918
    W36  W73  0.0399784900229
    W36  W74  0.0484221039462
    W36  W75  -0.0141368442725
    W36  W76  0.00046043434487
    W36  W77  -0.0581058202737
    W36  W78  -0.0749147799244
    W36  W79  -0.00502544577767
    W36  W80  0.0088821374118
    W36  W81  -0.0296464474749
    W36  W82  -0.0506905618677
    W36  W83  0.0992494212569
    W36  W84  -0.00059287231014
    W36  W85  0.0444280159685
    W36  W86  -0.0167945272365
    W36  W87  -0.000628204186616
    W36  W88  0.0449535281758
    W36  W89  -0.0160059283761
    W36  W90  -0.0293908087551
    W36  W91  -0.0150311153517
    W36  W92  0.00235695062513
    W36  W93  -0.077099105283
    W36  W94  -0.0442491920942
    W36  W95  0.0967793697935
    W36  W96  0.0795668726731
    W36  W97  -0.0701311148608
    W36  W98  0.0305466077867
    W36  W99  0.0600734653073
    W36  W100  0.0473896799541
    W36  W101  -0.0518153898437
    W36  W102  0.0222010042131
    W36  W103  0.00700774785352
    W36  W104  -0.0354676242224
    W36  W105  -0.00675388059145
    W36  W106  0.0507368457812
    W36  W107  0.0134132162756
    W36  W108  0.0140520654355
    W36  W109  0.0914236882403
    W36  W110  -0.0105031325295
    W36  W111  0.0108958975514
    W36  W112  0.0331020729878
    W36  W113  -0.0192560469614
    W36  W114  -0.0474777508466
    W36  W115  -0.0113112730746
    W36  W116  0.0267556390517
    W36  W117  0.0806881477108
    W36  W118  -0.00709023318076
    W36  W119  -0.0478436780681
    W36  W120  0.0452209766499
    W36  W121  -0.0293100579361
    W36  W122  -0.0272640007297
    W36  W123  0.0328822978427
    W36  W124  0.0362429358427
    W36  W125  -0.0232256117351
    W36  W126  -0.0665060254469
    W36  W127  -0.0591738053336
    W36  W128  -0.0113792482619
    W36  W129  0.0239807736377
    W36  W130  -0.025227251572
    W36  W131  0.067623969486
    W36  W132  -0.0445834125966
    W36  W133  0.0332233565748
    W36  W134  -0.0644841813062
    W36  W135  0.0825846705275
    W36  W136  -0.017849454662
    W36  W137  -0.0928158003094
    W36  W138  -0.0402934541972
    W36  W139  -0.00765759399159
    W36  W140  0.0186700306869
    W36  W141  0.0479568400601
    W36  W142  -0.0263908170201
    W36  W143  -0.00172667474761
    W36  W144  0.0304624401757
    W36  W145  0.0221695025558
    W36  W146  0.00341403477422
    W36  W147  -0.0135657257929
    W36  W148  -0.00723945597724
    W36  W149  -0.0102154192672
    W37  W37  0.259968160086
    W37  W38  -0.0342984306616
    W37  W39  -0.0969839716366
    W37  W40  -0.0653800547219
    W37  W41  0.00734670283959
    W37  W42  0.0374108855267
    W37  W43  0.00609629249541
    W37  W44  0.0425110339911
    W37  W45  0.0223781423439
    W37  W46  0.0663119468706
    W37  W47  0.0673320814428
    W37  W48  0.0100801662484
    W37  W49  -0.121144002622
    W37  W50  -0.0510281136399
    W37  W51  -0.033007626549
    W37  W52  0.0432524564201
    W37  W53  -0.0297124158224
    W37  W54  0.00172188861863
    W37  W55  -0.05470929034
    W37  W56  -0.119267351555
    W37  W57  0.0477225763012
    W37  W58  -0.0652311318182
    W37  W59  0.00115836663605
    W37  W60  -0.00535281586296
    W37  W61  0.0699093518455
    W37  W62  -0.0606015392191
    W37  W63  -0.0451164032465
    W37  W64  -0.0421626971466
    W37  W65  -0.0452891662198
    W37  W66  -0.0891157332648
    W37  W67  -0.0506943038374
    W37  W68  0.0103686199612
    W37  W69  -0.0468837278918
    W37  W70  0.157621088367
    W37  W71  -0.0581060849454
    W37  W72  -0.0130796114597
    W37  W73  -0.0267646080175
    W37  W74  0.0597742160309
    W37  W75  0.0209035543868
    W37  W76  -0.0439085230581
    W37  W77  -0.0676477690539
    W37  W78  -0.00417017742463
    W37  W79  -0.0799165472264
    W37  W80  -0.0272619474729
    W37  W81  0.00366812092192
    W37  W82  0.0313494741409
    W37  W83  -0.0319330150825
    W37  W84  -0.0489079020615
    W37  W85  -0.0791956365736
    W37  W86  -0.136426318441
    W37  W87  0.0252313495393
    W37  W88  0.0279156741703
    W37  W89  -0.041110299216
    W37  W90  0.021376356598
    W37  W91  -0.0432126043936
    W37  W92  -0.0861629532685
    W37  W93  0.0167624194177
    W37  W94  -0.0439592590977
    W37  W95  0.0552635468823
    W37  W96  0.0318964668009
    W37  W97  0.0477067391497
    W37  W98  0.0146755890539
    W37  W99  0.00782990802648
    W37  W100  0.0269952432771
    W37  W101  0.00881525711277
    W37  W102  0.0510434325418
    W37  W103  0.0371727491555
    W37  W104  -0.00913190964296
    W37  W105  -0.010567973141
    W37  W106  -0.0376527031659
    W37  W107  0.0147787532042
    W37  W108  -0.0551541719783
    W37  W109  0.00591813207992
    W37  W110  -0.0780004402002
    W37  W111  0.0103838601264
    W37  W112  0.076319687093
    W37  W113  -0.0143468780433
    W37  W114  0.0880233487099
    W37  W115  -0.031522834111
    W37  W116  0.0348829516874
    W37  W117  0.0954272533074
    W37  W118  0.00290312496838
    W37  W119  -0.00212719533863
    W37  W120  -0.0783414949136
    W37  W121  -0.123913405546
    W37  W122  -0.00119231014858
    W37  W123  -0.042934976966
    W37  W124  -0.0385167550478
    W37  W125  0.037612075949
    W37  W126  -0.019243673687
    W37  W127  -0.033962516483
    W37  W128  0.0745174576987
    W37  W129  0.00851397015721
    W37  W130  0.00445385269304
    W37  W131  -0.0420600205463
    W37  W132  0.0384798565826
    W37  W133  0.0703451323963
    W37  W134  -0.0601435184988
    W37  W135  0.0206989953024
    W37  W136  0.038390793405
    W37  W137  0.00523672858691
    W37  W138  -0.0458255316527
    W37  W139  0.0290180655229
    W37  W140  0.0542208065733
    W37  W141  -0.0291508948909
    W37  W142  -0.0753150240577
    W37  W143  -0.0494399636628
    W37  W144  -0.000233738366099
    W37  W145  0.018946058652
    W37  W146  0.0335350139945
    W37  W147  0.00152999236533
    W37  W148  0.0111532188599
    W37  W149  0.036631398317
    W38  W38  0.406177525187
    W38  W39  0.102310807851
    W38  W40  0.0957963003341
    W38  W41  0.104236592615
    W38  W42  -0.000558974676216
    W38  W43  -0.0564696551093
    W38  W44  -0.0121034398325
    W38  W45  -0.126577425408
    W38  W46  -0.0009181146952
    W38  W47  0.0272571266043
    W38  W48  0.156085999605
    W38  W49  0.0375386609386
    W38  W50  0.0161308151635
    W38  W51  -0.0216352265377
    W38  W52  -0.0518031786263
    W38  W53  0.00200029502658
    W38  W54  0.127475371174
    W38  W55  -0.0537432851891
    W38  W56  0.032814391467
    W38  W57  0.00232675604697
    W38  W58  0.0356686558563
    W38  W59  0.0221125863709
    W38  W60  0.144857719351
    W38  W61  -0.03938661247
    W38  W62  0.0907014048045
    W38  W63  -0.0701512923778
    W38  W64  -0.0114027492156
    W38  W65  0.0992844943562
    W38  W66  0.068749871491
    W38  W67  0.00160701458699
    W38  W68  0.00726633874805
    W38  W69  0.0287983968821
    W38  W70  0.0288353425438
    W38  W71  -0.0123259608657
    W38  W72  -0.000503664811543
    W38  W73  -0.00533288980603
    W38  W74  -0.0652634572645
    W38  W75  -0.0125557595436
    W38  W76  -0.0923891812344
    W38  W77  -0.0250788583915
    W38  W78  -0.0474041486213
    W38  W79  0.0429253579414
    W38  W80  -0.052670228573
    W38  W81  -0.0485496170388
    W38  W82  0.115088294764
    W38  W83  -0.168714699386
    W38  W84  -0.0894132777137
    W38  W85  0.0191641482316
    W38  W86  0.017062370025
    W38  W87  0.0274465095702
    W38  W88  0.0660925241887
    W38  W89  -0.0308407812847
    W38  W90  -0.0510320380267
    W38  W91  -0.0137407088372
    W38  W92  -0.088426514605
    W38  W93  -0.0688400611157
    W38  W94  0.0712771622522
    W38  W95  0.0565219274917
    W38  W96  -0.0048639863372
    W38  W97  -0.063838361093
    W38  W98  -0.0873856954191
    W38  W99  0.00995876010015
    W38  W100  -0.0422664587487
    W38  W101  0.0378628395004
    W38  W102  0.0600349385179
    W38  W103  -0.0443841656876
    W38  W104  -0.0685028287547
    W38  W105  -0.0109845983916
    W38  W106  0.0338696047142
    W38  W107  -0.0318698674134
    W38  W108  0.0239925418082
    W38  W109  -0.0633187605174
    W38  W110  0.0465887920649
    W38  W111  -0.0678342823286
    W38  W112  0.043476053553
    W38  W113  -0.00816735901551
    W38  W114  -0.0267371051094
    W38  W115  -0.0212780306477
    W38  W116  -0.0138293989179
    W38  W117  -0.0506982053938
    W38  W118  -0.0674426672362
    W38  W119  0.0183199762568
    W38  W120  0.0633358165405
    W38  W121  0.0372157839067
    W38  W122  -0.025245570228
    W38  W123  0.108467379545
    W38  W124  0.171186073644
    W38  W125  0.0670891836062
    W38  W126  0.038749208637
    W38  W127  0.0504130582792
    W38  W128  0.097818259823
    W38  W129  0.146883798966
    W38  W130  -0.0225664576668
    W38  W131  0.00529524734586
    W38  W132  0.105899803635
    W38  W133  0.0563113802297
    W38  W134  0.0809260669491
    W38  W135  0.0939217876497
    W38  W136  0.150450313655
    W38  W137  0.0569862885424
    W38  W138  0.0268763667263
    W38  W139  -0.0919385207119
    W38  W140  0.0302411086109
    W38  W141  0.0504200232522
    W38  W142  0.0579474567858
    W38  W143  -0.0985050031002
    W38  W144  -0.0366920350111
    W38  W145  -0.0979456151473
    W38  W146  0.0536624567671
    W38  W147  0.0816361041465
    W38  W148  0.0838613745463
    W38  W149  -0.096695514309
    W39  W39  0.288084125682
    W39  W40  0.0798275055585
    W39  W41  -0.0391632181574
    W39  W42  0.026695994178
    W39  W43  -0.000299445722079
    W39  W44  -0.0247252820702
    W39  W45  -0.134697413539
    W39  W46  -0.040250535566
    W39  W47  -0.0395191866179
    W39  W48  -0.0292346322384
    W39  W49  0.0396117408169
    W39  W50  0.0310843100763
    W39  W51  -0.046566538921
    W39  W52  -0.0818617806547
    W39  W53  0.0481901267804
    W39  W54  -0.0648282794703
    W39  W55  -0.0135109083341
    W39  W56  -0.00509975879727
    W39  W57  -0.0562959023309
    W39  W58  0.0666498971621
    W39  W59  0.0263330070531
    W39  W60  0.0682883856697
    W39  W61  0.0173986529048
    W39  W62  0.0596204385101
    W39  W63  -0.051950343226
    W39  W64  -0.00646693356646
    W39  W65  0.139694572734
    W39  W66  0.00572660946222
    W39  W67  0.0226606099826
    W39  W68  -0.0680614654262
    W39  W69  0.0410002330553
    W39  W70  -0.0739414384599
    W39  W71  0.0367393064272
    W39  W72  -0.00621786895308
    W39  W73  0.0269565087069
    W39  W74  -0.0401357597829
    W39  W75  0.0451000632647
    W39  W76  0.0109618448105
    W39  W77  0.0903145894993
    W39  W78  -0.0273992263848
    W39  W79  0.0104986252068
    W39  W80  -0.0178981302992
    W39  W81  0.0174312071166
    W39  W82  0.00816123773065
    W39  W83  -0.0302132852304
    W39  W84  0.0657176338102
    W39  W85  0.00778996526023
    W39  W86  0.0702406772833
    W39  W87  0.101329570291
    W39  W88  -0.0415330464736
    W39  W89  0.114092308676
    W39  W90  0.0305971306153
    W39  W91  -0.0210260737178
    W39  W92  -0.0412986836607
    W39  W93  -0.0231819878654
    W39  W94  0.092911240395
    W39  W95  0.0051557362343
    W39  W96  -0.00141866735211
    W39  W97  -0.0147790598449
    W39  W98  -0.00269894872438
    W39  W99  0.0828321782028
    W39  W100  -0.0298370017871
    W39  W101  0.0252217814643
    W39  W102  -0.0120402084724
    W39  W103  0.0428517285395
    W39  W104  0.0432894135956
    W39  W105  0.0478939255059
    W39  W106  0.127390170123
    W39  W107  -0.0807593625475
    W39  W108  -0.0231470174683
    W39  W109  -0.0649630987677
    W39  W110  0.0624048841882
    W39  W111  -0.0569652498529
    W39  W112  -0.0421254709282
    W39  W113  0.0628285369714
    W39  W114  -0.133971028104
    W39  W115  -0.00235199300368
    W39  W116  0.102035411996
    W39  W117  0.0217957001666
    W39  W118  -0.0181927215309
    W39  W119  0.0745420581405
    W39  W120  0.0685970139419
    W39  W121  0.106882785911
    W39  W122  0.0052642227778
    W39  W123  0.0810005349663
    W39  W124  0.149141755629
    W39  W125  -0.0699047354605
    W39  W126  0.0304119430692
    W39  W127  -0.0159156933271
    W39  W128  -0.0485218524953
    W39  W129  -0.00159603221672
    W39  W130  -0.0718951686961
    W39  W131  0.00342677548788
    W39  W132  0.0505343649731
    W39  W133  0.00825865036285
    W39  W134  0.00811122654899
    W39  W135  0.0354116011226
    W39  W136  -0.00617822379236
    W39  W137  0.0111947067788
    W39  W138  0.10372987753
    W39  W139  -0.122806384126
    W39  W140  0.00450190667141
    W39  W141  0.0716582556616
    W39  W142  0.0640018543145
    W39  W143  0.0345469881863
    W39  W144  -0.0255591345831
    W39  W145  -0.0978181568762
    W39  W146  -0.0754400034414
    W39  W147  0.075999117693
    W39  W148  -0.0351388079309
    W39  W149  -0.0540527408074
    W40  W40  0.249250397711
    W40  W41  0.0103984916503
    W40  W42  -0.0356475559598
    W40  W43  -0.0186529428347
    W40  W44  0.00192519387386
    W40  W45  -0.0879258872926
    W40  W46  0.0560872045515
    W40  W47  0.0034237805698
    W40  W48  -0.039686977487
    W40  W49  0.00465981522163
    W40  W50  -0.0011487889104
    W40  W51  -0.0179709955035
    W40  W52  0.13412930756
    W40  W53  0.00403835957401
    W40  W54  -0.0238529275851
    W40  W55  0.0352716787617
    W40  W56  0.0857821455546
    W40  W57  -0.0307992188617
    W40  W58  0.0209767218832
    W40  W59  0.00930750954253
    W40  W60  0.0475803903365
    W40  W61  -0.111598415325
    W40  W62  0.0965453637148
    W40  W63  0.0334782704781
    W40  W64  -0.0158374763554
    W40  W65  0.113488905369
    W40  W66  -0.0337752748854
    W40  W67  -0.00667263636845
    W40  W68  -0.136961946151
    W40  W69  -0.00611820482785
    W40  W70  -0.0528794784435
    W40  W71  -0.0341448544733
    W40  W72  -0.0390981489375
    W40  W73  0.0470615452003
    W40  W74  -0.0351472110548
    W40  W75  0.0670514385003
    W40  W76  0.016370196738
    W40  W77  0.0802166891898
    W40  W78  0.0509353855611
    W40  W79  0.00794136574772
    W40  W80  -0.0149933723312
    W40  W81  0.00400511999712
    W40  W82  0.111539863755
    W40  W83  -0.0452316933283
    W40  W84  0.101366385259
    W40  W85  0.0628765668027
    W40  W86  0.10003563695
    W40  W87  -0.0255313749003
    W40  W88  -0.055123975586
    W40  W89  -0.00412861341538
    W40  W90  0.0119601156641
    W40  W91  -0.0021481531658
    W40  W92  -0.0779545673518
    W40  W93  -0.028140995903
    W40  W94  -0.00775747295804
    W40  W95  0.0449300876524
    W40  W96  -0.0508246147223
    W40  W97  0.0299506875856
    W40  W98  -0.067210547773
    W40  W99  -0.0229537625105
    W40  W100  -0.0417022007709
    W40  W101  0.0761336813822
    W40  W102  -0.0673876561693
    W40  W103  0.0204020518355
    W40  W104  -0.0422881714426
    W40  W105  0.0622476634696
    W40  W106  -0.0299269429899
    W40  W107  -0.0580345280607
    W40  W108  0.0759270246536
    W40  W109  -0.0740851930689
    W40  W110  0.0316494044155
    W40  W111  0.0545478036333
    W40  W112  -0.0864615614952
    W40  W113  0.0121604907245
    W40  W114  -0.0474034475854
    W40  W115  0.0484690456201
    W40  W116  0.0212052163777
    W40  W117  -0.0612242089152
    W40  W118  -0.0215191146236
    W40  W119  0.0139548139131
    W40  W120  -0.00947801008472
    W40  W121  0.118797845435
    W40  W122  0.00330189676156
    W40  W123  -0.0134049016554
    W40  W124  -0.0364938229449
    W40  W125  0.0301471741827
    W40  W126  -0.0113587879541
    W40  W127  0.0512244774233
    W40  W128  0.0508560835426
    W40  W129  0.0799152818314
    W40  W130  0.00150526780224
    W40  W131  0.0109789064066
    W40  W132  0.02107266629
    W40  W133  -0.0454321416445
    W40  W134  0.153306318215
    W40  W135  -0.0531468031999
    W40  W136  0.048922010845
    W40  W137  0.012530721396
    W40  W138  0.0632759630206
    W40  W139  0.0241412422256
    W40  W140  -0.0229432675602
    W40  W141  -0.0585903043599
    W40  W142  0.022842199122
    W40  W143  0.0373425564545
    W40  W144  -0.105664491777
    W40  W145  -0.0195398262863
    W40  W146  0.0832878550398
    W40  W147  0.0601740324567
    W40  W148  0.0786588496313
    W40  W149  -0.0395671567096
    W41  W41  0.274406307157
    W41  W42  0.00584981707794
    W41  W43  -0.0271812230576
    W41  W44  -0.0485328220134
    W41  W45  0.039621390329
    W41  W46  -0.003357439561
    W41  W47  0.0605651965315
    W41  W48  0.112386634975
    W41  W49  0.0424179636827
    W41  W50  0.0878713307625
    W41  W51  0.0766253790658
    W41  W52  0.059212876889
    W41  W53  -0.00121668127894
    W41  W54  0.0834695368837
    W41  W55  -0.0177495702626
    W41  W56  0.018894141242
    W41  W57  0.0743527655783
    W41  W58  0.0152196536573
    W41  W59  0.0707415393284
    W41  W60  0.0762172407572
    W41  W61  -0.0154490535279
    W41  W62  -0.010035660336
    W41  W63  0.0541375227581
    W41  W64  0.00940456368861
    W41  W65  0.0343417758783
    W41  W66  0.0244988220603
    W41  W67  0.0154668784864
    W41  W68  0.0600162829119
    W41  W69  0.0291148871831
    W41  W70  0.00466362546251
    W41  W71  0.0577024632768
    W41  W72  -0.0616901458738
    W41  W73  -0.0145502789855
    W41  W74  -0.133475352241
    W41  W75  -0.0155681399051
    W41  W76  -0.0936231227245
    W41  W77  -0.0818969428837
    W41  W78  0.0621882552832
    W41  W79  0.0302054606035
    W41  W80  -0.00803920725917
    W41  W81  -0.0867580408592
    W41  W82  0.0373812451464
    W41  W83  -0.127021869219
    W41  W84  -0.0926809217698
    W41  W85  -0.0169366055445
    W41  W86  -0.034309406621
    W41  W87  -0.0634080683003
    W41  W88  6.52940078168e-05
    W41  W89  -0.028419599515
    W41  W90  -0.0116959791148
    W41  W91  -0.0123848909805
    W41  W92  -0.00767610971081
    W41  W93  -0.0402746264371
    W41  W94  0.0257491353284
    W41  W95  -0.0131236241418
    W41  W96  -0.0542686062426
    W41  W97  -0.158379815259
    W41  W98  -0.0504909209112
    W41  W99  -0.0174547542942
    W41  W100  -0.110074220465
    W41  W101  0.0279708051536
    W41  W102  -0.00696497705674
    W41  W103  -0.0543735533427
    W41  W104  -0.0655485822515
    W41  W105  0.00105577875317
    W41  W106  -0.00544891145531
    W41  W107  0.0162343087365
    W41  W108  0.0568096023527
    W41  W109  0.0321385714319
    W41  W110  0.0419955591659
    W41  W111  -0.0775018943712
    W41  W112  -0.0636791198942
    W41  W113  0.0169543940231
    W41  W114  0.0571632089513
    W41  W115  0.00435601235233
    W41  W116  -0.014164314689
    W41  W117  -0.115484703103
    W41  W118  -0.0650054143191
    W41  W119  0.00222548553805
    W41  W120  -0.00196436536204
    W41  W121  -0.0520308287441
    W41  W122  0.0458838685289
    W41  W123  -0.0541961645351
    W41  W124  0.00894846023798
    W41  W125  0.12765656743
    W41  W126  -0.0289447560597
    W41  W127  0.109587385469
    W41  W128  0.0579505779208
    W41  W129  0.129184702666
    W41  W130  -0.0420156842093
    W41  W131  0.023968124118
    W41  W132  -0.00580038745358
    W41  W133  -0.00527259649697
    W41  W134  0.0369356733448
    W41  W135  0.0334295222849
    W41  W136  0.123109573025
    W41  W137  -0.0190505229492
    W41  W138  -0.0549830748678
    W41  W139  0.0569509023489
    W41  W140  0.0796986674372
    W41  W141  0.0298656080254
    W41  W142  -0.0262961373762
    W41  W143  -0.0440464450825
    W41  W144  0.00297449246125
    W41  W145  -0.00031184883909
    W41  W146  0.0650937805034
    W41  W147  0.0116124915115
    W41  W148  -0.0620457336214
    W41  W149  0.00500627572175
    W42  W42  0.135943982289
    W42  W43  0.0151712602028
    W42  W44  -0.0138826363876
    W42  W45  -0.0207055960096
    W42  W46  -0.00964681017702
    W42  W47  -0.00646064579157
    W42  W48  -0.0319785594805
    W42  W49  -0.0119269385574
    W42  W50  0.0390565100941
    W42  W51  0.0425622950572
    W42  W52  0.00935858061531
    W42  W53  0.0617632701545
    W42  W54  -0.0896851689759
    W42  W55  -0.0659422803553
    W42  W56  -0.0564582512854
    W42  W57  -0.0181861219507
    W42  W58  -0.0401788696365
    W42  W59  -0.0358284856167
    W42  W60  0.0422333643262
    W42  W61  0.0783002285667
    W42  W62  -0.0795543171127
    W42  W63  -0.0328352576557
    W42  W64  -0.0283045447399
    W42  W65  -0.0282037655849
    W42  W66  -0.0543813984807
    W42  W67  0.014033981422
    W42  W68  -0.0029107043031
    W42  W69  0.0260375655413
    W42  W70  0.00252958677404
    W42  W71  0.0655356263364
    W42  W72  0.0137127344133
    W42  W73  -0.0336970856204
    W42  W74  0.0490770582704
    W42  W75  0.00555976163034
    W42  W76  0.00773537478773
    W42  W77  -0.0169404868937
    W42  W78  -0.0491685950291
    W42  W79  -0.0330570257788
    W42  W80  0.0212001516217
    W42  W81  -0.0379408769342
    W42  W82  -0.0326010422847
    W42  W83  0.0237298621332
    W42  W84  -0.0232366448666
    W42  W85  -0.0662162889294
    W42  W86  -0.0219307599419
    W42  W87  0.0498776214631
    W42  W88  -0.0286131921078
    W42  W89  0.0623395679654
    W42  W90  0.077790299272
    W42  W91  0.00483597397469
    W42  W92  -0.0210857182413
    W42  W93  -0.0345606801882
    W42  W94  0.0534547344829
    W42  W95  0.000401138688489
    W42  W96  0.0259292968028
    W42  W97  -0.0373395443927
    W42  W98  0.0172339278517
    W42  W99  0.0645979613952
    W42  W100  0.00855278933233
    W42  W101  0.0156533496734
    W42  W102  -0.00684978614259
    W42  W103  0.0437853935037
    W42  W104  0.0427576711208
    W42  W105  0.0264746837087
    W42  W106  0.0498844793218
    W42  W107  0.0130322349791
    W42  W108  -0.0400692124435
    W42  W109  0.00467042864798
    W42  W110  -0.0491954206779
    W42  W111  -0.0727352416359
    W42  W112  -0.00638013213537
    W42  W113  0.0327391243795
    W42  W114  -0.00788026868768
    W42  W115  0.00342250456546
    W42  W116  0.049396430385
    W42  W117  0.062321181937
    W42  W118  -0.029453145934
    W42  W119  -0.0191397013644
    W42  W120  0.0337623516706
    W42  W121  -0.0159740685789
    W42  W122  0.0321800676515
    W42  W123  -0.0201731185483
    W42  W124  0.0152157216159
    W42  W125  0.0142726213519
    W42  W126  -0.0239253722557
    W42  W127  -0.00877091789157
    W42  W128  -0.0133894160305
    W42  W129  0.00151258705062
    W42  W130  -0.0477531212009
    W42  W131  0.0168443377041
    W42  W132  0.0557820949614
    W42  W133  0.00383939700477
    W42  W134  -0.0717125560817
    W42  W135  0.0582511886568
    W42  W136  -0.0214776204305
    W42  W137  0.0210715462218
    W42  W138  -0.0303976076995
    W42  W139  -0.0259401413072
    W42  W140  0.0431993541824
    W42  W141  0.0622151308994
    W42  W142  -0.0161351307539
    W42  W143  0.0155365976929
    W42  W144  -0.0585418624173
    W42  W145  -0.0102581300508
    W42  W146  -0.0561038664844
    W42  W147  0.020068637767
    W42  W148  -0.0283668653652
    W42  W149  -0.0205701200669
    W43  W43  0.118904848836
    W43  W44  -0.00557855257494
    W43  W45  -0.0320958125716
    W43  W46  -0.0375938611045
    W43  W47  0.0121992197328
    W43  W48  -0.0522723982323
    W43  W49  0.013257640836
    W43  W50  0.0484240912254
    W43  W51  -0.0442117249967
    W43  W52  -0.0175297605495
    W43  W53  0.0238861496431
    W43  W54  -0.0364861368514
    W43  W55  0.0296549261406
    W43  W56  -0.017121797564
    W43  W57  -0.0618654121407
    W43  W58  -0.0568987551987
    W43  W59  -0.0280107702215
    W43  W60  -0.118014444188
    W43  W61  -0.0701196114758
    W43  W62  -0.0272188964153
    W43  W63  0.0324232329701
    W43  W64  -0.00511143966294
    W43  W65  -0.0117407778097
    W43  W66  0.00634141172796
    W43  W67  -0.0482364619215
    W43  W68  0.00285509887375
    W43  W69  0.00221986666641
    W43  W70  -0.0365634359356
    W43  W71  0.0396473541336
    W43  W72  -0.0205782569949
    W43  W73  -0.010795748161
    W43  W74  0.0200520352269
    W43  W75  -0.0239773281718
    W43  W76  0.0845396878721
    W43  W77  0.0209583114677
    W43  W78  0.0315128268434
    W43  W79  -0.0315700481238
    W43  W80  0.000714098365385
    W43  W81  -0.0355343656831
    W43  W82  -0.00964914843455
    W43  W83  0.0176920661098
    W43  W84  -0.0190129557292
    W43  W85  -0.0397790711384
    W43  W86  0.00829594165853
    W43  W87  0.0111522742684
    W43  W88  -0.0438927874788
    W43  W89  0.0210925911897
    W43  W90  0.020610436582
    W43  W91  -0.0184813163767
    W43  W92  0.0580586437089
    W43  W93  0.00310377604987
    W43  W94  0.0270410177099
    W43  W95  -0.0450424161656
    W43  W96  0.0361247087195
    W43  W97  0.0181944508226
    W43  W98  -0.0369282588392
    W43  W99  -0.00872569001022
    W43  W100  -0.0692306467903
    W43  W101  0.0368335704843
    W43  W102  -0.0575779276807
    W43  W103  0.0513157909268
    W43  W104  0.0265521894961
    W43  W105  -0.0216365233588
    W43  W106  0.0213598793129
    W43  W107  -0.00127517928757
    W43  W108  0.0171057556774
    W43  W109  -0.00135674906633
    W43  W110  -0.0444827534654
    W43  W111  -0.0777457609154
    W43  W112  0.00719331826961
    W43  W113  0.0462400180884
    W43  W114  0.0376053090121
    W43  W115  0.0116539508692
    W43  W116  -0.00262270667752
    W43  W117  -0.0309468299595
    W43  W118  0.0663190678934
    W43  W119  0.0754486966358
    W43  W120  0.0503913665972
    W43  W121  0.0718502926175
    W43  W122  0.0134868092206
    W43  W123  0.0121869350457
    W43  W124  0.0564896294175
    W43  W125  -0.00483470639237
    W43  W126  -0.0102946928571
    W43  W127  -0.0370592648466
    W43  W128  0.00472995897249
    W43  W129  -0.075261078664
    W43  W130  0.0161734622305
    W43  W131  -0.0225054410111
    W43  W132  0.0347189158646
    W43  W133  -0.0363775309097
    W43  W134  -0.039350198771
    W43  W135  -0.010573626663
    W43  W136  -0.0760714275705
    W43  W137  0.0230252454872
    W43  W138  0.0333152468467
    W43  W139  -0.0290417861438
    W43  W140  -0.04739570786
    W43  W141  0.000947517791168
    W43  W142  -0.0128585711223
    W43  W143  -0.0206624704948
    W43  W144  -0.000309479459296
    W43  W145  0.00527504068121
    W43  W146  -0.0719144148039
    W43  W147  0.00495975079557
    W43  W148  -0.00929264221779
    W43  W149  0.0133666000089
    W44  W44  0.186731421782
    W44  W45  0.00485679574478
    W44  W46  0.0800034400216
    W44  W47  0.0371005658884
    W44  W48  -0.0517000783241
    W44  W49  -0.0477216795498
    W44  W50  -0.0623031925351
    W44  W51  -0.00668121220607
    W44  W52  0.000795327451666
    W44  W53  0.00715103747243
    W44  W54  0.0410197206828
    W44  W55  -0.0179777971306
    W44  W56  0.00591449410714
    W44  W57  -0.0224471415299
    W44  W58  -0.0261655872272
    W44  W59  0.00344585559694
    W44  W60  -0.0578765181826
    W44  W61  0.000434248752144
    W44  W62  -0.0534955219716
    W44  W63  -0.0656807347431
    W44  W64  -0.0506824266422
    W44  W65  -0.039479626854
    W44  W66  -0.00666420397163
    W44  W67  -0.120446849107
    W44  W68  -0.0213872653659
    W44  W69  -0.0507417632021
    W44  W70  0.0546713244899
    W44  W71  -0.00141664649736
    W44  W72  -0.0312608538589
    W44  W73  0.00786534178123
    W44  W74  0.0296555749315
    W44  W75  0.0962958013853
    W44  W76  0.0359599005586
    W44  W77  -0.0129878938956
    W44  W78  -0.00627601619743
    W44  W79  0.0181291735877
    W44  W80  -0.0413457980805
    W44  W81  0.0191685031284
    W44  W82  0.0702682671266
    W44  W83  0.088675827418
    W44  W84  0.0153816801051
    W44  W85  0.0733415054117
    W44  W86  -0.0380506583627
    W44  W87  0.00773045718458
    W44  W88  -0.00353309159675
    W44  W89  -0.0156431401683
    W44  W90  -0.016672761436
    W44  W91  -0.0734596379716
    W44  W92  -0.0301750321003
    W44  W93  -0.0525541290499
    W44  W94  -0.0723462157032
    W44  W95  0.0728847848189
    W44  W96  0.0374606640113
    W44  W97  0.104453325396
    W44  W98  0.0232805405479
    W44  W99  0.0014246501632
    W44  W100  0.0897736416981
    W44  W101  -0.0697448421859
    W44  W102  0.0417974660804
    W44  W103  0.0697326809709
    W44  W104  -0.0393859187624
    W44  W105  0.0976008955542
    W44  W106  -0.00148091736911
    W44  W107  0.0457450452879
    W44  W108  -0.00322563724008
    W44  W109  -0.0289388563049
    W44  W110  0.0169474333819
    W44  W111  0.0405851307725
    W44  W112  0.0239539531433
    W44  W113  -0.0480023128712
    W44  W114  -0.0153237829276
    W44  W115  0.0626324896883
    W44  W116  0.0247202056689
    W44  W117  0.0401360253675
    W44  W118  0.0295035505442
    W44  W119  -0.00148398526532
    W44  W120  -0.0291400946736
    W44  W121  -0.040458561809
    W44  W122  -0.067775665075
    W44  W123  -0.0143951588609
    W44  W124  0.0210372375249
    W44  W125  -0.012829466617
    W44  W126  -0.00901859408823
    W44  W127  -0.0223193157259
    W44  W128  -0.0188466001458
    W44  W129  -0.0146536405679
    W44  W130  0.0182545672645
    W44  W131  -0.0297986036267
    W44  W132  -0.0404407412858
    W44  W133  0.031749875879
    W44  W134  -0.0263526709392
    W44  W135  -0.0363109644977
    W44  W136  -0.0963236844919
    W44  W137  -0.0359414517189
    W44  W138  0.0283295133926
    W44  W139  -0.0510864571604
    W44  W140  0.00994337264706
    W44  W141  -0.0202571131387
    W44  W142  -0.0188712654792
    W44  W143  -0.0449279180912
    W44  W144  -0.0140404847873
    W44  W145  0.0843388336956
    W44  W146  0.0564932136825
    W44  W147  0.0404667411507
    W44  W148  0.0461941394136
    W44  W149  -0.0424101825836
    W45  W45  0.225948682413
    W45  W46  0.0196963522526
    W45  W47  0.0197830925189
    W45  W48  0.0565941618119
    W45  W49  -0.0300175035853
    W45  W50  0.0328431344539
    W45  W51  0.125483321732
    W45  W52  0.021332531449
    W45  W53  -0.000790374430674
    W45  W54  0.058473852414
    W45  W55  0.0173459299414
    W45  W56  -0.0368267831088
    W45  W57  0.0704500552331
    W45  W58  -0.0104706962305
    W45  W59  0.0471109147328
    W45  W60  -0.038219510712
    W45  W61  0.135186989566
    W45  W62  -0.0738661807141
    W45  W63  0.0234664535951
    W45  W64  0.0167691986198
    W45  W65  -0.0815259812863
    W45  W66  -0.0196677808104
    W45  W67  0.0236423064295
    W45  W68  0.0649283069064
    W45  W69  -0.0171239961056
    W45  W70  0.0711919552848
    W45  W71  -0.0294801931311
    W45  W72  0.00181455395895
    W45  W73  -0.019198758616
    W45  W74  0.0331156314405
    W45  W75  -0.0331310606461
    W45  W76  -0.0439520548341
    W45  W77  -0.0327880472943
    W45  W78  0.0307335055367
    W45  W79  0.0793403999799
    W45  W80  0.0651021036931
    W45  W81  0.00590704813301
    W45  W82  0.00192895823455
    W45  W83  0.0353644197857
    W45  W84  0.0280554011407
    W45  W85  0.00232434533652
    W45  W86  -0.0342767407435
    W45  W87  -0.0756912039492
    W45  W88  0.0384793745748
    W45  W89  -0.0521961512647
    W45  W90  -0.0133070954718
    W45  W91  0.00887480121753
    W45  W92  0.0737662167783
    W45  W93  0.0388388889728
    W45  W94  -0.0571437587689
    W45  W95  -0.0484417155402
    W45  W96  -0.0276003095978
    W45  W97  -0.0527060354739
    W45  W98  0.0736135613214
    W45  W99  -0.0525156826674
    W45  W100  0.0708920076799
    W45  W101  -0.0890291545253
    W45  W102  0.043711279538
    W45  W103  -0.0983707654032
    W45  W104  -0.0164583412122
    W45  W105  -0.0149175862589
    W45  W106  -0.118327836813
    W45  W107  0.0624814313288
    W45  W108  0.0468759279051
    W45  W109  0.0622047121189
    W45  W110  -0.00638769743999
    W45  W111  0.0706857048292
    W45  W112  -0.0135154194908
    W45  W113  -0.0622145021552
    W45  W114  0.0623573771875
    W45  W115  0.0239922848868
    W45  W116  -0.0731839762566
    W45  W117  0.0417917192924
    W45  W118  0.0370431052404
    W45  W119  -0.0740462678203
    W45  W120  -0.051252439627
    W45  W121  -0.117125043731
    W45  W122  0.044280068676
    W45  W123  -0.0627855001225
    W45  W124  -0.134926966294
    W45  W125  0.0173980880737
    W45  W126  -0.0447253029893
    W45  W127  0.0137204720773
    W45  W128  0.0257451415251
    W45  W129  -0.0248341143537
    W45  W130  0.0627934185702
    W45  W131  0.0415072158312
    W45  W132  -0.0844388327817
    W45  W133  -0.0173642177575
    W45  W134  -0.0116412253708
    W45  W135  -0.0300508721284
    W45  W136  -0.046164578243
    W45  W137  -0.0760844529022
    W45  W138  -0.0513228027423
    W45  W139  0.0616738032929
    W45  W140  0.0110121747053
    W45  W141  0.00422412220489
    W45  W142  -0.0693694549466
    W45  W143  0.0783999898951
    W45  W144  0.0711935199535
    W45  W145  0.133514841853
    W45  W146  0.0258574645139
    W45  W147  -0.0252296446107
    W45  W148  -0.0945214760059
    W45  W149  0.0514692602573
    W46  W46  0.233483545744
    W46  W47  0.0377025503828
    W46  W48  -0.0365984464796
    W46  W49  -0.10232642199
    W46  W50  -0.0727518567584
    W46  W51  0.0002504025803
    W46  W52  0.10634827429
    W46  W53  0.0294311522711
    W46  W54  -0.0426868967924
    W46  W55  -0.0131809282569
    W46  W56  -0.0304691689803
    W46  W57  -0.00114541748886
    W46  W58  0.0337644331806
    W46  W59  0.0195805000019
    W46  W60  0.0280631497775
    W46  W61  0.0142684727969
    W46  W62  -0.00481684551727
    W46  W63  -0.0620960306036
    W46  W64  -0.0683317732571
    W46  W65  0.0482687878821
    W46  W66  -0.0829127419875
    W46  W67  -0.0540694049575
    W46  W68  -0.0229660281735
    W46  W69  -0.0777688950512
    W46  W70  0.139243210634
    W46  W71  -0.000266565919635
    W46  W72  -0.0400922864783
    W46  W73  -0.0302036886699
    W46  W74  0.00632278825411
    W46  W75  0.125817223414
    W46  W76  -0.0250292132632
    W46  W77  -0.0332712563856
    W46  W78  0.0351052752617
    W46  W79  0.00801855540961
    W46  W80  -0.0408777567747
    W46  W81  0.0201604641066
    W46  W82  0.106445273124
    W46  W83  -0.0148006567434
    W46  W84  -0.0370837979411
    W46  W85  0.0235500293042
    W46  W86  -0.0516811728498
    W46  W87  0.0109383221243
    W46  W88  0.00323850302148
    W46  W89  -0.0192350016767
    W46  W90  0.00959453483616
    W46  W91  -0.00217465493313
    W46  W92  -0.0840822513158
    W46  W93  -0.00218186852414
    W46  W94  -0.0655398411021
    W46  W95  0.0569568676414
    W46  W96  -0.0653233606503
    W46  W97  0.110971730462
    W46  W98  0.00211300535247
    W46  W99  -0.0185843180037
    W46  W100  0.0613963704262
    W46  W101  -0.0177016990979
    W46  W102  0.0545722315888
    W46  W103  0.0356164297088
    W46  W104  -0.0228393986691
    W46  W105  0.120579173489
    W46  W106  -0.049882472764
    W46  W107  0.0586878163626
    W46  W108  -0.0228250972719
    W46  W109  -0.115395911735
    W46  W110  0.0177570801005
    W46  W111  0.0546687392296
    W46  W112  -0.0534460242923
    W46  W113  -0.0555850202771
    W46  W114  0.019031723448
    W46  W115  0.0496160231107
    W46  W116  -0.0121471863868
    W46  W117  0.0143699457293
    W46  W118  -0.0383786442012
    W46  W119  -0.037680956728
    W46  W120  -0.127516384152
    W46  W121  -0.0693119508214
    W46  W122  -0.0394345701026
    W46  W123  -0.103247790399
    W46  W124  -0.109942470951
    W46  W125  0.0619704640671
    W46  W126  0.0199156024302
    W46  W127  0.0550096175843
    W46  W128  0.000805974269526
    W46  W129  0.0379148235146
    W46  W130  -0.00481000316302
    W46  W131  -0.0591489549968
    W46  W132  -0.000219235843092
    W46  W133  0.0110674967204
    W46  W134  0.017553129536
    W46  W135  -0.0519072231132
    W46  W136  -0.00379530180739
    W46  W137  0.0324128667469
    W46  W138  -0.00258581390711
    W46  W139  0.0322709867157
    W46  W140  0.0494077877853
    W46  W141  -0.033779545605
    W46  W142  -0.0219204779732
    W46  W143  -0.0340641738547
    W46  W144  -0.0975438684184
    W46  W145  0.0617846636645
    W46  W146  0.116495204967
    W46  W147  0.0470315999226
    W46  W148  0.0735931762911
    W46  W149  -0.0236220024114
    W47  W47  0.153829910824
    W47  W48  0.0397609218065
    W47  W49  -0.0513696297426
    W47  W50  0.0272843504513
    W47  W51  0.00314172349555
    W47  W52  0.0324708449406
    W47  W53  -0.00596975350675
    W47  W54  0.0675817132796
    W47  W55  -0.0108695280805
    W47  W56  -0.0459404119054
    W47  W57  0.0172459998037
    W47  W58  -0.0333788375385
    W47  W59  0.0480175765077
    W47  W60  -0.0375755515003
    W47  W61  0.000234420983868
    W47  W62  -0.0181183415956
    W47  W63  -0.00402717921395
    W47  W64  -0.0279571027172
    W47  W65  0.0298810546523
    W47  W66  -0.0268568285211
    W47  W67  -0.0681734418012
    W47  W68  0.00141124204472
    W47  W69  -0.0300978294143
    W47  W70  0.0751206065112
    W47  W71  -0.0284988056252
    W47  W72  -0.0609173405314
    W47  W73  -0.00696402589901
    W47  W74  -0.036174947011
    W47  W75  0.029354328153
    W47  W76  -0.0349322779708
    W47  W77  -0.0193567227663
    W47  W78  0.0517256507115
    W47  W79  0.000978038084587
    W47  W80  -0.0245513050389
    W47  W81  -0.0187622218962
    W47  W82  0.0849248760945
    W47  W83  -0.0630874236605
    W47  W84  -0.0203221931613
    W47  W85  -0.0171701903015
    W47  W86  -0.0586512777753
    W47  W87  -0.0171396819739
    W47  W88  -0.00434649967143
    W47  W89  -0.0273162869444
    W47  W90  -0.00420208543241
    W47  W91  -0.0765921184388
    W47  W92  -0.0345659213762
    W47  W93  -0.0204806017586
    W47  W94  -0.0158126559194
    W47  W95  0.014746158871
    W47  W96  0.0124927067507
    W47  W97  -0.0109302327174
    W47  W98  -0.0234009759659
    W47  W99  -0.0241878833003
    W47  W100  -0.0417013382694
    W47  W101  0.00245733220046
    W47  W102  0.0120257443087
    W47  W103  0.0136809928084
    W47  W104  -0.0482005641034
    W47  W105  0.0166528648521
    W47  W106  -0.0327694013109
    W47  W107  -0.00164116702349
    W47  W108  0.03501183467
    W47  W109  0.000379274223128
    W47  W110  -0.00682206042551
    W47  W111  -0.0237465242869
    W47  W112  0.0122864288993
    W47  W113  -0.00233490398389
    W47  W114  0.0604071816002
    W47  W115  0.020255329691
    W47  W116  0.0179479469532
    W47  W117  -0.0196748054209
    W47  W118  0.0216747013716
    W47  W119  0.0412825075836
    W47  W120  -0.0180971816138
    W47  W121  -0.050911269465
    W47  W122  0.0120040933451
    W47  W123  -0.0197981742315
    W47  W124  0.0337472831415
    W47  W125  0.0518333323538
    W47  W126  -0.0240755197555
    W47  W127  0.0124235886886
    W47  W128  0.0804814976211
    W47  W129  0.0399338329244
    W47  W130  0.0189195609365
    W47  W131  -0.017753011852
    W47  W132  0.0160580919803
    W47  W133  0.023624884059
    W47  W134  0.00923107061894
    W47  W135  -0.0147595152859
    W47  W136  0.0141488016725
    W47  W137  -0.0164199970875
    W47  W138  0.0248099649688
    W47  W139  -0.00989263856773
    W47  W140  0.0255140784451
    W47  W141  -0.01107993695
    W47  W142  -0.0531270694531
    W47  W143  -0.0423273488499
    W47  W144  0.0233825728496
    W47  W145  0.0336231039707
    W47  W146  0.043783972825
    W47  W147  0.0467019494389
    W47  W148  -0.0295267386759
    W47  W149  -0.00311131967145
    W48  W48  0.284890244786
    W48  W49  0.011698146543
    W48  W50  0.0440873362703
    W48  W51  0.0274456672133
    W48  W52  -0.0948758160729
    W48  W53  -0.0354055854298
    W48  W54  0.183705947714
    W48  W55  -0.0118220437991
    W48  W56  -0.0527021957178
    W48  W57  0.0704652127541
    W48  W58  0.0227681692809
    W48  W59  0.0710923409582
    W48  W60  0.0533832527108
    W48  W61  0.0655473108089
    W48  W62  0.0659654756711
    W48  W63  -0.0249524525738
    W48  W64  0.0212114062835
    W48  W65  0.046809586443
    W48  W66  0.0550927222415
    W48  W67  0.0415410410505
    W48  W68  0.113935433336
    W48  W69  -0.00355412197596
    W48  W70  0.116416563738
    W48  W71  -0.0792828577532
    W48  W72  0.0239782116715
    W48  W73  -0.0238462029519
    W48  W74  -0.0408985382116
    W48  W75  -0.0856983910934
    W48  W76  -0.150426963341
    W48  W77  -0.0448161570364
    W48  W78  -0.0168717702418
    W48  W79  0.069912197366
    W48  W80  0.00531422585984
    W48  W81  -0.00208304411027
    W48  W82  0.0534926112708
    W48  W83  -0.173978472667
    W48  W84  -0.107677413408
    W48  W85  -0.035249924922
    W48  W86  -0.0413542634947
    W48  W87  -0.00890289430744
    W48  W88  0.140753606914
    W48  W89  -0.0682975509041
    W48  W90  -0.0889836860567
    W48  W91  0.00245774600256
    W48  W92  0.000801134250232
    W48  W93  0.0163504388172
    W48  W94  0.025934584815
    W48  W95  -0.00963650268898
    W48  W96  0.00487283945022
    W48  W97  -0.114587061851
    W48  W98  -0.0214355980715
    W48  W99  -0.0374121153779
    W48  W100  -0.0439627184249
    W48  W101  -0.0289815837925
    W48  W102  0.104724029697
    W48  W103  -0.142715569863
    W48  W104  -0.0521090245802
    W48  W105  -0.109016553064
    W48  W106  -0.0562649321438
    W48  W107  -0.0160677111392
    W48  W108  0.0402570068548
    W48  W109  0.016076802016
    W48  W110  0.0145122066922
    W48  W111  -0.0210465433303
    W48  W112  0.0681283491429
    W48  W113  -0.0495110039149
    W48  W114  0.0506542982871
    W48  W115  -0.0689032642928
    W48  W116  -0.0888606558815
    W48  W117  -0.0106711137254
    W48  W118  -0.0108441071321
    W48  W119  -0.0138034481834
    W48  W120  0.0125308379448
    W48  W121  -0.0830856962384
    W48  W122  0.0191698469414
    W48  W123  0.0815519967892
    W48  W124  0.0767488152928
    W48  W125  0.041047627107
    W48  W126  0.0188830112249
    W48  W127  0.000534740072611
    W48  W128  0.125159235503
    W48  W129  0.0847586918109
    W48  W130  0.0475795696859
    W48  W131  0.0269488034493
    W48  W132  0.0585157584937
    W48  W133  0.0546589251147
    W48  W134  0.0200041115832
    W48  W135  0.074198180866
    W48  W136  0.121570678711
    W48  W137  0.0117078813056
    W48  W138  0.0203046920178
    W48  W139  -0.0289222991168
    W48  W140  -0.000799174690317
    W48  W141  0.0634904229424
    W48  W142  -0.016859389014
    W48  W143  -0.048371902425
    W48  W144  0.116530092806
    W48  W145  -0.0454044710289
    W48  W146  0.0307399609498
    W48  W147  0.032508144153
    W48  W148  -0.0389763416097
    W48  W149  -0.0147968202509
    W49  W49  0.268972714369
    W49  W50  0.0545376064429
    W49  W51  0.00691483493802
    W49  W52  -0.0421745706658
    W49  W53  -0.00602416085733
    W49  W54  0.0245416416969
    W49  W55  0.0609560162744
    W49  W56  0.116015338056
    W49  W57  0.00767578452539
    W49  W58  0.0022343366421
    W49  W59  0.0111542770857
    W49  W60  -0.013347243996
    W49  W61  -0.107324464266
    W49  W62  0.0167919666063
    W49  W63  0.082762200813
    W49  W64  0.0368821091853
    W49  W65  -0.0319845388444
    W49  W66  0.101647565585
    W49  W67  0.0104135610734
    W49  W68  0.0510877381556
    W49  W69  0.0530290393962
    W49  W70  -0.143946833269
    W49  W71  0.112810298506
    W49  W72  0.0212985396193
    W49  W73  0.0484959239236
    W49  W74  -0.0385912023781
    W49  W75  -0.0342893960497
    W49  W76  0.0473147485966
    W49  W77  -0.0108113135712
    W49  W78  -0.000402889943018
    W49  W79  0.0262126236743
    W49  W80  0.0151941322247
    W49  W81  -0.0501850890788
    W49  W82  -0.0757370792086
    W49  W83  0.045810570063
    W49  W84  -0.0365485898593
    W49  W85  0.0602976115351
    W49  W86  0.091454172565
    W49  W87  -0.00757187724999
    W49  W88  0.0205412811521
    W49  W89  0.0211494716475
    W49  W90  -0.0582903269311
    W49  W91  0.065415348648
    W49  W92  0.091854559699
    W49  W93  -0.0395418938497
    W49  W94  -0.000955725135255
    W49  W95  0.0202146665707
    W49  W96  0.00285381873377
    W49  W97  -0.10362969772
    W49  W98  -0.0363940920493
    W49  W99  0.0317360256728
    W49  W100  -0.0867459454766
    W49  W101  0.00561053072839
    W49  W102  -0.048733994191
    W49  W103  -0.0226381167973
    W49  W104  -0.00588352063861
    W49  W105  -0.0216813325688
    W49  W106  0.0865715027667
    W49  W107  -0.00640478403719
    W49  W108  0.0653606277374
    W49  W109  0.026009926955
    W49  W110  0.0489723264562
    W49  W111  -0.0423482701472
    W49  W112  -0.0896132420817
    W49  W113  0.023580239999
    W49  W114  -0.0807234332166
    W49  W115  -0.0135706819438
    W49  W116  -0.0402735994601
    W49  W117  -0.0634675737215
    W49  W118  -0.00470211041379
    W49  W119  0.00985535956883
    W49  W120  0.0656485776412
    W49  W121  0.118528222548
    W49  W122  -0.0129330998064
    W49  W123  0.0289656253416
    W49  W124  0.0353780371667
    W49  W125  -0.0176600615586
    W49  W126  -0.0293672165812
    W49  W127  -0.0167838888879
    W49  W128  -0.0673754422851
    W49  W129  -0.00487210417171
    W49  W130  -0.0421943472952
    W49  W131  0.0586584550115
    W49  W132  -0.0416820826059
    W49  W133  -0.0633843591118
    W49  W134  -0.0173022915543
    W49  W135  0.0511901074699
    W49  W136  -0.0189077356779
    W49  W137  -0.0470763029066
    W49  W138  0.0196084161477
    W49  W139  0.0179430976586
    W49  W140  -0.0468917876439
    W49  W141  0.0647975447617
    W49  W142  0.0297964864726
    W49  W143  0.0111475653532
    W49  W144  0.0115838061815
    W49  W145  -0.0334307683178
    W49  W146  -0.028202997352
    W49  W147  -0.0186157972061
    W49  W148  -0.00965154760921
    W49  W149  0.00296790684748
    W50  W50  0.219867166168
    W50  W51  0.0945303550768
    W50  W52  0.010859427608
    W50  W53  0.0719143586243
    W50  W54  0.0041257887198
    W50  W55  0.00693979543893
    W50  W56  -0.0219728961292
    W50  W57  -0.031941239395
    W50  W58  -0.0455638818763
    W50  W59  0.0296813217835
    W50  W60  -0.051579270749
    W50  W61  0.011868363158
    W50  W62  -0.0303436802496
    W50  W63  0.061048184388
    W50  W64  -0.00149786792444
    W50  W65  0.0483341105149
    W50  W66  -0.00931474115277
    W50  W67  0.0101379350482
    W50  W68  0.0185410100969
    W50  W69  0.031829598489
    W50  W70  -0.0537715286873
    W50  W71  0.0560225060884
    W50  W72  -0.0352107872987
    W50  W73  -0.0201540733138
    W50  W74  -0.0420374487621
    W50  W75  -0.0359993135134
    W50  W76  -0.00504533062951
    W50  W77  0.0409289836316
    W50  W78  0.0412767149307
    W50  W79  0.0449160830956
    W50  W80  0.0561814595621
    W50  W81  -0.0590014064361
    W50  W82  0.0154283663186
    W50  W83  -0.0502734690726
    W50  W84  -0.00466479173745
    W50  W85  -0.0537826102296
    W50  W86  0.0474180175578
    W50  W87  -0.0174742565122
    W50  W88  -0.0398687546195
    W50  W89  0.057677595484
    W50  W90  0.0450273243747
    W50  W91  -0.0283905732145
    W50  W92  0.0673549970461
    W50  W93  -0.0417765427611
    W50  W94  0.0802914301308
    W50  W95  -0.0781867623029
    W50  W96  0.0225609040719
    W50  W97  -0.145651573388
    W50  W98  -0.0306637040164
    W50  W99  -0.000348072357864
    W50  W100  -0.125111258244
    W50  W101  0.0234722197624
    W50  W102  -0.0619844871417
    W50  W103  -0.0206329342129
    W50  W104  0.00275806197552
    W50  W105  -0.0143564523562
    W50  W106  0.00250126926422
    W50  W107  -0.0226880422285
    W50  W108  0.0937850049098
    W50  W109  0.0374381427751
    W50  W110  -0.0184989506861
    W50  W111  -0.115055629136
    W50  W112  -0.0674918867131
    W50  W113  0.0479975549332
    W50  W114  0.0226660460256
    W50  W115  0.032113215372
    W50  W116  -0.0048447502787
    W50  W117  -0.0650971784824
    W50  W118  0.0259845253473
    W50  W119  0.0335536845907
    W50  W120  0.0968019535204
    W50  W121  0.0406502718065
    W50  W122  0.0899119289188
    W50  W123  -0.00298390676396
    W50  W124  0.0612884488856
    W50  W125  0.0397276639182
    W50  W126  -0.0547238881854
    W50  W127  0.0123682810719
    W50  W128  0.0553928812107
    W50  W129  0.0244904778699
    W50  W130  0.0106019444235
    W50  W131  0.0606657492001
    W50  W132  0.0530913861603
    W50  W133  -0.0629188698077
    W50  W134  -0.00555027609767
    W50  W135  0.0160817930113
    W50  W136  -0.0414401312974
    W50  W137  -0.00422730455709
    W50  W138  0.0614951686043
    W50  W139  -0.029797182133
    W50  W140  -0.0207674692451
    W50  W141  0.0836664167384
    W50  W142  -0.0422178672553
    W50  W143  0.0430745409118
    W50  W144  0.02571584834
    W50  W145  0.00812920552637
    W50  W146  -0.0605056183726
    W50  W147  0.061575078219
    W50  W148  -0.124806720277
    W50  W149  -0.0272969833705
    W51  W51  0.262880936348
    W51  W52  0.0968269613961
    W51  W53  0.0744884826864
    W51  W54  0.00139144726689
    W51  W55  -0.0590638875945
    W51  W56  0.0266082726416
    W51  W57  0.00290813002622
    W51  W58  -0.0262125238466
    W51  W59  -0.0177431292106
    W51  W60  0.0397609822681
    W51  W61  0.0985117313738
    W51  W62  -0.075835762969
    W51  W63  0.0306121692653
    W51  W64  -0.0121585442841
    W51  W65  -0.0399586481897
    W51  W66  -0.0440548511016
    W51  W67  0.0546330716458
    W51  W68  0.00843166789989
    W51  W69  0.00739642792691
    W51  W70  -0.0361677461045
    W51  W71  0.0227592733916
    W51  W72  0.0055555024755
    W51  W73  -0.0413370807786
    W51  W74  -0.0221567642915
    W51  W75  0.00734234012738
    W51  W76  -0.0630377474095
    W51  W77  0.00723928961001
    W51  W78  -0.0255252535286
    W51  W79  0.0770896105636
    W51  W80  0.085540002492
    W51  W81  -0.00432241303799
    W51  W82  -0.0168274502569
    W51  W83  0.0514793511505
    W51  W84  0.025357706337
    W51  W85  0.00767459466725
    W51  W86  0.03436540257
    W51  W87  -0.0826838209271
    W51  W88  -0.0292917196373
    W51  W89  0.0330536319766
    W51  W90  0.0713133226197
    W51  W91  -0.0111352487388
    W51  W92  0.0285925089335
    W51  W93  -0.0802067031663
    W51  W94  0.0196676060914
    W51  W95  -0.0478281909379
    W51  W96  0.0154774475065
    W51  W97  -0.118769408964
    W51  W98  0.0480594338725
    W51  W99  -0.0133398112964
    W51  W100  0.029141371031
    W51  W101  -0.0582830754133
    W51  W102  -0.0216533398086
    W51  W103  -0.0402459768654
    W51  W104  -0.0220381932212
    W51  W105  0.0499472145968
    W51  W106  -0.0702311059884
    W51  W107  0.0431742050783
    W51  W108  0.0579971167936
    W51  W109  0.090455632596
    W51  W110  -0.0130574366715
    W51  W111  0.000895930145739
    W51  W112  -0.0605398218138
    W51  W113  -0.0398108604551
    W51  W114  0.0172413257618
    W51  W115  0.0733466264846
    W51  W116  -0.0207355728752
    W51  W117  -0.0446211269981
    W51  W118  -0.0619068753026
    W51  W119  -0.14380329071
    W51  W120  0.0408341625833
    W51  W121  -0.103423626325
    W51  W122  0.0643526439067
    W51  W123  -0.0870307076888
    W51  W124  -0.0933844006332
    W51  W125  0.0564980902135
    W51  W126  -0.0571953672459
    W51  W127  0.071444155406
    W51  W128  0.00440409608089
    W51  W129  0.104338086604
    W51  W130  0.0274871978037
    W51  W131  0.0980695922906
    W51  W132  -0.0184228757342
    W51  W133  -0.045000218128
    W51  W134  0.0139333527344
    W51  W135  -0.0267370711229
    W51  W136  -0.03824399205
    W51  W137  -0.011401587282
    W51  W138  -0.0318315989888
    W51  W139  0.0438882250882
    W51  W140  0.029686382894
    W51  W141  0.0478882155983
    W51  W142  -0.041090719941
    W51  W143  0.0689667249155
    W51  W144  -0.00117007294895
    W51  W145  0.0751408987021
    W51  W146  0.0414122919482
    W51  W147  0.0130918104188
    W51  W148  -0.0908946518694
    W51  W149  -0.0729140453965
    W52  W52  0.382211548966
    W52  W53  0.00554838271439
    W52  W54  -0.0979552929302
    W52  W55  0.0125781103688
    W52  W56  0.0699033857122
    W52  W57  0.0208704072999
    W52  W58  -0.0701401972666
    W52  W59  -0.0240682348241
    W52  W60  0.0272906153484
    W52  W61  -0.0930407061978
    W52  W62  0.00421519929417
    W52  W63  0.121032924569
    W52  W64  -0.045479582594
    W52  W65  0.0135559848096
    W52  W66  -0.157303680145
    W52  W67  0.00192270436589
    W52  W68  -0.140402726161
    W52  W69  -0.0464368800377
    W52  W70  -0.0175364105026
    W52  W71  -0.0306784330403
    W52  W72  -0.0433479764094
    W52  W73  0.0272547976336
    W52  W74  -0.000172256573781
    W52  W75  0.097408341946
    W52  W76  -0.00819570387432
    W52  W77  0.0293345196122
    W52  W78  0.0762269968863
    W52  W79  -0.0565625718617
    W52  W80  0.0377484507302
    W52  W81  0.00291090992247
    W52  W82  0.0604061566096
    W52  W83  0.0233528704232
    W52  W84  0.0904265076397
    W52  W85  0.0162400477648
    W52  W86  0.0512230244523
    W52  W87  -0.0980737333769
    W52  W88  -0.0820612707982
    W52  W89  -0.0184374386195
    W52  W90  0.0806554709812
    W52  W91  0.0178687192501
    W52  W92  -0.098855839581
    W52  W93  -0.0507685628578
    W52  W94  -0.086497107067
    W52  W95  0.0707741202909
    W52  W96  -0.0391402697505
    W52  W97  -0.00688654732527
    W52  W98  -0.0417806175859
    W52  W99  -0.0358253766887
    W52  W100  -0.0577049363638
    W52  W101  0.0890369488531
    W52  W102  -0.120757745954
    W52  W103  0.045503906339
    W52  W104  -0.0529214674963
    W52  W105  0.0843050164369
    W52  W106  -0.114772603821
    W52  W107  -0.0175396788852
    W52  W108  0.0964219593667
    W52  W109  0.00781523319952
    W52  W110  -0.0587756292891
    W52  W111  0.102546706034
    W52  W112  -0.153755620862
    W52  W113  -0.0113549321509
    W52  W114  0.036599750605
    W52  W115  0.0687680408205
    W52  W116  0.0137539021594
    W52  W117  -0.0573134774069
    W52  W118  -0.0683860109825
    W52  W119  -0.106544635168
    W52  W120  -0.0899989709218
    W52  W121  -0.000876747397397
    W52  W122  0.0492473544283
    W52  W123  -0.189065929364
    W52  W124  -0.267723146591
    W52  W125  0.106191116699
    W52  W126  -0.0973550789042
    W52  W127  0.0716117689742
    W52  W128  0.0698310282483
    W52  W129  0.139909285421
    W52  W130  0.011154825879
    W52  W131  0.055564605748
    W52  W132  -0.00592978430655
    W52  W133  -0.0873109990804
    W52  W134  0.121492437609
    W52  W135  -0.0945050905373
    W52  W136  0.044643955155
    W52  W137  -0.00328039487479
    W52  W138  -0.0165528853899
    W52  W139  0.201490586956
    W52  W140  0.00744636908364
    W52  W141  -0.0947755025697
    W52  W142  -0.0834967817421
    W52  W143  0.0778421054257
    W52  W144  -0.143518897977
    W52  W145  0.0497823935924
    W52  W146  0.163439212823
    W52  W147  0.0140695326001
    W52  W148  0.0480404410951
    W52  W149  -0.0064776449861
    W53  W53  0.211898711142
    W53  W54  -0.0886712026908
    W53  W55  -0.0349941724825
    W53  W56  -0.0329438094494
    W53  W57  -0.0826079381554
    W53  W58  -0.00298853118875
    W53  W59  -0.0273828047257
    W53  W60  -0.0125454474014
    W53  W61  0.0431260024059
    W53  W62  -0.0549386644852
    W53  W63  -0.0401122665666
    W53  W64  -0.0466967261428
    W53  W65  0.0354522608819
    W53  W66  -0.0375834648861
    W53  W67  -0.00615848098617
    W53  W68  0.0133315139914
    W53  W69  -0.00459852988032
    W53  W70  0.00339951300095
    W53  W71  0.094999428658
    W53  W72  -0.00941057189494
    W53  W73  -0.062638922237
    W53  W74  0.0113242517192
    W53  W75  0.042371987324
    W53  W76  0.0240585694284
    W53  W77  0.0185072577055
    W53  W78  -0.0158766307345
    W53  W79  0.0397583696624
    W53  W80  0.0248456344943
    W53  W81  -0.0289673943408
    W53  W82  0.0174575261548
    W53  W83  0.0190253945993
    W53  W84  -0.0477286004711
    W53  W85  -0.0315973178088
    W53  W86  0.023083584413
    W53  W87  0.0367659584108
    W53  W88  -0.0402580858925
    W53  W89  0.0829800683681
    W53  W90  0.0704753769272
    W53  W91  0.00181624084681
    W53  W92  0.0280429125356
    W53  W93  -0.0467385933966
    W53  W94  0.066219796444
    W53  W95  -0.050431522425
    W53  W96  0.00088936057364
    W53  W97  -0.00939786940409
    W53  W98  0.00259437735602
    W53  W99  0.0240046849169
    W53  W100  -0.0032310336183
    W53  W101  -0.0147388032465
    W53  W102  -0.0055979711873
    W53  W103  0.0374729988768
    W53  W104  0.0395749648625
    W53  W105  0.0789919579614
    W53  W106  0.0264738552145
    W53  W107  0.0455531703114
    W53  W108  -0.00261378265054
    W53  W109  -0.0537461147158
    W53  W110  -0.0108261057115
    W53  W111  -0.0937795836759
    W53  W112  -0.0572969507134
    W53  W113  0.00841764217729
    W53  W114  -0.00974051652651
    W53  W115  0.0600102508362
    W53  W116  -0.00612697206301
    W53  W117  -0.0179003768578
    W53  W118  -0.0163561937108
    W53  W119  -0.0176973705788
    W53  W120  0.0429580024718
    W53  W121  0.00703911818282
    W53  W122  0.0233963396057
    W53  W123  -0.0372404877669
    W53  W124  0.0238617558674
    W53  W125  0.028689391821
    W53  W126  0.00456072764827
    W53  W127  0.0282264250707
    W53  W128  -0.0357070389634
    W53  W129  -0.00482821233793
    W53  W130  -0.0136305545471
    W53  W131  0.00264914964992
    W53  W132  0.0607833591692
    W53  W133  -0.0405674034213
    W53  W134  -0.0501863899873
    W53  W135  0.00255150572916
    W53  W136  -0.0941883214053
    W53  W137  0.0602629639388
    W53  W138  0.0325384659561
    W53  W139  -0.0615195327978
    W53  W140  0.00850334036952
    W53  W141  0.0800717731153
    W53  W142  0.00209588154668
    W53  W143  0.00373429518137
    W53  W144  -0.0670138834419
    W53  W145  0.0255877794872
    W53  W146  -0.0411857223344
    W53  W147  0.0622106616347
    W53  W148  -0.0278929927635
    W53  W149  -0.072941664734
    W54  W54  0.336983979495
    W54  W55  0.0157437220383
    W54  W56  0.0341662242102
    W54  W57  0.065618035196
    W54  W58  -0.0132595136952
    W54  W59  0.069218786392
    W54  W60  -0.0336157077849
    W54  W61  -0.0203180741161
    W54  W62  0.0428472887741
    W54  W63  -0.00400166290512
    W54  W64  0.0355689731461
    W54  W65  -0.0264275766333
    W54  W66  0.120602179424
    W54  W67  -0.0557647955782
    W54  W68  0.0676558757085
    W54  W69  -0.00537924684901
    W54  W70  0.047508853168
    W54  W71  -0.107095659389
    W54  W72  -0.0158434339551
    W54  W73  0.0289098788552
    W54  W74  -0.0553262781447
    W54  W75  -0.0698434841197
    W54  W76  -0.0776996136755
    W54  W77  -0.0367084183254
    W54  W78  0.0117208000676
    W54  W79  0.081824622177
    W54  W80  -0.0264844732539
    W54  W81  -0.00516918780709
    W54  W82  0.0873136347483
    W54  W83  -0.0820838570769
    W54  W84  -0.0239786600297
    W54  W85  0.0665897585684
    W54  W86  -0.0317419682916
    W54  W87  -0.0755655040449
    W54  W88  0.0996379045863
    W54  W89  -0.126156081139
    W54  W90  -0.129758854482
    W54  W91  -0.0769314918876
    W54  W92  0.0231135853597
    W54  W93  -0.0178755626647
    W54  W94  -0.0405934542379
    W54  W95  0.0209715225948
    W54  W96  0.0423123098492
    W54  W97  -0.0540420101906
    W54  W98  -0.025895253692
    W54  W99  -0.0764228617577
    W54  W100  -0.000248399033957
    W54  W101  -0.0622567867922
    W54  W102  0.0727059808683
    W54  W103  -0.101889736281
    W54  W104  -0.114091975617
    W54  W105  -0.0858651216115
    W54  W106  -0.072350167341
    W54  W107  -0.00685731962635
    W54  W108  0.0824606749201
    W54  W109  0.0678301310497
    W54  W110  0.0421197443825
    W54  W111  0.0322254640221
    W54  W112  0.115353660725
    W54  W113  -0.0612252880699
    W54  W114  0.0534908519077
    W54  W115  -0.0159750860879
    W54  W116  -0.0673449927147
    W54  W117  -0.0445311783834
    W54  W118  0.053320221742
    W54  W119  0.02494783789
    W54  W120  0.036271641011
    W54  W121  -0.0527538911172
    W54  W122  -0.0299266274306
    W54  W123  0.108479947672
    W54  W124  0.119747385127
    W54  W125  0.0158444340178
    W54  W126  -0.00380535297787
    W54  W127  -0.00929693454075
    W54  W128  0.120289648133
    W54  W129  0.0570848715886
    W54  W130  0.0860609610342
    W54  W131  0.0184485061126
    W54  W132  -0.0355569773815
    W54  W133  0.0618787686737
    W54  W134  0.0634522784864
    W54  W135  0.0148370086013
    W54  W136  0.0623456100485
    W54  W137  -0.0647831962287
    W54  W138  0.0188002365235
    W54  W139  -0.0455729120093
    W54  W140  -0.0235989265156
    W54  W141  -0.0198730216984
    W54  W142  -0.0127936781015
    W54  W143  -0.0738207738541
    W54  W144  0.149317885592
    W54  W145  0.0303992709404
    W54  W146  0.0646471971583
    W54  W147  0.0106788470875
    W54  W148  -0.00293791624993
    W54  W149  -0.00989427513099
    W55  W55  0.121450713208
    W55  W56  0.0425361776592
    W55  W57  0.00675203648984
    W55  W58  0.0024808761809
    W55  W59  0.0448465128733
    W55  W60  -0.0944120975197
    W55  W61  -0.0990415014026
    W55  W62  0.0595962774696
    W55  W63  0.0757833831286
    W55  W64  0.0182961039417
    W55  W65  0.0251143881879
    W55  W66  0.0244726262595
    W55  W67  -0.0249641042529
    W55  W68  0.00167665713362
    W55  W69  -0.0189026613539
    W55  W70  -0.0218164543669
    W55  W71  -0.00274279342286
    W55  W72  -0.0104281206333
    W55  W73  0.051316732513
    W55  W74  0.00438166770679
    W55  W75  -0.00169828924026
    W55  W76  0.0512515984997
    W55  W77  0.0340106149257
    W55  W78  0.0744807379095
    W55  W79  0.0134881089129
    W55  W80  0.00417970114141
    W55  W81  0.00808975606359
    W55  W82  0.0157965348373
    W55  W83  0.0042638281317
    W55  W84  0.0272513921866
    W55  W85  0.0403991413534
    W55  W86  0.0579525796472
    W55  W87  -0.0122249484794
    W55  W88  0.0236486121748
    W55  W89  -0.026579460908
    W55  W90  -0.0673837076687
    W55  W91  0.0404520756819
    W55  W92  0.0588252240557
    W55  W93  0.0456301167504
    W55  W94  -0.0601076724295
    W55  W95  0.0125351386529
    W55  W96  -0.0290938191662
    W55  W97  0.0134187294144
    W55  W98  -0.0324280424053
    W55  W99  -0.032296613733
    W55  W100  -0.06733701485
    W55  W101  0.0167724429916
    W55  W102  -0.032717556309
    W55  W103  -0.027040649043
    W55  W104  -0.00728702119188
    W55  W105  -0.0259262096729
    W55  W106  -0.0187876195362
    W55  W107  -0.0239965337569
    W55  W108  0.0771557060233
    W55  W109  -0.0355370301484
    W55  W110  0.0217527559441
    W55  W111  0.0469191713907
    W55  W112  -0.0740007006771
    W55  W113  -0.000872981934444
    W55  W114  -0.0200948453937
    W55  W115  -0.00920587962227
    W55  W116  -0.0576630859994
    W55  W117  -0.0217787393701
    W55  W118  0.0666083235553
    W55  W119  0.0502775385844
    W55  W120  -0.0322295568364
    W55  W121  0.100747583969
    W55  W122  -0.00745818533038
    W55  W123  0.000944713512813
    W55  W124  -0.0503001534276
    W55  W125  -0.0282529088649
    W55  W126  -0.0191589655286
    W55  W127  -0.0424263732361
    W55  W128  0.00475864231902
    W55  W129  -0.060212034996
    W55  W130  0.0278546685024
    W55  W131  0.00261417047018
    W55  W132  -0.0388683293091
    W55  W133  -0.0596158663109
    W55  W134  0.0303687370696
    W55  W135  -0.0319483110338
    W55  W136  -0.0357032892248
    W55  W137  -0.0421765081553
    W55  W138  0.069316445086
    W55  W139  0.0440604004941
    W55  W140  -0.0806822633143
    W55  W141  -0.0184519096593
    W55  W142  -0.0154791251692
    W55  W143  0.0377096888219
    W55  W144  0.023022759528
    W55  W145  0.0145094214199
    W55  W146  0.0100281372349
    W55  W147  0.0026600297435
    W55  W148  0.0072702104066
    W55  W149  0.0547092052367
    W56  W56  0.223733977107
    W56  W57  -0.0155866391883
    W56  W58  0.015743834278
    W56  W59  -0.0571613131372
    W56  W60  0.016977780163
    W56  W61  -0.181730659135
    W56  W62  0.0351026513533
    W56  W63  0.089711565915
    W56  W64  0.0474582497608
    W56  W65  -0.0652253803727
    W56  W66  0.106940966144
    W56  W67  0.0103232227502
    W56  W68  -0.0436095921079
    W56  W69  0.0431577750721
    W56  W70  -0.195030678858
    W56  W71  0.0465750010755
    W56  W72  0.00176990238883
    W56  W73  0.0470846412467
    W56  W74  -0.0642010216747
    W56  W75  -0.0172011299066
    W56  W76  0.072097111325
    W56  W77  0.000958809399544
    W56  W78  0.00975349463723
    W56  W79  0.0258259247485
    W56  W80  -0.00337966055213
    W56  W81  -0.0343656749719
    W56  W82  -0.0322386578678
    W56  W83  0.0853585531126
    W56  W84  0.0423885166295
    W56  W85  0.131434366241
    W56  W86  0.112923277405
    W56  W87  -0.113159686476
    W56  W88  -0.0543793517232
    W56  W89  -0.0471798829129
    W56  W90  -0.0322993585622
    W56  W91  0.0393396611567
    W56  W92  0.0498578472486
    W56  W93  -0.0528145494109
    W56  W94  -0.0304577297704
    W56  W95  0.00372045755292
    W56  W96  -0.0283313684438
    W56  W97  -0.00469873512309
    W56  W98  -0.0486417705691
    W56  W99  -0.0467166269689
    W56  W100  0.000367022674751
    W56  W101  0.0195357193252
    W56  W102  -0.0921838541183
    W56  W103  -0.0010558482167
    W56  W104  -0.053210286497
    W56  W105  0.0186511922178
    W56  W106  -0.00500526417009
    W56  W107  0.0227708122129
    W56  W108  0.0586405772027
    W56  W109  0.045099339334
    W56  W110  0.0545487790043
    W56  W111  0.0437116666197
    W56  W112  -0.0438744164658
    W56  W113  -0.00516906921757
    W56  W114  -0.0324308961677
    W56  W115  0.0518309988624
    W56  W116  -0.0433947333279
    W56  W117  -0.150388485931
    W56  W118  -0.0337575086329
    W56  W119  -0.0437426517513
    W56  W120  0.0466764119313
    W56  W121  0.105286364742
    W56  W122  -0.0414625487274
    W56  W123  -0.00964420993878
    W56  W124  -0.0404785852021
    W56  W125  0.0232408584921
    W56  W126  -0.00241457476059
    W56  W127  0.0791778897817
    W56  W128  -0.0644764364038
    W56  W129  0.0463645237126
    W56  W130  0.00194347244241
    W56  W131  0.0325865820374
    W56  W132  -0.0931238937559
    W56  W133  -0.0650537638145
    W56  W134  0.111105506346
    W56  W135  -0.0512965721985
    W56  W136  0.0159109467332
    W56  W137  -0.0164576251941
    W56  W138  -0.0615798600761
    W56  W139  0.0698773605553
    W56  W140  -0.0314963740199
    W56  W141  -0.0800286422751
    W56  W142  0.0736580293997
    W56  W143  -0.00989041109995
    W56  W144  -0.0552809205095
    W56  W145  0.0177021541944
    W56  W146  0.0622617780176
    W56  W147  -0.0728708763534
    W56  W148  0.100076004733
    W56  W149  -0.0219490394326
    W57  W57  0.157886432525
    W57  W58  0.0197070379188
    W57  W59  0.0848896203575
    W57  W60  0.0871378317729
    W57  W61  0.0729687502703
    W57  W62  -0.00165999899724
    W57  W63  0.0238262513459
    W57  W64  0.027926559697
    W57  W65  -0.0293612233839
    W57  W66  -0.00851468103107
    W57  W67  0.0291165978765
    W57  W68  0.0208595092285
    W57  W69  0.0151458358282
    W57  W70  0.0518717268461
    W57  W71  -0.0363069680139
    W57  W72  -0.00280609534986
    W57  W73  0.0502885383124
    W57  W74  -0.0159395056216
    W57  W75  -0.0100296381672
    W57  W76  -0.0818933275788
    W57  W77  -0.063496787712
    W57  W78  0.0204365401964
    W57  W79  -0.0117159782957
    W57  W80  -0.00393702914495
    W57  W81  -0.00107800338887
    W57  W82  -0.0101622747232
    W57  W83  -0.0380947647999
    W57  W84  0.0252659964641
    W57  W85  0.00868036125571
    W57  W86  -0.0559117235178
    W57  W87  -0.0159644721215
    W57  W88  0.0576040979657
    W57  W89  -0.0547744080725
    W57  W90  -0.0490762051421
    W57  W91  0.016465727761
    W57  W92  -0.0456639575879
    W57  W93  0.035165298391
    W57  W94  -0.0659840511606
    W57  W95  0.0714679436306
    W57  W96  -0.0422795351557
    W57  W97  -0.074026398953
    W57  W98  0.032828070187
    W57  W99  0.0207642082373
    W57  W100  0.0117829064319
    W57  W101  -0.0112091259153
    W57  W102  0.0444598236036
    W57  W103  -0.0662551216324
    W57  W104  -0.035964182329
    W57  W105  -0.0316291174619
    W57  W106  -0.0112538789634
    W57  W107  -0.0206513581486
    W57  W108  0.00544368133305
    W57  W109  0.0424799009419
    W57  W110  0.0305402183003
    W57  W111  0.0791372893785
    W57  W112  -0.0178558585581
    W57  W113  -0.0131592300733
    W57  W114  -0.0101126723935
    W57  W115  -0.0561788352622
    W57  W116  0.0226330252995
    W57  W117  0.07392904229
    W57  W118  -0.0244996617875
    W57  W119  -0.0167642195109
    W57  W120  -0.0829363203213
    W57  W121  -0.0692159447856
    W57  W122  0.0120964738588
    W57  W123  -0.0211917665898
    W57  W124  -0.0760351835724
    W57  W125  0.00790723370174
    W57  W126  -0.0402344968658
    W57  W127  -0.000753463592777
    W57  W128  0.0306370554718
    W57  W129  0.0402060130967
    W57  W130  -0.038629573401
    W57  W131  0.0271509569153
    W57  W132  -0.073562634366
    W57  W133  0.04284151102
    W57  W134  0.0105422630178
    W57  W135  0.0445979200977
    W57  W136  0.11154064421
    W57  W137  -0.103947065345
    W57  W138  -0.0598149677386
    W57  W139  0.0820850967682
    W57  W140  0.0619920741975
    W57  W141  -0.00842840836206
    W57  W142  -0.0413765533311
    W57  W143  0.0405713610092
    W57  W144  0.0439620840247
    W57  W145  0.00565758383693
    W57  W146  0.0560700301941
    W57  W147  -0.0301637210937
    W57  W148  -0.0456326554298
    W57  W149  0.0851926695666
    W58  W58  0.246520484258
    W58  W59  0.049294050158
    W58  W60  0.104147578745
    W58  W61  0.023693436343
    W58  W62  0.0682475269773
    W58  W63  -0.0417976193187
    W58  W64  0.0277319515272
    W58  W65  0.100905129491
    W58  W66  0.0518325136605
    W58  W67  0.0678077587081
    W58  W68  0.0399788834243
    W58  W69  0.0102182325249
    W58  W70  -0.00290459372252
    W58  W71  0.0324772252603
    W58  W72  -0.014068675258
    W58  W73  -0.0157493064483
    W58  W74  -0.125516360293
    W58  W75  0.0273242783672
    W58  W76  -0.058472211581
    W58  W77  -0.0192785019189
    W58  W78  0.0161667667555
    W58  W79  0.042386001767
    W58  W80  -0.0416110984335
    W58  W81  0.0300267845055
    W58  W82  -0.0262839110585
    W58  W83  -0.064559910213
    W58  W84  -0.0396535601917
    W58  W85  0.0309503737958
    W58  W86  -0.0107754035409
    W58  W87  0.0172434975357
    W58  W88  9.39180433725e-05
    W58  W89  0.0266292418635
    W58  W90  -0.026506640328
    W58  W91  0.0286509157047
    W58  W92  -0.00587819601992
    W58  W93  0.047273519437
    W58  W94  0.0350209396874
    W58  W95  -0.0473018104404
    W58  W96  -0.102701256161
    W58  W97  0.0116084835282
    W58  W98  0.0244660936196
    W58  W99  0.0028415335912
    W58  W100  0.0215262799745
    W58  W101  -0.0275237731931
    W58  W102  0.0521205929541
    W58  W103  -0.0362798530547
    W58  W104  0.01921239607
    W58  W105  0.0376456723973
    W58  W106  0.0530948524586
    W58  W107  0.0138319400482
    W58  W108  -0.0770054853122
    W58  W109  -0.0567320922439
    W58  W110  0.119903406369
    W58  W111  -0.00156567820587
    W58  W112  -0.0331632196303
    W58  W113  -2.19046996394e-05
    W58  W114  -0.0460272065629
    W58  W115  -0.0166098752729
    W58  W116  0.00851403178773
    W58  W117  -0.0684411343072
    W58  W118  -0.071539001271
    W58  W119  0.0119971792743
    W58  W120  -0.0522693045445
    W58  W121  -0.034690459765
    W58  W122  -0.0272600047121
    W58  W123  -0.00674608691963
    W58  W124  0.0197690437819
    W58  W125  -0.00532333472779
    W58  W126  0.0954469172578
    W58  W127  0.0930614095927
    W58  W128  -0.103565629756
    W58  W129  0.0145439663197
    W58  W130  -0.0628556938011
    W58  W131  -0.0543921605014
    W58  W132  -0.0515374728687
    W58  W133  0.0272236887013
    W58  W134  0.0207179331097
    W58  W135  -0.02026015487
    W58  W136  0.0725378329268
    W58  W137  0.0270953795353
    W58  W138  -0.0258529564984
    W58  W139  -0.0132091076848
    W58  W140  0.0637029565065
    W58  W141  0.0031318321339
    W58  W142  0.0846241808619
    W58  W143  -0.0288117390438
    W58  W144  0.0132566815483
    W58  W145  -0.0480638035088
    W58  W146  0.0129680722777
    W58  W147  -0.028656966996
    W58  W148  -0.0171927589002
    W58  W149  0.00505687303371
    W59  W59  0.183936281218
    W59  W60  0.00559615660352
    W59  W61  0.0582185279663
    W59  W62  0.0300812011022
    W59  W63  0.00380172613024
    W59  W64  -0.0105328201745
    W59  W65  0.106100245617
    W59  W66  -0.0189624930548
    W59  W67  -0.0363035701896
    W59  W68  0.0248975303698
    W59  W69  -0.0220128203944
    W59  W70  0.083147290167
    W59  W71  -0.00603400220694
    W59  W72  -0.0609723934968
    W59  W73  0.0492117717891
    W59  W74  -0.0728328706191
    W59  W75  0.0665461012366
    W59  W76  -0.0760286566817
    W59  W77  -0.00210062091141
    W59  W78  0.0799489752826
    W59  W79  0.0377090713641
    W59  W80  -0.0228623246999
    W59  W81  0.0163263737969
    W59  W82  0.0644054929426
    W59  W83  -0.0814187354129
    W59  W84  0.0171302321871
    W59  W85  0.0169843461413
    W59  W86  -0.0356351070635
    W59  W87  0.0391478162085
    W59  W88  0.0458055181742
    W59  W89  0.0134899468543
    W59  W90  -0.0598068498042
    W59  W91  -0.0403626281334
    W59  W92  -0.029446397891
    W59  W93  0.0194559759137
    W59  W94  -0.0440809698096
    W59  W95  0.0571946494637
    W59  W96  -0.0411079348792
    W59  W97  -0.06716927223
    W59  W98  0.0166245527718
    W59  W99  0.0298483371845
    W59  W100  -0.0633761997885
    W59  W101  -0.0311418158691
    W59  W102  0.0526568098178
    W59  W103  -0.0355535328079
    W59  W104  -0.0326490920401
    W59  W105  0.0320724393487
    W59  W106  0.0311336019346
    W59  W107  -0.045764777359
    W59  W108  0.0491151648656
    W59  W109  -0.0360493250648
    W59  W110  0.0819183835114
    W59  W111  0.0215981668376
    W59  W112  -0.0893099020027
    W59  W113  0.000763255378622
    W59  W114  -0.0502035383001
    W59  W115  -0.0203062149805
    W59  W116  0.0417063337294
    W59  W117  0.0412062697341
    W59  W118  0.0180757989507
    W59  W119  0.0690521859151
    W59  W120  -0.0720348205019
    W59  W121  -0.0293763509919
    W59  W122  0.0142021677017
    W59  W123  -0.0112805926596
    W59  W124  0.0185490902665
    W59  W125  -0.0109253657249
    W59  W126  -0.0318007382339
    W59  W127  -0.0192894415868
    W59  W128  0.0283153601186
    W59  W129  0.0193990460009
    W59  W130  -0.0385121647933
    W59  W131  0.00579753804147
    W59  W132  -0.0433916403894
    W59  W133  0.0223516217912
    W59  W134  -0.00863794646994
    W59  W135  0.0151893724791
    W59  W136  0.0271143851608
    W59  W137  -0.102542902565
    W59  W138  0.0898209463312
    W59  W139  -0.00689579480179
    W59  W140  0.0335615971116
    W59  W141  0.055034972064
    W59  W142  -0.0553804352909
    W59  W143  0.0330062278153
    W59  W144  0.074291653129
    W59  W145  0.00579979537742
    W59  W146  0.0389190877037
    W59  W147  0.0733157448698
    W59  W148  -0.114010776739
    W59  W149  0.0434620937954
    W60  W60  0.315401862655
    W60  W61  0.113837903822
    W60  W62  0.0234311442391
    W60  W63  -0.061255918075
    W60  W64  0.0250796628277
    W60  W65  0.0299505176463
    W60  W66  -0.00925632976844
    W60  W67  0.131865165054
    W60  W68  -0.0339340657167
    W60  W69  0.0701430316957
    W60  W70  -0.00612685675411
    W60  W71  0.00678280779792
    W60  W72  0.027666524477
    W60  W73  -0.0034783249919
    W60  W74  -0.0479977725392
    W60  W75  -0.00474835610673
    W60  W76  -0.111666005862
    W60  W77  -0.056709276509
    W60  W78  -0.0675817647021
    W60  W79  -0.0049476385406
    W60  W80  -0.0138010029293
    W60  W81  -0.0195519328018
    W60  W82  -0.0179379245463
    W60  W83  -0.0795251124552
    W60  W84  0.0133538431152
    W60  W85  -0.00354971240748
    W60  W86  -0.0173210945759
    W60  W87  0.0107763241463
    W60  W88  0.00152263720716
    W60  W89  0.00138857807282
    W60  W90  0.0359613794947
    W60  W91  0.0547976723591
    W60  W92  -0.120898543826
    W60  W93  0.000591623373115
    W60  W94  0.0561590043794
    W60  W95  0.0321788559059
    W60  W96  -0.0945084257338
    W60  W97  -0.0672208745936
    W60  W98  0.0266946962199
    W60  W99  0.0572348936134
    W60  W100  0.0802338860495
    W60  W101  0.0283037027316
    W60  W102  0.0480664894723
    W60  W103  -0.0521102148099
    W60  W104  -0.000322181717724
    W60  W105  0.023132577969
    W60  W106  0.0370740170582
    W60  W107  -0.00869116460487
    W60  W108  -0.0878748041778
    W60  W109  -0.00917885756438
    W60  W110  0.0560946239062
    W60  W111  0.0264534155719
    W60  W112  -0.00135866759507
    W60  W113  0.0096584368118
    W60  W114  -0.0549314382475
    W60  W115  -0.0382410163093
    W60  W116  0.0642009397993
    W60  W117  0.0373257497527
    W60  W118  -0.149695974339
    W60  W119  -0.0748742949
    W60  W120  -0.0343052937004
    W60  W121  -0.0560184390195
    W60  W122  0.0135615579381
    W60  W123  -0.00476401100787
    W60  W124  -0.0322988575156
    W60  W125  0.044109310989
    W60  W126  0.0364941649239
    W60  W127  0.112640250914
    W60  W128  -0.0224613140322
    W60  W129  0.123803990575
    W60  W130  -0.105413086064
    W60  W131  0.0141434352768
    W60  W132  -0.00509834382349
    W60  W133  0.0641271137837
    W60  W134  0.0656377107153
    W60  W135  0.0756956238873
    W60  W136  0.202124341265
    W60  W137  0.00919909705991
    W60  W138  -0.136698602528
    W60  W139  0.0303573490488
    W60  W140  0.139006565915
    W60  W141  0.00329497506998
    W60  W142  0.0693990257425
    W60  W143  0.0223943701899
    W60  W144  -0.0884692302851
    W60  W145  -0.0727326265674
    W60  W146  0.0427937186472
    W60  W147  -0.0315152793054
    W60  W148  0.029010977001
    W60  W149  -0.00300118557244
    W61  W61  0.404870923164
    W61  W62  -0.10192188308
    W61  W63  -0.133719896632
    W61  W64  -0.0124077703868
    W61  W65  -0.017965737506
    W61  W66  -0.0905294557321
    W61  W67  0.0686287301901
    W61  W68  0.0189010252378
    W61  W69  0.0202750515645
    W61  W70  0.144824598175
    W61  W71  -0.0480037191464
    W61  W72  0.0364327455594
    W61  W73  -0.0345317294105
    W61  W74  0.0988458784733
    W61  W75  -0.00654004233066
    W61  W76  -0.102397509039
    W61  W77  -0.00676496898311
    W61  W78  -0.0800883028904
    W61  W79  0.0487345389486
    W61  W80  0.0538553336413
    W61  W81  0.0347626159089
    W61  W82  -7.89138992884e-05
    W61  W83  -0.000825748919437
    W61  W84  0.0779062224851
    W61  W85  -0.0766565629257
    W61  W86  -0.0891538851552
    W61  W87  0.078031286312
    W61  W88  0.0461944978782
    W61  W89  0.0460802265157
    W61  W90  0.0604599160591
    W61  W91  -0.0262761791511
    W61  W92  -0.0458257681882
    W61  W93  0.0403578783816
    W61  W94  0.0391940884218
    W61  W95  -0.0115632824464
    W61  W96  0.000267154968712
    W61  W97  -0.052140171786
    W61  W98  0.145848384445
    W61  W99  0.0758105894136
    W61  W100  0.164801316828
    W61  W101  -0.0981675863538
    W61  W102  0.129791877946
    W61  W103  -0.0643704700327
    W61  W104  0.0536342751853
    W61  W105  0.0110966726853
    W61  W106  -0.0125943371906
    W61  W107  0.00620043054284
    W61  W108  -0.0765140350068
    W61  W109  0.0211587491471
    W61  W110  -0.0140962426956
    W61  W111  0.0323607841847
    W61  W112  0.0581647431634
    W61  W113  -0.0237007158784
    W61  W114  -0.0300537571064
    W61  W115  -0.023504271038
    W61  W116  0.0729045247854
    W61  W117  0.24059288703
    W61  W118  -0.000781978418126
    W61  W119  -0.0515630766518
    W61  W120  -0.0260389917568
    W61  W121  -0.160194632793
    W61  W122  0.0628244620399
    W61  W123  0.0222624619263
    W61  W124  -0.0061295992569
    W61  W125  -0.0554232897322
    W61  W126  -0.0181297222417
    W61  W127  -0.038951971273
    W61  W128  0.0196142666374
    W61  W129  -0.0322075567561
    W61  W130  -0.0199821216868
    W61  W131  0.0344201517015
    W61  W132  0.00332945547782
    W61  W133  0.0874661354902
    W61  W134  -0.0841001462315
    W61  W135  0.0778160602745
    W61  W136  -0.0118597589774
    W61  W137  -0.0673273648344
    W61  W138  -0.0351543608917
    W61  W139  -0.0818374568877
    W61  W140  0.0974586426581
    W61  W141  0.0960375053629
    W61  W142  -0.0466618493595
    W61  W143  0.117078015613
    W61  W144  0.0493912354655
    W61  W145  0.0500719236209
    W61  W146  -0.0706914654323
    W61  W147  0.0419733644396
    W61  W148  -0.145096248758
    W61  W149  0.0200983783364
    W62  W62  0.272637820324
    W62  W63  0.0330605756652
    W62  W64  0.0192528760484
    W62  W65  0.144380198434
    W62  W66  0.0144661267224
    W62  W67  0.0495500508734
    W62  W68  -0.0231624725994
    W62  W69  -0.0340946123699
    W62  W70  0.00707571317507
    W62  W71  -0.105248606166
    W62  W72  0.0178705876603
    W62  W73  0.0328050179218
    W62  W74  -0.066374372447
    W62  W75  -0.00134007140766
    W62  W76  -0.065319721082
    W62  W77  0.0686646067599
    W62  W78  0.0237511216112
    W62  W79  0.000117325505755
    W62  W80  -0.0186938077836
    W62  W81  0.08149546947
    W62  W82  0.0264109128789
    W62  W83  -0.115889072661
    W62  W84  0.003088601462
    W62  W85  0.0204441517299
    W62  W86  0.0601827943248
    W62  W87  0.00597896370367
    W62  W88  0.056605642926
    W62  W89  -0.0159541691253
    W62  W90  -0.0663145688437
    W62  W91  0.0305560994356
    W62  W92  -0.0423200096644
    W62  W93  0.0406994099851
    W62  W94  -0.00541858927415
    W62  W95  0.0150277739488
    W62  W96  -0.0225149192109
    W62  W97  0.0156518588881
    W62  W98  -0.0497061451043
    W62  W99  -0.037874975299
    W62  W100  -0.0836968695141
    W62  W101  0.0450897459301
    W62  W102  0.00120707826968
    W62  W103  -0.0510608751109
    W62  W104  -0.0182204784799
    W62  W105  -0.0579775006798
    W62  W106  -0.0245327028697
    W62  W107  -0.0884708969343
    W62  W108  0.0290689389931
    W62  W109  -0.0467597673178
    W62  W110  0.0373037507453
    W62  W111  0.059832986014
    W62  W112  -0.0173436010985
    W62  W113  -0.0160486272634
    W62  W114  -0.0313512715212
    W62  W115  -0.055649794865
    W62  W116  -0.0376719463206
    W62  W117  -0.0705412049564
    W62  W118  -0.0242792687537
    W62  W119  0.01080006299
    W62  W120  -0.0284710057526
    W62  W121  0.0483552626113
    W62  W122  -0.0159530294239
    W62  W123  0.0457921469527
    W62  W124  0.000476497212453
    W62  W125  -0.0241781125308
    W62  W126  0.050370895822
    W62  W127  -0.00678049185986
    W62  W128  0.0425002626865
    W62  W129  0.0613326239101
    W62  W130  0.0306272850225
    W62  W131  -0.00479370752923
    W62  W132  0.04195270381
    W62  W133  -0.00298195811544
    W62  W134  0.0977292304747
    W62  W135  -0.0331646720031
    W62  W136  0.0995600301448
    W62  W137  0.0524683041038
    W62  W138  0.100969847336
    W62  W139  0.0261211708801
    W62  W140  -0.0680179552731
    W62  W141  -0.0300656808344
    W62  W142  0.0346982356249
    W62  W143  -0.011230604295
    W62  W144  0.0451877000365
    W62  W145  -0.114904036414
    W62  W146  0.0562013219217
    W62  W147  0.0151215679064
    W62  W148  0.0424309307858
    W62  W149  -0.016768237333
    W63  W63  0.236613609419
    W63  W64  0.0365556242323
    W63  W65  -0.0125123369816
    W63  W66  0.0011004544521
    W63  W67  0.0249693092856
    W63  W68  -0.0235129965811
    W63  W69  0.0113882453446
    W63  W70  -0.11803639848
    W63  W71  0.00308799654735
    W63  W72  -0.0172582436435
    W63  W73  0.0476724888052
    W63  W74  -0.0539786142934
    W63  W75  -0.0320053754253
    W63  W76  0.0238835445292
    W63  W77  0.0275383454435
    W63  W78  0.0757710134583
    W63  W79  -0.0283305176385
    W63  W80  0.0399350902292
    W63  W81  -0.0123959855732
    W63  W82  -0.0523940429523
    W63  W83  0.0140462546742
    W63  W84  0.041849789269
    W63  W85  0.013736190758
    W63  W86  0.070499744161
    W63  W87  -0.0885397751686
    W63  W88  -0.0394889810932
    W63  W89  -0.0143729157642
    W63  W90  -0.00529103790291
    W63  W91  0.0286450004711
    W63  W92  0.0511438671949
    W63  W93  -0.00277217676702
    W63  W94  -0.0360204589071
    W63  W95  -0.0151634832144
    W63  W96  -0.0042587009982
    W63  W97  -0.0839260097128
    W63  W98  -0.0440609779197
    W63  W99  -0.0382696801141
    W63  W100  -0.131385845261
    W63  W101  0.0610362973069
    W63  W102  -0.120418501749
    W63  W103  -0.0143622446528
    W63  W104  -0.0243752053559
    W63  W105  -0.0466668694659
    W63  W106  -0.0343594975693
    W63  W107  -0.0413661949471
    W63  W108  0.0977980271439
    W63  W109  0.0786671226195
    W63  W110  -0.0151092798665
    W63  W111  0.0229587574584
    W63  W112  -0.0939704132029
    W63  W113  0.0296256347555
    W63  W114  0.0217500355811
    W63  W115  -0.000143073647492
    W63  W116  -0.02520988138
    W63  W117  -0.108340045191
    W63  W118  0.00468711100106
    W63  W119  -0.00855890208178
    W63  W120  0.00774153619486
    W63  W121  0.0633382684774
    W63  W122  0.0444492702635
    W63  W123  -0.0612919344328
    W63  W124  -0.102140427146
    W63  W125  0.0247219325581
    W63  W126  -0.0628161423891
    W63  W127  0.0117993912903
    W63  W128  0.0162141028322
    W63  W129  0.0329228057522
    W63  W130  0.0159369779028
    W63  W131  0.0571552492915
    W63  W132  -0.0439537752902
    W63  W133  -0.0866707516775
    W63  W134  0.0582857771195
    W63  W135  -0.0494685079031
    W63  W136  0.020302383935
    W63  W137  -0.0362694148359
    W63  W138  0.00800102450092
    W63  W139  0.133527212996
    W63  W140  -0.054701079523
    W63  W141  -0.0442572791269
    W63  W142  -0.0358678302366
    W63  W143  0.0503680986946
    W63  W144  0.0202589018347
    W63  W145  -0.00622918412319
    W63  W146  0.0299963721734
    W63  W147  -0.0458965588797
    W63  W148  -0.0353734168111
    W63  W149  0.0455441847717
    W64  W64  0.162386040985
    W64  W65  -0.0396242636343
    W64  W66  0.0719309023134
    W64  W67  0.0601606405785
    W64  W68  0.00543659192961
    W64  W69  0.0552030040225
    W64  W70  -0.0826704176336
    W64  W71  -0.018538897103
    W64  W72  0.0157720395287
    W64  W73  0.0169739775586
    W64  W74  -0.0257929870696
    W64  W75  -0.0911601769394
    W64  W76  0.0113771021117
    W64  W77  -0.00417834350299
    W64  W78  0.0013035871229
    W64  W79  0.00718660697317
    W64  W80  0.0104704782757
    W64  W81  -0.0176048173887
    W64  W82  -0.0520141743715
    W64  W83  -0.00728634048413
    W64  W84  0.0398302600872
    W64  W85  0.0100172973929
    W64  W86  0.0216701735715
    W64  W87  -0.0498647882416
    W64  W88  -0.013647808822
    W64  W89  -0.0382149463602
    W64  W90  -0.0186517251781
    W64  W91  0.0219700753694
    W64  W92  0.0477861996583
    W64  W93  0.0427849714336
    W64  W94  0.025400688422
    W64  W95  -0.0583818676122
    W64  W96  -0.0250928437254
    W64  W97  -0.033653650941
    W64  W98  0.00198496919655
    W64  W99  -0.0278199129001
    W64  W100  0.01044726116
    W64  W101  0.0134432296461
    W64  W102  -0.0243713617574
    W64  W103  -0.0536576118021
    W64  W104  0.00243571600642
    W64  W105  -0.0739534675288
    W64  W106  -0.0100689081166
    W64  W107  -0.0100854669845
    W64  W108  -0.00646369484615
    W64  W109  0.0594025917021
    W64  W110  0.0181728356892
    W64  W111  0.011738408966
    W64  W112  0.0463071352043
    W64  W113  0.0225612855147
    W64  W114  0.0147872374748
    W64  W115  -0.0255915560468
    W64  W116  -0.0135137085287
    W64  W117  -0.0349151119031
    W64  W118  0.0114958106769
    W64  W119  0.015762955717
    W64  W120  0.0345077436605
    W64  W121  0.0303908231973
    W64  W122  0.0144093710565
    W64  W123  0.0468278549729
    W64  W124  0.0150821562932
    W64  W125  -0.0159979759943
    W64  W126  0.0181490999978
    W64  W127  0.0263929592749
    W64  W128  -0.0110260764419
    W64  W129  -0.0259460821143
    W64  W130  0.00531956413495
    W64  W131  0.00615877681926
    W64  W132  -0.0485357299209
    W64  W133  0.000339180234666
    W64  W134  0.0453407147088
    W64  W135  0.00183521713346
    W64  W136  0.0538046018456
    W64  W137  -0.0203135677083
    W64  W138  -0.0688638835664
    W64  W139  0.0172861815414
    W64  W140  -0.00159151213659
    W64  W141  -0.0430020315504
    W64  W142  0.0440410847286
    W64  W143  0.0186890249887
    W64  W144  0.0381432879654
    W64  W145  -0.0119915277596
    W64  W146  -0.0388188829445
    W64  W147  -0.0742816320392
    W64  W148  -0.00681194011466
    W64  W149  0.0497003772178
    W65  W65  0.350880257738
    W65  W66  -0.0663768492251
    W65  W67  0.0141943805541
    W65  W68  -0.030473579048
    W65  W69  -0.0538870924377
    W65  W70  0.0671770461786
    W65  W71  -0.0356313264976
    W65  W72  -0.0604586578987
    W65  W73  -0.000367323361146
    W65  W74  -0.138186260952
    W65  W75  0.103733624336
    W65  W76  -0.102159940908
    W65  W77  0.0909554602924
    W65  W78  0.0732025884559
    W65  W79  0.0184711555744
    W65  W80  -0.0322895647585
    W65  W81  0.0726661643802
    W65  W82  0.0845440832747
    W65  W83  -0.173890074015
    W65  W84  -0.0135039221372
    W65  W85  -0.0287911006587
    W65  W86  0.0217576108509
    W65  W87  0.0753262985767
    W65  W88  -0.000209459820016
    W65  W89  0.0926237571343
    W65  W90  0.0015306657454
    W65  W91  -0.0401565719193
    W65  W92  -0.0826674513537
    W65  W93  0.00917547519493
    W65  W94  0.0508053524507
    W65  W95  -0.00416524042002
    W65  W96  -0.0439593256009
    W65  W97  -0.0194490228757
    W65  W98  -0.0351341438844
    W65  W99  0.0151300774632
    W65  W100  -0.142266171811
    W65  W101  0.0374836924298
    W65  W102  0.0122677176269
    W65  W103  0.00745090989358
    W65  W104  0.00414460399286
    W65  W105  0.0525060181678
    W65  W106  0.0400972629388
    W65  W107  -0.0975225967871
    W65  W108  0.0198721833667
    W65  W109  -0.111033005943
    W65  W110  0.0742875393985
    W65  W111  -0.0355072762671
    W65  W112  -0.108909442039
    W65  W113  0.0242666329985
    W65  W114  -0.0552825622839
    W65  W115  -0.0122672900881
    W65  W116  0.0519546866493
    W65  W117  -0.0712957743305
    W65  W118  -0.0439048848728
    W65  W119  0.0692717213615
    W65  W120  -0.0414443604967
    W65  W121  0.00801663744426
    W65  W122  0.0254918972846
    W65  W123  -0.0118673243554
    W65  W124  0.0616098167064
    W65  W125  0.00280629423078
    W65  W126  0.0438609287924
    W65  W127  0.0257291568448
    W65  W128  0.0289836088374
    W65  W129  0.0847700053146
    W65  W130  -0.0307193814274
    W65  W131  -0.0263984303095
    W65  W132  0.0832493485489
    W65  W133  -0.00028221530257
    W65  W134  0.0454539419956
    W65  W135  -0.0392368530261
    W65  W136  0.0560038376299
    W65  W137  0.0572223694137
    W65  W138  0.181771791416
    W65  W139  -0.0421629658524
    W65  W140  -0.000352092839142
    W65  W141  0.0536002028374
    W65  W142  -0.000581318106602
    W65  W143  -0.0054294157584
    W65  W144  0.0258914852525
    W65  W145  -0.110799552549
    W65  W146  0.0372404318686
    W65  W147  0.119532268362
    W65  W148  -0.076600827208
    W65  W149  -0.0541264175285
    W66  W66  0.257982617367
    W66  W67  0.000916917084189
    W66  W68  0.0853151097198
    W66  W69  0.0652847918421
    W66  W70  -0.110873980482
    W66  W71  0.058166283594
    W66  W72  0.00799225636734
    W66  W73  -8.41202849454e-05
    W66  W74  -0.0715909362628
    W66  W75  -0.102951812655
    W66  W76  0.0471597431028
    W66  W77  -0.0558081256298
    W66  W78  -0.0129988420009
    W66  W79  0.0563478010093
    W66  W80  -0.0364834777294
    W66  W81  -0.0634402613615
    W66  W82  -0.0415292132821
    W66  W83  0.000540042384338
    W66  W84  -0.0694810619183
    W66  W85  0.0673159959783
    W66  W86  0.0203594968829
    W66  W87  -0.0508305568103
    W66  W88  0.012255564712
    W66  W89  -0.0601152970782
    W66  W90  -0.0839445802602
    W66  W91  0.0137343796468
    W66  W92  0.110800035263
    W66  W93  0.00516183530098
    W66  W94  0.0387906270259
    W66  W95  -0.0677666665845
    W66  W96  -0.0165869455853
    W66  W97  -0.0158638471304
    W66  W98  -0.0334353374345
    W66  W99  -0.0423087727126
    W66  W100  0.0133320944743
    W66  W101  -0.0269575979833
    W66  W102  0.0104448252415
    W66  W103  -0.0493068110641
    W66  W104  -0.0234494886842
    W66  W105  -0.0614312967318
    W66  W106  0.0433882277903
    W66  W107  0.0490406473569
    W66  W108  -0.011072344234
    W66  W109  0.0331265342455
    W66  W110  0.0728099108794
    W66  W111  -0.0604670414706
    W66  W112  0.082632183644
    W66  W113  0.00750875594379
    W66  W114  0.0109662339795
    W66  W115  -0.00718068935893
    W66  W116  -0.0665295626563
    W66  W117  -0.11368817424
    W66  W118  0.0227598096964
    W66  W119  0.0533741535085
    W66  W120  0.0852020252134
    W66  W121  0.0613676511481
    W66  W122  -0.0520901988049
    W66  W123  0.103450392187
    W66  W124  0.144027500925
    W66  W125  -0.00296220851409
    W66  W126  0.0645816700511
    W66  W127  0.046803007321
    W66  W128  -0.059250385004
    W66  W129  -0.0452405079748
    W66  W130  0.00210681632638
    W66  W131  -0.0298547248957
    W66  W132  -0.06284411255
    W66  W133  0.0108058356423
    W66  W134  0.0168230738706
    W66  W135  0.0237917843477
    W66  W136  0.0197108209829
    W66  W137  -0.00039912275777
    W66  W138  -0.0737651345458
    W66  W139  -0.0598052759772
    W66  W140  -0.0102080554543
    W66  W141  -0.0168415643238
    W66  W142  0.10102555076
    W66  W143  -0.0908822895702
    W66  W144  0.0525545932272
    W66  W145  -0.00376978762937
    W66  W146  -0.047372067583
    W66  W147  -0.076463262111
    W66  W148  0.0467172133477
    W66  W149  0.0084131991719
    W67  W67  0.192802386951
    W67  W68  0.0037779123211
    W67  W69  0.053728135112
    W67  W70  -0.0582530761355
    W67  W71  -0.0326406707039
    W67  W72  0.0636393795386
    W67  W73  -0.0231427148785
    W67  W74  -0.021328450536
    W67  W75  -0.0920941414227
    W67  W76  -0.06642431126
    W67  W77  0.0146819996416
    W67  W78  -0.0450219565394
    W67  W79  0.00131233469668
    W67  W80  0.0534705383502
    W67  W81  0.0226047590942
    W67  W82  -0.0978623790939
    W67  W83  -0.0484922474461
    W67  W84  0.023217945297
    W67  W85  -0.0484677776027
    W67  W86  0.0376129894073
    W67  W87  -0.0267236858881
    W67  W88  0.000458280258721
    W67  W89  0.0133623310963
    W67  W90  0.0382550138675
    W67  W91  0.0841584904273
    W67  W92  0.00673920698994
    W67  W93  0.0556084367203
    W67  W94  0.0730858658013
    W67  W95  -0.0846391774704
    W67  W96  -0.050964834461
    W67  W97  -0.0740708783151
    W67  W98  0.0290200243068
    W67  W99  -0.00464056741401
    W67  W100  0.0152208283735
    W67  W101  0.0295579197837
    W67  W102  -0.0127037885353
    W67  W103  -0.0875910909007
    W67  W104  0.0470863520101
    W67  W105  -0.0776898733166
    W67  W106  -0.0249890608153
    W67  W107  -0.0245965633612
    W67  W108  -0.0471380344463
    W67  W109  0.049422683156
    W67  W110  -0.00323477547201
    W67  W111  0.0188705178362
    W67  W112  0.010002206535
    W67  W113  0.0137268277525
    W67  W114  -0.000396923706256
    W67  W115  -0.0524700939214
    W67  W116  -0.0180723107432
    W67  W117  -0.0201465392438
    W67  W118  -0.0758339354531
    W67  W119  -0.076779260129
    W67  W120  0.0139337052008
    W67  W121  -0.023943619095
    W67  W122  0.0556741268394
    W67  W123  0.00490450180944
    W67  W124  -0.0691222194511
    W67  W125  -0.00358130351992
    W67  W126  0.0380543805626
    W67  W127  0.0576388514785
    W67  W128  -0.0217810694832
    W67  W129  0.0371838961415
    W67  W130  -0.0138595662192
    W67  W131  0.035808513361
    W67  W132  0.00937211702064
    W67  W133  -0.00703088982421
    W67  W134  0.047607569209
    W67  W135  0.0155116028471
    W67  W136  0.111908762992
    W67  W137  0.0482153466921
    W67  W138  -0.0822535685867
    W67  W139  0.0581340300021
    W67  W140  0.0205263697997
    W67  W141  -0.00442763213744
    W67  W142  0.0521392318484
    W67  W143  0.0657491640778
    W67  W144  0.00559979812997
    W67  W145  -0.0733465023307
    W67  W146  -0.0352698757635
    W67  W147  -0.0754201193576
    W67  W148  -0.0280188113973
    W67  W149  0.0197178685945
    W68  W68  0.234499624231
    W68  W69  -0.0184280505975
    W68  W70  0.0807042670666
    W68  W71  0.0886340577101
    W68  W72  0.0248536719777
    W68  W73  -0.0691181376477
    W68  W74  -0.0505106173984
    W68  W75  -0.0460703732141
    W68  W76  -0.0565935943606
    W68  W77  -0.114049986185
    W68  W78  -0.0163790170693
    W68  W79  0.0411162514665
    W68  W80  -0.0141430034319
    W68  W81  -0.0238053709263
    W68  W82  -0.0707549347006
    W68  W83  -0.0465410708477
    W68  W84  -0.237449972603
    W68  W85  -0.0368287901506
    W68  W86  -0.0788815837615
    W68  W87  0.0240595747246
    W68  W88  0.108162292177
    W68  W89  -0.00716796501489
    W68  W90  -0.0752956918994
    W68  W91  0.0480210575801
    W68  W92  0.0984260703999
    W68  W93  0.0161083223789
    W68  W94  0.0115779992055
    W68  W95  -0.0458281826142
    W68  W96  -0.00224741535122
    W68  W97  -0.0541040594901
    W68  W98  0.0045386762076
    W68  W99  -0.00597837974705
    W68  W100  -0.0396826898387
    W68  W101  -0.0711007582415
    W68  W102  0.0956629460312
    W68  W103  -0.0595200711156
    W68  W104  0.0140766489054
    W68  W105  -0.0459474844335
    W68  W106  0.0400649651463
    W68  W107  0.0853404634405
    W68  W108  -0.0431707484188
    W68  W109  -0.00513888178511
    W68  W110  0.0278596909345
    W68  W111  -0.0999425898143
    W68  W112  0.01723352815
    W68  W113  -0.0378562780117
    W68  W114  0.047297253963
    W68  W115  -0.0506037986073
    W68  W116  -0.108808989174
    W68  W117  -0.0539942728948
    W68  W118  -0.0206434345342
    W68  W119  -0.0121606798453
    W68  W120  -0.0125460376136
    W68  W121  -0.0980794387088
    W68  W122  -0.0325485133813
    W68  W123  -0.00116140637289
    W68  W124  0.0516140942824
    W68  W125  0.031355165805
    W68  W126  0.0534305037843
    W68  W127  0.00432986728116
    W68  W128  -0.0573955908145
    W68  W129  -0.0222503390883
    W68  W130  -0.0101670966696
    W68  W131  -0.0314897252271
    W68  W132  0.00507017559315
    W68  W133  0.0189009098691
    W68  W134  -0.132725826428
    W68  W135  0.0576400300937
    W68  W136  -0.00691556662533
    W68  W137  0.0433560083783
    W68  W138  -0.025970472777
    W68  W139  -0.0146363663188
    W68  W140  0.0103455227235
    W68  W141  0.0967909589067
    W68  W142  0.00542588568352
    W68  W143  -0.112822670646
    W68  W144  0.092182844983
    W68  W145  -0.0147404665623
    W68  W146  -0.0238000226595
    W68  W147  -0.0305752642928
    W68  W148  -0.039065525744
    W68  W149  0.00177404040366
    W69  W69  0.188849882109
    W69  W70  -0.115427729746
    W69  W71  0.0479551013907
    W69  W72  0.00625171192617
    W69  W73  0.0122828391542
    W69  W74  -0.00671421124227
    W69  W75  -0.0846954854938
    W69  W76  0.0393819145671
    W69  W77  -0.0142722999634
    W69  W78  -0.0201373048073
    W69  W79  0.0040589457877
    W69  W80  0.0118409027022
    W69  W81  -0.0742244909064
    W69  W82  -0.0422848081076
    W69  W83  0.00654873867003
    W69  W84  0.0499031083882
    W69  W85  -0.00275245898015
    W69  W86  0.0286592312079
    W69  W87  -0.0235607002484
    W69  W88  -0.052168737936
    W69  W89  -0.0046544318578
    W69  W90  0.0250553695079
    W69  W91  0.0161455231514
    W69  W92  0.0345981195393
    W69  W93  0.00637998385731
    W69  W94  0.0690200109039
    W69  W95  -0.0506591677308
    W69  W96  -0.0261369773443
    W69  W97  -0.065221710707
    W69  W98  -0.00275764916295
    W69  W99  0.01760381574
    W69  W100  0.020595835218
    W69  W101  0.0315379557925
    W69  W102  -0.0388829938637
    W69  W103  -0.0229264704779
    W69  W104  0.0147255367337
    W69  W105  -0.0371598673961
    W69  W106  0.039776635791
    W69  W107  -0.0015899811886
    W69  W108  -0.0139302947995
    W69  W109  0.0483527843307
    W69  W110  0.0135123924871
    W69  W111  -0.0449420229551
    W69  W112  0.0320336149474
    W69  W113  0.0578638442144
    W69  W114  -0.0108554626199
    W69  W115  -0.00413681106057
    W69  W116  0.0310371404342
    W69  W117  -0.00404743566881
    W69  W118  0.000843465862862
    W69  W119  0.0324922761534
    W69  W120  0.0770727344936
    W69  W121  0.0676107923174
    W69  W122  0.0308170983013
    W69  W123  0.0548808213615
    W69  W124  0.0616431040379
    W69  W125  -0.000210003749947
    W69  W126  -0.00179863863932
    W69  W127  0.0396891285117
    W69  W128  -0.0189799584014
    W69  W129  -0.0246619218114
    W69  W130  -0.0407710546505
    W69  W131  0.0171432556505
    W69  W132  -0.0276247886135
    W69  W133  -0.000926649780774
    W69  W134  0.028487214093
    W69  W135  0.0488098434677
    W69  W136  0.0446278768484
    W69  W137  -0.0293037810695
    W69  W138  -0.0943871853795
    W69  W139  -0.0238500065
    W69  W140  0.0369600753253
    W69  W141  -0.00616689603671
    W69  W142  0.0527405772865
    W69  W143  0.0312159982361
    W69  W144  -0.0263464033661
    W69  W145  -0.00613597893372
    W69  W146  -0.0765354711977
    W69  W147  -0.0485781819917
    W69  W148  -0.0110826887131
    W69  W149  0.0347377008655
    W70  W70  0.375807250227
    W70  W71  -0.0875523412794
    W70  W72  0.00197228360305
    W70  W73  -0.0498990185939
    W70  W74  0.0797100636347
    W70  W75  0.0718551333041
    W70  W76  -0.123949297443
    W70  W77  -0.0556586667266
    W70  W78  0.00135304463523
    W70  W79  0.00671270783469
    W70  W80  -0.0294911679243
    W70  W81  0.0563799645629
    W70  W82  0.124038168701
    W70  W83  -0.119132433693
    W70  W84  -0.12125539727
    W70  W85  -0.0752582851287
    W70  W86  -0.141975764031
    W70  W87  0.09480542244
    W70  W88  0.150946153461
    W70  W89  -0.038173354364
    W70  W90  -0.048475297846
    W70  W91  -0.0107505491148
    W70  W92  -0.0939282277423
    W70  W93  0.0487699215198
    W70  W94  -0.0679211031703
    W70  W95  0.0832538190712
    W70  W96  -0.00266157022839
    W70  W97  0.0671963526942
    W70  W98  0.025810999637
    W70  W99  0.00096183593354
    W70  W100  0.0368691363401
    W70  W101  -0.0534810343106
    W70  W102  0.171728782938
    W70  W103  -0.0372038323444
    W70  W104  -0.0101522171474
    W70  W105  0.0113964319286
    W70  W106  -0.0698512673016
    W70  W107  0.0241574946554
    W70  W108  -0.0305224301341
    W70  W109  -0.117848650123
    W70  W110  -0.0368941059308
    W70  W111  0.0392718690317
    W70  W112  0.0315894696686
    W70  W113  -0.0878691630536
    W70  W114  0.0542997350239
    W70  W115  -0.0483443452243
    W70  W116  -0.0486846590038
    W70  W117  0.151038689179
    W70  W118  0.012965432994
    W70  W119  -0.0151423037525
    W70  W120  -0.147175134666
    W70  W121  -0.159690815924
    W70  W122  -0.0207749359263
    W70  W123  -0.0264423767853
    W70  W124  -0.0463313528833
    W70  W125  0.0273681140279
    W70  W126  0.0138892628538
    W70  W127  -0.0669195793719
    W70  W128  0.109486374607
    W70  W129  0.0113845541145
    W70  W130  0.0371420662915
    W70  W131  -0.0533122346083
    W70  W132  0.0870965135534
    W70  W133  0.0810625200945
    W70  W134  -0.0782783185097
    W70  W135  0.0385337857655
    W70  W136  0.0183179147832
    W70  W137  0.0274528293573
    W70  W138  0.0690776143335
    W70  W139  -0.0220881881145
    W70  W140  0.0236496089834
    W70  W141  0.056350659895
    W70  W142  -0.0946991219914
    W70  W143  -0.0481150760709
    W70  W144  0.0319977519545
    W70  W145  0.0202176702812
    W70  W146  0.0751132970768
    W70  W147  0.0979255194575
    W70  W148  0.00269421463743
    W70  W149  0.00198067583477
    W71  W71  0.368704796472
    W71  W72  -0.0354549686265
    W71  W73  -0.0365788091039
    W71  W74  -0.0584187928864
    W71  W75  0.0453013201598
    W71  W76  0.0871255534105
    W71  W77  -0.0920027071775
    W71  W78  0.0155680994212
    W71  W79  0.0133804830121
    W71  W80  -0.0235165886363
    W71  W81  -0.121378386494
    W71  W82  -0.0674067059531
    W71  W83  0.066130121183
    W71  W84  -0.14478722016
    W71  W85  0.0108961865681
    W71  W86  0.00271655722737
    W71  W87  0.0390527512238
    W71  W88  -0.058958584573
    W71  W89  0.0834023452198
    W71  W90  0.0266140987082
    W71  W91  0.0545902714306
    W71  W92  0.0868001160495
    W71  W93  -0.0557115050761
    W71  W94  0.0445221560149
    W71  W95  -0.0230670242959
    W71  W96  -0.0559505485638
    W71  W97  -0.0496546555878
    W71  W98  -0.0207539340881
    W71  W99  0.0691026012997
    W71  W100  -0.047642532138
    W71  W101  -0.00514966708475
    W71  W102  -0.0269601670205
    W71  W103  0.0684388884939
    W71  W104  0.041651452547
    W71  W105  0.108703580739
    W71  W106  0.152916471316
    W71  W107  0.10219704775
    W71  W108  -0.032975338289
    W71  W109  -0.0566116691447
    W71  W110  0.0601784190434
    W71  W111  -0.161303947434
    W71  W112  -0.129278790385
    W71  W113  0.0532707205409
    W71  W114  -0.0448477969261
    W71  W115  0.0463126553672
    W71  W116  0.000579335169693
    W71  W117  -0.0742101751526
    W71  W118  -0.0447914840078
    W71  W119  0.0338860223145
    W71  W120  0.0260287443378
    W71  W121  0.0608641395072
    W71  W122  -0.0208921468155
    W71  W123  -0.0723479531078
    W71  W124  0.0412977496929
    W71  W125  0.0548579874643
    W71  W126  0.00620199704074
    W71  W127  0.0687021637305
    W71  W128  -0.162556072675
    W71  W129  -0.0438299891731
    W71  W130  -0.125280495798
    W71  W131  -0.0268333619695
    W71  W132  -0.0334468451184
    W71  W133  -0.0577755554288
    W71  W134  -0.116504134952
    W71  W135  0.0522773726951
    W71  W136  -0.0782076595275
    W71  W137  0.00745989030432
    W71  W138  -0.0603366939361
    W71  W139  -0.0187586620172
    W71  W140  0.0639599650935
    W71  W141  0.0978418302879
    W71  W142  0.0405874393516
    W71  W143  -0.0544467760408
    W71  W144  -0.103723735115
    W71  W145  0.0252784417672
    W71  W146  -0.056675582148
    W71  W147  -0.00597936496543
    W71  W148  -0.014343109393
    W71  W149  -0.00727438318772
    W72  W72  0.158910758427
    W72  W73  -0.007086044814
    W72  W74  0.0947840993939
    W72  W75  -0.0591729310194
    W72  W76  -0.00630710923099
    W72  W77  0.00656621422137
    W72  W78  -0.0896711213591
    W72  W79  -0.00720095714133
    W72  W80  0.0374772809954
    W72  W81  0.0364754798656
    W72  W82  -0.0679868771449
    W72  W83  0.0397067473817
    W72  W84  -0.0117097704319
    W72  W85  -0.0140074378866
    W72  W86  0.0279024339522
    W72  W87  0.0233218447971
    W72  W88  0.0701514835421
    W72  W89  -0.00802401736599
    W72  W90  -0.013391617727
    W72  W91  0.0741579579465
    W72  W92  0.0155554505793
    W72  W93  0.0193260816571
    W72  W94  7.62317653846e-05
    W72  W95  0.0111905492837
    W72  W96  0.0354463209032
    W72  W97  0.0083167795923
    W72  W98  0.0253390774537
    W72  W99  0.0134702439229
    W72  W100  0.057138446631
    W72  W101  -0.0146724366706
    W72  W102  0.0299891659411
    W72  W103  -0.0424662325176
    W72  W104  0.0347743604845
    W72  W105  -0.0674375773379
    W72  W106  -0.0148703176447
    W72  W107  -0.00174017461849
    W72  W108  -0.0285619968018
    W72  W109  0.0176139091698
    W72  W110  -0.0465015914342
    W72  W111  0.0416559318007
    W72  W112  0.0507189473409
    W72  W113  -0.0339691054921
    W72  W114  -0.0240062417431
    W72  W115  -0.0493818953247
    W72  W116  -0.0530274690584
    W72  W117  0.0716235471141
    W72  W118  -0.0107350344432
    W72  W119  -0.0768031729132
    W72  W120  0.0176443830302
    W72  W121  0.00021002015267
    W72  W122  -0.0119268385225
    W72  W123  0.0463951768641
    W72  W124  -0.0365621152409
    W72  W125  -0.0489938238078
    W72  W126  0.0126877551646
    W72  W127  -0.0594649446542
    W72  W128  -0.00930589136043
    W72  W129  -0.0208595668545
    W72  W130  0.026974949539
    W72  W131  0.033795717321
    W72  W132  0.0318942533158
    W72  W133  0.00501252680871
    W72  W134  -0.0262343275669
    W72  W135  0.0442927216634
    W72  W136  0.000819012563044
    W72  W137  0.0313959291988
    W72  W138  -0.0161180012644
    W72  W139  0.00688598930742
    W72  W140  -0.0472056689939
    W72  W141  0.0228628494695
    W72  W142  0.0187378979298
    W72  W143  0.0268082459384
    W72  W144  0.0103720103839
    W72  W145  -0.038874834469
    W72  W146  -0.0299299581307
    W72  W147  -0.0347368734646
    W72  W148  0.0459506037059
    W72  W149  -0.00973695781828
    W73  W73  0.170305575942
    W73  W74  0.0141545584697
    W73  W75  0.0225987997622
    W73  W76  0.0222308487842
    W73  W77  0.0391914520058
    W73  W78  0.0250571406461
    W73  W79  -0.0172087549856
    W73  W80  -0.00237221117624
    W73  W81  0.0193924620742
    W73  W82  0.00975177297318
    W73  W83  0.037213776574
    W73  W84  0.118728529863
    W73  W85  0.0602680340644
    W73  W86  0.0438528462431
    W73  W87  0.00069329604506
    W73  W88  0.00348775508548
    W73  W89  -0.0134160006907
    W73  W90  -0.0390918258508
    W73  W91  -0.00859540290584
    W73  W92  -0.0273673029398
    W73  W93  0.000751895888872
    W73  W94  -0.0644278590925
    W73  W95  0.0861423115957
    W73  W96  0.00683932284504
    W73  W97  -0.0131109572072
    W73  W98  0.00218665232287
    W73  W99  0.0261473865
    W73  W100  -0.0136770674147
    W73  W101  0.0137499923686
    W73  W102  -0.0307824038532
    W73  W103  0.00310198313964
    W73  W104  -0.0274024310603
    W73  W105  -0.00332271945287
    W73  W106  0.0186002654549
    W73  W107  -0.0676817420645
    W73  W108  0.0555582355984
    W73  W109  0.0190241258441
    W73  W110  0.0247659774966
    W73  W111  0.0856136444209
    W73  W112  -0.042587134414
    W73  W113  0.0121707780432
    W73  W114  -0.0749326234124
    W73  W115  -0.014216099645
    W73  W116  0.0486661873379
    W73  W117  0.0570871799216
    W73  W118  0.0325402017212
    W73  W119  0.0306479846477
    W73  W120  -0.0161536415527
    W73  W121  0.0719366365643
    W73  W122  -0.00635085033603
    W73  W123  0.0238233057735
    W73  W124  -0.0212967045831
    W73  W125  -0.055124301701
    W73  W126  -0.0546555960606
    W73  W127  -0.0566674570673
    W73  W128  0.0144892188991
    W73  W129  -0.00555291338167
    W73  W130  -0.0135785898935
    W73  W131  0.0390868375553
    W73  W132  -0.0578310110676
    W73  W133  -0.0061507812487
    W73  W134  0.0428535108461
    W73  W135  0.00270445070266
    W73  W136  0.0095360721322
    W73  W137  -0.103046567428
    W73  W138  0.0457669927935
    W73  W139  0.0289786336203
    W73  W140  -0.0259880960706
    W73  W141  -0.0237647486227
    W73  W142  -0.0206450792356
    W73  W143  0.0691942803651
    W73  W144  0.0165946703385
    W73  W145  -0.0035560702017
    W73  W146  0.0233359088575
    W73  W147  0.00951740772953
    W73  W148  -0.00681881962653
    W73  W149  0.0429825517611
    W74  W74  0.379497489539
    W74  W75  -0.0439696911427
    W74  W76  0.0908513784766
    W74  W77  0.0293548721976
    W74  W78  -0.0876704979171
    W74  W79  -0.023533410427
    W74  W80  0.0584185529365
    W74  W81  0.000640531967121
    W74  W82  0.0302323514093
    W74  W83  0.11071851505
    W74  W84  0.0869988955111
    W74  W85  -0.0308079011825
    W74  W86  0.0232087145645
    W74  W87  0.0591929591244
    W74  W88  0.066529562912
    W74  W89  -0.040913495972
    W74  W90  0.0132364034433
    W74  W91  0.063722002507
    W74  W92  -0.00120871245725
    W74  W93  0.0334754940297
    W74  W94  -0.0512436975981
    W74  W95  0.0723252230017
    W74  W96  0.0616466866294
    W74  W97  0.0868353074793
    W74  W98  0.0331703494474
    W74  W99  0.0258716222498
    W74  W100  0.137100909038
    W74  W101  -0.00429179257972
    W74  W102  0.0321498736042
    W74  W103  -0.00845905187316
    W74  W104  0.0445439163924
    W74  W105  -0.0464517798696
    W74  W106  -0.0695734537197
    W74  W107  0.00955198042866
    W74  W108  0.0138690861983
    W74  W109  -0.0337070247495
    W74  W110  -0.134750790062
    W74  W111  0.0888043408419
    W74  W112  0.0701062381065
    W74  W113  -0.038079214782
    W74  W114  -0.0131872034068
    W74  W115  -0.0159074433256
    W74  W116  -0.046862930661
    W74  W117  0.251614721436
    W74  W118  0.101604950086
    W74  W119  -0.0434994496863
    W74  W120  0.00326863603363
    W74  W121  0.0684592416944
    W74  W122  0.00124541744941
    W74  W123  0.0596210161892
    W74  W124  -0.0823062972664
    W74  W125  -0.0704945043101
    W74  W126  -0.0611550726266
    W74  W127  -0.154568032731
    W74  W128  0.0758746046622
    W74  W129  -0.123676391346
    W74  W130  0.0692041729255
    W74  W131  0.0373490931526
    W74  W132  0.0580966053549
    W74  W133  -0.00645099745693
    W74  W134  -0.0409410578636
    W74  W135  0.0680943318237
    W74  W136  -0.10254010408
    W74  W137  -0.025506461529
    W74  W138  0.000266056987866
    W74  W139  -0.0259945497104
    W74  W140  -0.0800693685536
    W74  W141  0.0105546106543
    W74  W142  -0.0508167885309
    W74  W143  0.103580861689
    W74  W144  -0.0699729285525
    W74  W145  0.0671785278577
    W74  W146  -0.0595504530031
    W74  W147  0.0246312453634
    W74  W148  0.0917808093658
    W74  W149  0.0290592693207
    W75  W75  0.289202968762
    W75  W76  -0.0215075073086
    W75  W77  0.0199088149539
    W75  W78  0.0385679361404
    W75  W79  -0.0080787496332
    W75  W80  -0.0414477927371
    W75  W81  0.0612762724355
    W75  W82  0.0597573201655
    W75  W83  0.0454368243055
    W75  W84  0.00363054512699
    W75  W85  0.0557736026713
    W75  W86  -0.0168535891872
    W75  W87  0.0660262074794
    W75  W88  -0.0174092822334
    W75  W89  0.0828543502447
    W75  W90  0.0148880407902
    W75  W91  -0.0468136498599
    W75  W92  -0.0962080400905
    W75  W93  -0.0656711251864
    W75  W94  -0.0792683127796
    W75  W95  0.120637882622
    W75  W96  -0.00779314736987
    W75  W97  0.0612535549569
    W75  W98  0.022396795963
    W75  W99  0.0612844145764
    W75  W100  -0.0125988381192
    W75  W101  -0.0370720630277
    W75  W102  0.0198708394851
    W75  W103  0.104894142874
    W75  W104  -0.016440225294
    W75  W105  0.178592281673
    W75  W106  0.0596232748503
    W75  W107  -0.00434426566737
    W75  W108  0.00269827068227
    W75  W109  -0.09213032992
    W75  W110  0.0570736471642
    W75  W111  0.0383767165608
    W75  W112  -0.14606448573
    W75  W113  -0.0264720229213
    W75  W114  -0.092309953977
    W75  W115  0.0543093610941
    W75  W116  0.0807248773544
    W75  W117  0.0230444506766
    W75  W118  -0.0499646099076
    W75  W119  -0.0146592529762
    W75  W120  -0.103443880022
    W75  W121  -0.0449368061607
    W75  W122  -0.0443302586473
    W75  W123  -0.113528502019
    W75  W124  -0.0582026206757
    W75  W125  -0.00229193552376
    W75  W126  -0.0240130172564
    W75  W127  -0.00534465553344
    W75  W128  -0.0628439916097
    W75  W129  0.0567810647499
    W75  W130  -0.0596425268545
    W75  W131  -0.0147799515294
    W75  W132  -0.0193259623563
    W75  W133  -0.00286777774933
    W75  W134  -0.0400478653288
    W75  W135  -0.0499740273719
    W75  W136  -0.0702403881193
    W75  W137  -0.0275363222729
    W75  W138  0.115048612156
    W75  W139  0.00903190369531
    W75  W140  0.0353329785017
    W75  W141  0.0370553979211
    W75  W142  -0.0473096806971
    W75  W143  -0.00301835172348
    W75  W144  -0.0529562269022
    W75  W145  0.0173436488449
    W75  W146  0.104066617952
    W75  W147  0.0982118725059
    W75  W148  -0.0168025061928
    W75  W149  -0.0569252104363
    W76  W76  0.271279493604
    W76  W77  0.0236291362984
    W76  W78  0.0138136461208
    W76  W79  -0.0194584541813
    W76  W80  -0.00151530010094
    W76  W81  -0.0702018003973
    W76  W82  -0.010544972325
    W76  W83  0.138710031823
    W76  W84  0.0656751439695
    W76  W85  0.039880931951
    W76  W86  0.0655051037441
    W76  W87  -0.00812922386161
    W76  W88  -0.088175047645
    W76  W89  -0.00378433373528
    W76  W90  0.0219608207733
    W76  W91  0.0183154406653
    W76  W92  0.0866980892587
    W76  W93  0.00182437971843
    W76  W94  -0.00284410882665
    W76  W95  -0.02457488447
    W76  W96  0.00614312119875
    W76  W97  0.0911169567259
    W76  W98  -0.0281658333825
    W76  W99  -0.00513141647178
    W76  W100  0.0352317606056
    W76  W101  0.0313815888948
    W76  W102  -0.0866966770519
    W76  W103  0.0756921598376
    W76  W104  0.0333694737749
    W76  W105  0.0221847515993
    W76  W106  0.0303986179855
    W76  W107  0.0389759294069
    W76  W108  0.0151091701336
    W76  W109  -0.0232074449505
    W76  W110  -0.0288049760157
    W76  W111  -0.0253679399067
    W76  W112  0.00215620709192
    W76  W113  0.0470237182534
    W76  W114  -0.0109825961475
    W76  W115  0.0566228626459
    W76  W116  -0.00583800399946
    W76  W117  0.00651941445993
    W76  W118  0.0958251584346
    W76  W119  0.0719013196501
    W76  W120  0.0619645008187
    W76  W121  0.171262513955
    W76  W122  -0.0234870170968
    W76  W123  0.025408129791
    W76  W124  0.0210450337891
    W76  W125  -0.0343172645612
    W76  W126  -0.0161920980846
    W76  W127  -0.0308432061519
    W76  W128  -0.0586335394453
    W76  W129  -0.147891991781
    W76  W130  0.00601534787407
    W76  W131  -0.0261863846009
    W76  W132  -0.0352276826096
    W76  W133  -0.064347158435
    W76  W134  -0.00661477933537
    W76  W135  -0.0191383129345
    W76  W136  -0.134401729622
    W76  W137  -0.0173423632743
    W76  W138  -0.0283135101265
    W76  W139  -0.0341325548232
    W76  W140  -0.0563004872023
    W76  W141  -0.0476238956814
    W76  W142  0.0352786338387
    W76  W143  0.0198579432628
    W76  W144  -0.0909572657908
    W76  W145  0.0712933202079
    W76  W146  -0.0854373361995
    W76  W147  -0.0303740360931
    W76  W148  0.0803489364984
    W76  W149  0.0324435072666
    W77  W77  0.219837015477
    W77  W78  0.00733192755455
    W77  W79  0.0111584881453
    W77  W80  0.0444633608124
    W77  W81  0.0775274926844
    W77  W82  0.028815313265
    W77  W83  0.0198775574708
    W77  W84  0.161086717088
    W77  W85  0.00968495830377
    W77  W86  0.101614855563
    W77  W87  0.01294067598
    W77  W88  -0.0395388292877
    W77  W89  0.0565422319515
    W77  W90  0.0357267875225
    W77  W91  -0.0361879444695
    W77  W92  -0.0121306596306
    W77  W93  -0.000939295660791
    W77  W94  0.0186945347885
    W77  W95  -0.0146818320102
    W77  W96  0.0456192594147
    W77  W97  0.0173463530094
    W77  W98  0.00742059757301
    W77  W99  -0.00350757462165
    W77  W100  -0.0252650240592
    W77  W101  0.0193628191071
    W77  W102  -0.0614211282588
    W77  W103  0.0147573357135
    W77  W104  0.0182465542796
    W77  W105  -0.00358927619771
    W77  W106  -0.029348231008
    W77  W107  -0.0976066260919
    W77  W108  0.0627399944558
    W77  W109  0.00311166454391
    W77  W110  -0.0198690762489
    W77  W111  0.0531322798497
    W77  W112  -0.0258597126055
    W77  W113  0.0152104712878
    W77  W114  -0.0582979535193
    W77  W115  0.0222332429202
    W77  W116  0.0408835710904
    W77  W117  0.0210572780564
    W77  W118  0.0489333997803
    W77  W119  0.0141274838052
    W77  W120  0.0494768651752
    W77  W121  0.0812970011936
    W77  W122  0.0390024199585
    W77  W123  0.0405475672916
    W77  W124  0.00779163092645
    W77  W125  -0.0798205277849
    W77  W126  -0.024598095005
    W77  W127  -0.0615703078714
    W77  W128  0.0399643739954
    W77  W129  -0.0109139051267
    W77  W130  0.0550240444255
    W77  W131  0.0468456185165
    W77  W132  0.0370868638694
    W77  W133  -0.0395368049886
    W77  W134  0.0657316117379
    W77  W135  -0.0587824782282
    W77  W136  -0.0650010798157
    W77  W137  -0.00384939878499
    W77  W138  0.139978126434
    W77  W139  -0.0369923833973
    W77  W140  -0.0876876262312
    W77  W141  -0.00735763333352
    W77  W142  -0.0114135982479
    W77  W143  0.103715466702
    W77  W144  0.0249030691838
    W77  W145  -0.0251761019496
    W77  W146  -0.0295129142339
    W77  W147  0.0597140821155
    W77  W148  -0.0403965925834
    W77  W149  -0.0378851325016
    W78  W78  0.23376016355
    W78  W79  0.00600821387752
    W78  W80  -0.0202196606851
    W78  W81  -0.025974829733
    W78  W82  0.0632458097457
    W78  W83  -0.0577287481741
    W78  W84  0.0186525457366
    W78  W85  0.0119233466359
    W78  W86  -0.00109259882355
    W78  W87  -0.0432794173482
    W78  W88  -0.0484425440648
    W78  W89  -0.0169447078497
    W78  W90  -0.0166893610358
    W78  W91  -0.029180920198
    W78  W92  0.0161350286701
    W78  W93  0.0269313759613
    W78  W94  -0.0329807542357
    W78  W95  -0.0201594285971
    W78  W96  -0.0641420299597
    W78  W97  -0.0131517223136
    W78  W98  -0.0417775908065
    W78  W99  -0.0445210767502
    W78  W100  -0.102338087311
    W78  W101  0.0363512393201
    W78  W102  -0.0506040408249
    W78  W103  0.00460574907124
    W78  W104  -0.032161206673
    W78  W105  0.0287094101063
    W78  W106  -0.0247414068284
    W78  W107  -0.0122866544087
    W78  W108  0.0686542668958
    W78  W109  -0.0280568761853
    W78  W110  0.0405913598642
    W78  W111  -0.0040792380019
    W78  W112  -0.0933840084019
    W78  W113  0.0292826120159
    W78  W114  0.0375068184895
    W78  W115  0.0293947178274
    W78  W116  0.00221436686369
    W78  W117  -0.0869102360292
    W78  W118  0.0357865687461
    W78  W119  0.0818482245764
    W78  W120  -0.0531161952055
    W78  W121  0.0351115355345
    W78  W122  0.0253697937149
    W78  W123  -0.0650628589582
    W78  W124  -0.0383495028298
    W78  W125  0.0469712709742
    W78  W126  -0.0228228926992
    W78  W127  0.0451615264842
    W78  W128  0.0267920321999
    W78  W129  -0.00242620651997
    W78  W130  -0.00247846735015
    W78  W131  -0.0275284984989
    W78  W132  -0.0452675044351
    W78  W133  -0.0441087370756
    W78  W134  0.0512777778384
    W78  W135  -0.065629262556
    W78  W136  0.00704839123188
    W78  W137  -0.0399259031276
    W78  W138  0.0349554118131
    W78  W139  0.0545170717511
    W78  W140  0.00253203577551
    W78  W141  -0.0424690432422
    W78  W142  -0.0363282869134
    W78  W143  0.00631889219725
    W78  W144  0.0039436725986
    W78  W145  0.0402472911766
    W78  W146  0.0421670914953
    W78  W147  0.0188364105177
    W78  W148  -0.0461805878442
    W78  W149  0.0552601736768
    W79  W79  0.177378104466
    W79  W80  0.0210748230486
    W79  W81  -0.0104489531214
    W79  W82  0.0592699561251
    W79  W83  -0.00941007708077
    W79  W84  0.00210398701371
    W79  W85  0.0547582759362
    W79  W86  0.0385801348759
    W79  W87  -0.0318947689932
    W79  W88  0.0267181341171
    W79  W89  -0.0134519001916
    W79  W90  -0.0345490425385
    W79  W91  -0.00624591527437
    W79  W92  0.0630196609393
    W79  W93  -0.0138293947643
    W79  W94  0.0143997029851
    W79  W95  -0.0464457359312
    W79  W96  -0.0275276420525
    W79  W97  -0.0326583634164
    W79  W98  0.0145688258503
    W79  W99  -0.0373096404224
    W79  W100  0.0433071293578
    W79  W101  -0.0721723688001
    W79  W102  0.0447587198755
    W79  W103  -0.072402189068
    W79  W104  -0.0262588950558
    W79  W105  0.0254222440181
    W79  W106  -0.0400098658799
    W79  W107  0.0410720017752
    W79  W108  0.0541772191111
    W79  W109  -0.0186578677091
    W79  W110  0.0583818701189
    W79  W111  0.000185637078251
    W79  W112  -0.0154545118916
    W79  W113  -0.0438623152659
    W79  W114  -0.0118162584922
    W79  W115  0.0485451144233
    W79  W116  -0.066150689469
    W79  W117  -0.031970382837
    W79  W118  0.0208955114229
    W79  W119  -0.0179629242488
    W79  W120  0.0310373251079
    W79  W121  -0.0049375534889
    W79  W122  0.00217645444871
    W79  W123  0.0279817620229
    W79  W124  0.0324795854901
    W79  W125  0.0082747923596
    W79  W126  0.0116274985438
    W79  W127  0.0382698633661
    W79  W128  0.00414881547218
    W79  W129  0.00371036492401
    W79  W130  0.040720278949
    W79  W131  0.0218071467524
    W79  W132  -0.0278706461371
    W79  W133  -0.0169918986815
    W79  W134  0.0325466708801
    W79  W135  -0.0112035040007
    W79  W136  -0.0463831615349
    W79  W137  -0.0187072678605
    W79  W138  0.0251006368565
    W79  W139  -0.0586233917663
    W79  W140  -0.0109193386779
    W79  W141  0.041288120402
    W79  W142  0.0179496083896
    W79  W143  0.0173078399664
    W79  W144  0.0294358558564
    W79  W145  0.0661589181045
    W79  W146  0.00971438289494
    W79  W147  0.0385645420893
    W79  W148  -0.0297091973855
    W79  W149  -0.0414369695946
    W80  W80  0.163925137225
    W80  W81  0.011703649666
    W80  W82  -0.0297808722124
    W80  W83  0.0368197325881
    W80  W84  0.0596114638724
    W80  W85  -0.0223491335402
    W80  W86  0.0513937236078
    W80  W87  -0.0252832450806
    W80  W88  0.00150553443164
    W80  W89  0.0149254947194
    W80  W90  0.0342609323031
    W80  W91  0.0287823609201
    W80  W92  0.0373760916662
    W80  W93  0.000158293538927
    W80  W94  0.0100066106853
    W80  W95  -0.0318056209281
    W80  W96  0.023188073698
    W80  W97  -0.0567992009448
    W80  W98  0.0254652468086
    W80  W99  -0.00573372844294
    W80  W100  0.00579965728775
    W80  W101  -0.00517885976598
    W80  W102  -0.030638041177
    W80  W103  -0.0407035945583
    W80  W104  0.0190498433888
    W80  W105  -0.0335102658283
    W80  W106  -0.0532313711449
    W80  W107  -0.0129676372422
    W80  W108  0.046129633567
    W80  W109  0.0499910071853
    W80  W110  -0.0480961385842
    W80  W111  0.0258031398315
    W80  W112  -0.0211348474332
    W80  W113  -0.00842790751554
    W80  W114  0.000803916243579
    W80  W115  0.00658104659422
    W80  W116  -0.0275455780039
    W80  W117  0.0323427702979
    W80  W118  0.0135783508635
    W80  W119  -0.0613002536128
    W80  W120  0.0337389372671
    W80  W121  0.00440536907495
    W80  W122  0.0541264326846
    W80  W123  -0.00963046458941
    W80  W124  -0.0705066194601
    W80  W125  -0.0154365468333
    W80  W126  -0.0444150785213
    W80  W127  -0.0253487222761
    W80  W128  0.027553473902
    W80  W129  -0.00217656907211
    W80  W130  0.0401254982215
    W80  W131  0.0687547396455
    W80  W132  0.0119505116802
    W80  W133  -0.0434614195203
    W80  W134  0.00823037348979
    W80  W135  -0.000999552076301
    W80  W136  -0.0363816670463
    W80  W137  -0.0115730550091
    W80  W138  0.00879794937695
    W80  W139  0.0295193684867
    W80  W140  -0.0397037445471
    W80  W141  0.0233542233377
    W80  W142  -0.0314369464978
    W80  W143  0.0911787295632
    W80  W144  0.0111438955377
    W80  W145  0.022204409354
    W80  W146  -0.0265126832985
    W80  W147  -0.000607151957389
    W80  W148  -0.0466231377142
    W80  W149  -0.00325581719182
    W81  W81  0.220624890142
    W81  W82  -0.0293417847421
    W81  W83  0.0201708973131
    W81  W84  0.0529358588442
    W81  W85  0.0143210430617
    W81  W86  0.00536329976283
    W81  W87  0.0330300596378
    W81  W88  0.0502897752433
    W81  W89  0.0367113175475
    W81  W90  -0.0159022682086
    W81  W91  -0.0178895143681
    W81  W92  -0.0518045529449
    W81  W93  0.0177153337178
    W81  W94  -0.051241316874
    W81  W95  0.039704463318
    W81  W96  0.046733667089
    W81  W97  0.0553228392028
    W81  W98  0.0575069964144
    W81  W99  0.00583866458515
    W81  W100  0.0201936541917
    W81  W101  -0.0477989498742
    W81  W102  0.0354267833768
    W81  W103  0.00151643047617
    W81  W104  0.011740008018
    W81  W105  -0.000715405747935
    W81  W106  -0.0244700362481
    W81  W107  -0.0628947547033
    W81  W108  -0.0200886723443
    W81  W109  0.00894341727571
    W81  W110  0.00357409783713
    W81  W111  0.109118258569
    W81  W112  0.000483239573431
    W81  W113  -0.0523460486416
    W81  W114  -0.0519560397026
    W81  W115  -0.0311914227226
    W81  W116  0.0212658987552
    W81  W117  0.0425867463282
    W81  W118  -0.01868331188
    W81  W119  -0.0601161947598
    W81  W120  -0.0571058838519
    W81  W121  -0.0793174491447
    W81  W122  -0.0208839895542
    W81  W123  -0.00770999966093
    W81  W124  -0.0564166170256
    W81  W125  -0.0856407432858
    W81  W126  0.0176590517507
    W81  W127  -0.0677321869008
    W81  W128  -0.015148802718
    W81  W129  0.0252076289056
    W81  W130  0.0390526097305
    W81  W131  0.0155603855185
    W81  W132  0.00199033559559
    W81  W133  0.025104819966
    W81  W134  -0.0065137793998
    W81  W135  -0.0588019446363
    W81  W136  -0.0196620998916
    W81  W137  0.00919142721094
    W81  W138  0.110038137759
    W81  W139  0.0163491816726
    W81  W140  -0.0478257659738
    W81  W141  -0.00424398380149
    W81  W142  -0.0216419587756
    W81  W143  0.033903026149
    W81  W144  0.0893286782011
    W81  W145  -0.0508654484675
    W81  W146  0.0444909934173
    W81  W147  0.0157356161207
    W81  W148  -0.0313715645466
    W81  W149  -0.0326641382502
    W82  W82  0.329701660166
    W82  W83  -0.0972797554943
    W82  W84  0.0471209852645
    W82  W85  0.0290276878409
    W82  W86  0.000252895090034
    W82  W87  -0.00509106519207
    W82  W88  0.0124124921605
    W82  W89  -0.0643505486797
    W82  W90  -0.0233875345341
    W82  W91  -0.0667687444989
    W82  W92  -0.0716609217773
    W82  W93  -0.0166743863284
    W82  W94  -0.0276603186752
    W82  W95  0.0515646909787
    W82  W96  -0.0283964695362
    W82  W97  0.0497568009419
    W82  W98  -0.0553768357543
    W82  W99  -0.0492992835062
    W82  W100  0.0105579885589
    W82  W101  0.0145339510721
    W82  W102  0.0365277266459
    W82  W103  -0.0125385731547
    W82  W104  -0.0742118235395
    W82  W105  0.0565316521831
    W82  W106  -0.0904223139508
    W82  W107  -0.00694767794678
    W82  W108  0.0945473888243
    W82  W109  -0.107670417328
    W82  W110  0.00463910224549
    W82  W111  0.0295053165385
    W82  W112  -0.00381622018567
    W82  W113  -0.0308906648985
    W82  W114  0.0311660128035
    W82  W115  0.0609125463993
    W82  W116  -0.0180691282312
    W82  W117  0.0293240213241
    W82  W118  0.0618292970865
    W82  W119  0.0580099931981
    W82  W120  -0.0273866249034
    W82  W121  0.0394946039933
    W82  W122  0.00228001857718
    W82  W123  0.0221868814521
    W82  W124  0.0299103372232
    W82  W125  0.0591231171413
    W82  W126  -0.0251434135656
    W82  W127  0.0127595893625
    W82  W128  0.155314168835
    W82  W129  0.0375733866199
    W82  W130  0.0580444703597
    W82  W131  -0.0210787937149
    W82  W132  0.0507794398105
    W82  W133  0.00938013111427
    W82  W134  0.103053648921
    W82  W135  -0.0175741193347
    W82  W136  0.00369361374505
    W82  W137  -0.0158921979189
    W82  W138  0.0769772289877
    W82  W139  -0.0607974615879
    W82  W140  -0.00568885795939
    W82  W141  -0.0243474314793
    W82  W142  -0.0414001668243
    W82  W143  -0.00432567560366
    W82  W144  -0.0598004097371
    W82  W145  0.0751425102036
    W82  W146  0.0816998249321
    W82  W147  0.127537429724
    W82  W148  0.0553603077931
    W82  W149  -0.0316137017129
    W83  W83  0.285031370108
    W83  W84  0.107048356234
    W83  W85  0.0910300062034
    W83  W86  0.052160565679
    W83  W87  -0.0147950390266
    W83  W88  -0.0546016146783
    W83  W89  0.0342632166393
    W83  W90  0.0331980432373
    W83  W91  0.0101212235872
    W83  W92  0.0624075653333
    W83  W93  -0.0517495556961
    W83  W94  -0.0781094344508
    W83  W95  0.0456504788466
    W83  W96  0.0629908605792
    W83  W97  0.0744404560047
    W83  W98  0.0762421772934
    W83  W99  0.0414288772713
    W83  W100  0.130168481407
    W83  W101  -0.0728109823827
    W83  W102  -0.0496952753645
    W83  W103  0.0850771795033
    W83  W104  0.0282929947752
    W83  W105  0.0764481523406
    W83  W106  0.0314605679289
    W83  W107  0.0529784850197
    W83  W108  -0.0082804793681
    W83  W109  0.0615748820723
    W83  W110  -0.0214792020156
    W83  W111  0.0750397366823
    W83  W112  -0.0231481025834
    W83  W113  -0.0212096770261
    W83  W114  -0.0783459788867
    W83  W115  0.0658968227058
    W83  W116  0.0283176091502
    W83  W117  0.0778391708407
    W83  W118  0.0337349970164
    W83  W119  -0.0732279040991
    W83  W120  0.0228158973739
    W83  W121  0.0314104879611
    W83  W122  -0.0456052543411
    W83  W123  -0.0396033916556
    W83  W124  -0.0847630965599
    W83  W125  -0.0872111666284
    W83  W126  -0.0547487301526
    W83  W127  -0.0644924250527
    W83  W128  -0.135717332127
    W83  W129  -0.0961721967245
    W83  W130  0.000247937400726
    W83  W131  0.0427942441413
    W83  W132  -0.109100148323
    W83  W133  -0.0437824223881
    W83  W134  -0.0688289335347
    W83  W135  -0.0360213339445
    W83  W136  -0.18820244575
    W83  W137  -0.0771807018596
    W83  W138  -0.0296726095493
    W83  W139  0.0155741334003
    W83  W140  -0.0356501938154
    W83  W141  -0.0158311024227
    W83  W142  -0.00284327728834
    W83  W143  0.0714442085545
    W83  W144  -0.0377449104877
    W83  W145  0.10105816118
    W83  W146  -0.0275579383621
    W83  W147  -0.0505602425957
    W83  W148  0.0255011126946
    W83  W149  -0.00671358844418
    W84  W84  0.466456332076
    W84  W85  0.0690001001323
    W84  W86  0.106327455031
    W84  W87  -0.0488293340173
    W84  W88  -0.107475735179
    W84  W89  -0.00324638309515
    W84  W90  0.0609897350356
    W84  W91  -0.0668695161121
    W84  W92  -0.0526405808543
    W84  W93  0.0215662723414
    W84  W94  -0.0336421953688
    W84  W95  0.0268817369804
    W84  W96  0.0104561352486
    W84  W97  0.0186980000045
    W84  W98  0.0643152616499
    W84  W99  0.006117696257
    W84  W100  0.103782374214
    W84  W101  0.0194882393235
    W84  W102  -0.0944570002497
    W84  W103  0.00410127129801
    W84  W104  -0.0100727442017
    W84  W105  0.00966823169786
    W84  W106  -0.0689965815532
    W84  W107  -0.116569157599
    W84  W108  0.076510340297
    W84  W109  0.0766480548121
    W84  W110  -0.0103573525804
    W84  W111  0.179555571578
    W84  W112  -0.000230066394843
    W84  W113  0.0350067441023
    W84  W114  -0.0842932808888
    W84  W115  0.0487335260072
    W84  W116  0.131669416355
    W84  W117  0.136344782719
    W84  W118  0.0854274663882
    W84  W119  0.016817008186
    W84  W120  0.030072223655
    W84  W121  0.10161763632
    W84  W122  0.0641637835652
    W84  W123  0.0450397484494
    W84  W124  -0.0669000828774
    W84  W125  -0.111337643018
    W84  W126  -0.0919247630446
    W84  W127  -0.0503276548082
    W84  W128  0.0594112351927
    W84  W129  -0.0399663298922
    W84  W130  0.0394282603204
    W84  W131  0.0812032387429
    W84  W132  -0.088367257263
    W84  W133  -0.0172467860464
    W84  W134  0.150282618718
    W84  W135  -0.0668193488056
    W84  W136  -0.0339619828188
    W84  W137  -0.152616497673
    W84  W138  0.0316346890159
    W84  W139  0.00337169279229
    W84  W140  -0.0286271138269
    W84  W141  -0.103308686877
    W84  W142  -0.0224115346837
    W84  W143  0.226195645522
    W84  W144  -0.00905114595773
    W84  W145  0.068394180262
    W84  W146  -0.020300729258
    W84  W147  0.0117205437834
    W84  W148  -0.0483298087385
    W84  W149  0.0515676892343
    W85  W85  0.198543151872
    W85  W86  0.0612652946213
    W85  W87  -0.0494090659444
    W85  W88  -0.00583674932041
    W85  W89  -0.0342995393034
    W85  W90  -0.060431922816
    W85  W91  -0.0091742032792
    W85  W92  0.0116887360614
    W85  W93  -0.04189994778
    W85  W94  -0.0772597232118
    W85  W95  0.0622950414589
    W85  W96  -0.0172472638152
    W85  W97  0.0401482708233
    W85  W98  0.0042275832311
    W85  W99  -0.01661482027
    W85  W100  0.0595823587424
    W85  W101  -0.0504470482792
    W85  W102  -0.00623636275964
    W85  W103  0.00450351419341
    W85  W104  -0.0574302262448
    W85  W105  0.0681649281591
    W85  W106  0.00217808275386
    W85  W107  0.0179564413261
    W85  W108  0.0484964125273
    W85  W109  -0.00287499371224
    W85  W110  0.0819230324092
    W85  W111  0.0892542180321
    W85  W112  -0.0415631304662
    W85  W113  -0.0410032815339
    W85  W114  -0.0732222049476
    W85  W115  0.053279054313
    W85  W116  -0.00951110976345
    W85  W117  -0.0361424905035
    W85  W118  0.00279352218413
    W85  W119  -0.0212250097562
    W85  W120  -0.0107903184051
    W85  W121  0.0461192364614
    W85  W122  -0.0640991454304
    W85  W123  0.00187632821804
    W85  W124  -0.0196156652393
    W85  W125  -0.0245223497372
    W85  W126  -0.00876287624187
    W85  W127  0.020374687092
    W85  W128  -0.0555319908077
    W85  W129  0.014557656354
    W85  W130  0.00480239499551
    W85  W131  0.0163873669194
    W85  W132  -0.107606933883
    W85  W133  -0.0166029860236
    W85  W134  0.0637663324213
    W85  W135  -0.0459513148307
    W85  W136  -0.0374588625497
    W85  W137  -0.0717092366693
    W85  W138  0.0111945011696
    W85  W139  0.00840711486231
    W85  W140  -0.0166893476961
    W85  W141  -0.0417316552168
    W85  W142  0.0334717646154
    W85  W143  0.00692319355178
    W85  W144  -0.0111968026757
    W85  W145  0.0558254901036
    W85  W146  0.0771114925882
    W85  W147  -0.00587392269586
    W85  W148  0.0569874416303
    W85  W149  -0.0217728431004
    W86  W86  0.192238144939
    W86  W87  -0.0329743534535
    W86  W88  -0.0326078518701
    W86  W89  0.022239614898
    W86  W90  0.00595201934093
    W86  W91  0.0476239781931
    W86  W92  0.0451280511353
    W86  W93  -0.0249693371918
    W86  W94  0.012888806442
    W86  W95  -0.0116285328501
    W86  W96  0.00106871498671
    W86  W97  -0.0236533281062
    W86  W98  -0.0318288249808
    W86  W99  -0.0142596949006
    W86  W100  -0.0292407756652
    W86  W101  0.0336404540194
    W86  W102  -0.0879941092737
    W86  W103  -0.0173953063225
    W86  W104  0.00232197764422
    W86  W105  -0.00280813042075
    W86  W106  -0.0172193202515
    W86  W107  -0.0434091475809
    W86  W108  0.0930119976709
    W86  W109  -0.00154714406408
    W86  W110  0.00420279779907
    W86  W111  0.0371509523208
    W86  W112  -0.0748992947718
    W86  W113  0.00944796414703
    W86  W114  -0.0713592475327
    W86  W115  0.0355975172288
    W86  W116  -0.033660122794
    W86  W117  -0.0441614631336
    W86  W118  0.017408439311
    W86  W119  -0.0240074222257
    W86  W120  0.0717482491216
    W86  W121  0.152960801886
    W86  W122  0.0194500681343
    W86  W123  0.028382856673
    W86  W124  -0.0313492486016
    W86  W125  -0.0338476070689
    W86  W126  -0.0282753277964
    W86  W127  -0.00927478742697
    W86  W128  -0.00328380698454
    W86  W129  0.0032913963522
    W86  W130  0.0318568153899
    W86  W131  0.0693559155624
    W86  W132  0.00218412849444
    W86  W133  -0.0896220253655
    W86  W134  0.0908521999772
    W86  W135  -0.0280730965255
    W86  W136  -0.0448092264866
    W86  W137  -0.00309965848941
    W86  W138  0.0636104745065
    W86  W139  0.0110555311882
    W86  W140  -0.0918526181375
    W86  W141  -0.00327207694658
    W86  W142  0.0315803788502
    W86  W143  0.0906623957225
    W86  W144  -0.0441938368273
    W86  W145  -0.00945997411195
    W86  W146  -0.010671764078
    W86  W147  0.0162992200827
    W86  W148  0.0313401373651
    W86  W149  -0.0362248944905
    W87  W87  0.171312000991
    W87  W88  0.0581774813407
    W87  W89  0.089868311008
    W87  W90  -0.00327854785921
    W87  W91  0.0124897088061
    W87  W92  -0.0478408696724
    W87  W93  0.0107790300517
    W87  W94  0.0160728247083
    W87  W95  0.0712187243906
    W87  W96  0.0257936773487
    W87  W97  0.0306400465067
    W87  W98  0.0246298753245
    W87  W99  0.104664160038
    W87  W100  -0.00867505111471
    W87  W101  -0.0115299987682
    W87  W102  0.0720944866565
    W87  W103  0.0475941297479
    W87  W104  0.0634467104529
    W87  W105  0.0317056204957
    W87  W106  0.115152272676
    W87  W107  -0.0340918484308
    W87  W108  -0.0622146527239
    W87  W109  -0.0991120359091
    W87  W110  0.00156642869551
    W87  W111  -0.0422346253282
    W87  W112  -0.024704606772
    W87  W113  0.015792744321
    W87  W114  -0.0935273708917
    W87  W115  -0.0521977580016
    W87  W116  0.0555754191049
    W87  W117  0.140580053417
    W87  W118  0.00452760584275
    W87  W119  0.0508237582876
    W87  W120  -0.0257225650856
    W87  W121  0.0147970011893
    W87  W122  -0.023148461066
    W87  W123  0.0388341000453
    W87  W124  0.0766438870167
    W87  W125  -0.0702985571513
    W87  W126  0.0154388491395
    W87  W127  -0.102445157236
    W87  W128  -0.0359921349451
    W87  W129  -0.0553192420725
    W87  W130  -0.0640071780052
    W87  W131  -0.0247768206568
    W87  W132  0.0742726631208
    W87  W133  0.0390699457379
    W87  W134  -0.12001420068
    W87  W135  0.0802052166595
    W87  W136  -0.0435711888926
    W87  W137  0.0100623265415
    W87  W138  0.101377701248
    W87  W139  -0.0907372383245
    W87  W140  0.00220777516954
    W87  W141  0.111426239162
    W87  W142  -0.0108270959889
    W87  W143  -0.000556455141029
    W87  W144  -0.00468850217586
    W87  W145  -0.0716957755856
    W87  W146  -0.0628267004604
    W87  W147  0.0795494329102
    W87  W148  -0.0244459790825
    W87  W149  -0.0115150779569
    W88  W88  0.282705068661
    W88  W89  -0.0469673609682
    W88  W90  -0.110289686832
    W88  W91  0.0590904271273
    W88  W92  -0.00642633781197
    W88  W93  0.027269832115
    W88  W94  -0.0631132164033
    W88  W95  0.0844599302168
    W88  W96  0.0285265859507
    W88  W97  -0.0121698721287
    W88  W98  0.00877678008036
    W88  W99  0.0078739468508
    W88  W100  0.00619015578902
    W88  W101  -0.0540099785029
    W88  W102  0.123600261964
    W88  W103  -0.0884266158671
    W88  W104  -0.0146808461807
    W88  W105  -0.0700307521914
    W88  W106  -0.0238759539241
    W88  W107  -0.00307092444692
    W88  W108  0.0124505784603
    W88  W109  -0.0387764370259
    W88  W110  -0.00916728709854
    W88  W111  0.0526685012984
    W88  W112  0.0261267509936
    W88  W113  -0.0828840028298
    W88  W114  -0.0187369047895
    W88  W115  -0.0838165615885
    W88  W116  -0.0987847650183
    W88  W117  0.0958259541534
    W88  W118  0.00564616286746
    W88  W119  -0.0471559974877
    W88  W120  -0.0558621299143
    W88  W121  -0.0564366265075
    W88  W122  -0.040071999549
    W88  W123  0.0510685171493
    W88  W124  -0.0151779333417
    W88  W125  -0.0280042062393
    W88  W126  0.00681211632227
    W88  W127  -0.0959736116138
    W88  W128  0.0529024083881
    W88  W129  0.0102681389272
    W88  W130  0.0372143859568
    W88  W131  0.0191796304799
    W88  W132  0.041796314978
    W88  W133  0.0398635883396
    W88  W134  -0.0561614181022
    W88  W135  0.0754832879694
    W88  W136  0.0289132965709
    W88  W137  -0.00231052858746
    W88  W138  0.0616553761007
    W88  W139  -0.000813091913367
    W88  W140  -0.0490784534255
    W88  W141  0.0742434220363
    W88  W142  -0.0351414394233
    W88  W143  -0.0252701855538
    W88  W144  0.0795720620517
    W88  W145  -0.0373011926035
    W88  W146  0.0402457837181
    W88  W147  0.0312091328289
    W88  W148  0.0246578712133
    W88  W149  -0.00159463786401
    W89  W89  0.172925431397
    W89  W90  0.070367394046
    W89  W91  -0.0170125865667
    W89  W92  -0.00789083127647
    W89  W93  -0.0421543444881
    W89  W94  0.0577618310128
    W89  W95  -0.00914641763598
    W89  W96  0.0279189625228
    W89  W97  -0.0362283160249
    W89  W98  0.0357514379037
    W89  W99  0.0900141271349
    W89  W100  -0.0567316238774
    W89  W101  -0.0110103510876
    W89  W102  -0.0230506811879
    W89  W103  0.0757630389274
    W89  W104  0.0652021436105
    W89  W105  0.0781137593877
    W89  W106  0.116123683793
    W89  W107  -0.0338629679164
    W89  W108  -0.0345855822325
    W89  W109  -0.0199889593294
    W89  W110  0.0207652499342
    W89  W111  -0.075954839929
    W89  W112  -0.0966658317142
    W89  W113  0.0436695057715
    W89  W114  -0.0915101713084
    W89  W115  0.0114717406262
    W89  W116  0.0893603565938
    W89  W117  0.00774498312081
    W89  W118  -0.0426242355458
    W89  W119  0.00687701134923
    W89  W120  0.0267323648151
    W89  W121  -0.00113793930152
    W89  W122  0.0224639162454
    W89  W123  -0.0364374141797
    W89  W124  0.0443457034466
    W89  W125  -0.045871350895
    W89  W126  -0.00201226839048
    W89  W127  -0.0224752985701
    W89  W128  -0.0950908082333
    W89  W129  0.00121426023505
    W89  W130  -0.0717191362729
    W89  W131  0.0173101859036
    W89  W132  0.0364141153633
    W89  W133  -0.0207773928874
    W89  W134  -0.0905572889238
    W89  W135  0.00436294956179
    W89  W136  -0.0784516164266
    W89  W137  0.0198501418429
    W89  W138  0.0950783511087
    W89  W139  -0.0494707783595
    W89  W140  0.0135495711265
    W89  W141  0.103100148111
    W89  W142  -0.0033038253171
    W89  W143  0.0330131502447
    W89  W144  -0.00185117497099
    W89  W145  -0.0585768114728
    W89  W146  -0.0614198578611
    W89  W147  0.0564581363391
    W89  W148  -0.105062212516
    W89  W149  -0.0539936758039
    W90  W90  0.206856783252
    W90  W91  -0.0250531522129
    W90  W92  -0.0296160379658
    W90  W93  -0.0264963102171
    W90  W94  0.0712675853266
    W90  W95  -0.0581734601839
    W90  W96  0.00609499307741
    W90  W97  -0.0085498302437
    W90  W98  0.0215937344057
    W90  W99  0.0247447103901
    W90  W100  0.0168709348449
    W90  W101  0.0371992476485
    W90  W102  -0.0650630973013
    W90  W103  0.0618096123039
    W90  W104  0.0438299494148
    W90  W105  0.0477092154971
    W90  W106  0.00223707543707
    W90  W107  -0.000120469819082
    W90  W108  -0.0357251291707
    W90  W109  0.0267213001479
    W90  W110  -0.0504462721007
    W90  W111  -0.0468077013485
    W90  W112  -0.0116930919339
    W90  W113  0.0479700300344
    W90  W114  0.0185605661075
    W90  W115  0.045796664439
    W90  W116  0.0769533141938
    W90  W117  0.00128404932959
    W90  W118  -0.0339537914942
    W90  W119  -0.0261702008607
    W90  W120  0.0380153201705
    W90  W121  -0.0151967973015
    W90  W122  0.0595057957046
    W90  W123  -0.055658204341
    W90  W124  -0.0265558385027
    W90  W125  0.0228170329063
    W90  W126  -0.0159797336843
    W90  W127  0.0452410033293
    W90  W128  -0.0144262792885
    W90  W129  0.014983842239
    W90  W130  -0.0243732336729
    W90  W131  0.0107248035166
    W90  W132  0.0373829093827
    W90  W133  -0.0193032389255
    W90  W134  -0.00136006736135
    W90  W135  -0.0229925816694
    W90  W136  -0.0238179344889
    W90  W137  0.0404196508289
    W90  W138  -0.0408936711852
    W90  W139  -0.00112732345582
    W90  W140  0.045360871187
    W90  W141  -0.00636462438478
    W90  W142  -0.00396102658306
    W90  W143  0.0473716480854
    W90  W144  -0.0763699895649
    W90  W145  0.00896907083464
    W90  W146  -0.0448503359279
    W90  W147  0.00198230196097
    W90  W148  -0.0381088426408
    W90  W149  -0.0267468224557
    W91  W91  0.198589431641
    W91  W92  0.0406710846392
    W91  W93  0.0500506947714
    W91  W94  -0.0123655446764
    W91  W95  0.00379499327016
    W91  W96  -0.062672396165
    W91  W97  -0.00573407842166
    W91  W98  -0.0130406396534
    W91  W99  0.00538356399412
    W91  W100  0.00686648484488
    W91  W101  0.0284609329311
    W91  W102  0.00590755452338
    W91  W103  -0.0589210911265
    W91  W104  0.0438513478063
    W91  W105  -0.0403405807885
    W91  W106  -0.0039966808891
    W91  W107  0.0337551948581
    W91  W108  -0.0149535735176
    W91  W109  -0.049555161146
    W91  W110  -0.0141209827104
    W91  W111  0.0253492999493
    W91  W112  -0.0563566793214
    W91  W113  -0.0171061392054
    W91  W114  -0.0221681638183
    W91  W115  -0.0467460319279
    W91  W116  -0.0997234169235
    W91  W117  0.0184632668999
    W91  W118  -0.0365515751595
    W91  W119  -0.0647111297843
    W91  W120  -0.0393372741155
    W91  W121  0.0579072670671
    W91  W122  -0.00814774831589
    W91  W123  -0.0216952891286
    W91  W124  -0.123602547023
    W91  W125  0.00765358435908
    W91  W126  0.0182308852586
    W91  W127  0.00140256153271
    W91  W128  -0.0469607789822
    W91  W129  -0.0286261864749
    W91  W130  -0.0197078052688
    W91  W131  0.0122191616133
    W91  W132  0.00770787420325
    W91  W133  -0.0492800588892
    W91  W134  -0.00867650871208
    W91  W135  0.0454569611731
    W91  W136  0.0346086045097
    W91  W137  0.0399391345735
    W91  W138  -0.0588485857543
    W91  W139  0.0809775360552
    W91  W140  -0.0293536207101
    W91  W141  0.0196053571974
    W91  W142  0.032343810602
    W91  W143  0.030739162419
    W91  W144  -0.0703022935105
    W91  W145  -0.0299660381954
    W91  W146  -0.00532298279727
    W91  W147  -0.052966994023
    W91  W148  0.0764728624869
    W91  W149  0.037097672791
    W92  W92  0.210577770407
    W92  W93  0.0218936280267
    W92  W94  0.0301088485398
    W92  W95  -0.119651425896
    W92  W96  0.0014427636397
    W92  W97  -0.0334006423495
    W92  W98  -0.00445160577216
    W92  W99  -0.0469810650116
    W92  W100  -0.0189035800076
    W92  W101  -0.038075213621
    W92  W102  -0.0306776031928
    W92  W103  -0.0434657702352
    W92  W104  0.027963152186
    W92  W105  -0.0536660446799
    W92  W106  -0.00151535009114
    W92  W107  0.0657021488813
    W92  W108  0.032744873658
    W92  W109  0.0396349759929
    W92  W110  0.00697534471102
    W92  W111  -0.0701448943773
    W92  W112  0.00449290778102
    W92  W113  0.00736252189035
    W92  W114  0.0357626673987
    W92  W115  0.0203223448658
    W92  W116  -0.102772568004
    W92  W117  -0.0827738441304
    W92  W118  0.070002320923
    W92  W119  0.023253050044
    W92  W120  0.0787696318793
    W92  W121  0.0594666659373
    W92  W122  0.00656086615186
    W92  W123  0.0277763164556
    W92  W124  0.0355738006847
    W92  W125  -0.0130684990309
    W92  W126  0.0131143232174
    W92  W127  0.00140187431522
    W92  W128  -0.0629540894208
    W92  W129  -0.110358730196
    W92  W130  0.040941125576
    W92  W131  0.00492228793519
    W92  W132  -0.0452505123728
    W92  W133  -0.0666818240416
    W92  W134  -0.0440899000985
    W92  W135  -0.0103230794495
    W92  W136  -0.107319928544
    W92  W137  0.00130258777154
    W92  W138  -0.0250556293241
    W92  W139  -0.021364154695
    W92  W140  -0.0636802533608
    W92  W141  0.0260774679517
    W92  W142  0.0292823676913
    W92  W143  -0.00463467029705
    W92  W144  0.0541625418909
    W92  W145  0.0560888666828
    W92  W146  -0.0927553149199
    W92  W147  -0.0562636775285
    W92  W148  -0.0337471014347
    W92  W149  0.0231043966872
    W93  W93  0.166829072417
    W93  W94  -0.000600202649119
    W93  W95  -0.0508605977531
    W93  W96  -0.0608481211426
    W93  W97  0.0422687749309
    W93  W98  0.0165937779913
    W93  W99  -0.0296092387702
    W93  W100  0.0253076197591
    W93  W101  0.0188573428814
    W93  W102  0.0274504807904
    W93  W103  -0.0610756318935
    W93  W104  0.0405081233442
    W93  W105  -0.0783460108203
    W93  W106  -0.0377265480526
    W93  W107  -0.0109706287342
    W93  W108  -0.0414082406242
    W93  W109  -0.0268543402512
    W93  W110  -0.00393219527549
    W93  W111  0.0435858244336
    W93  W112  0.0418017363407
    W93  W113  0.00926343057474
    W93  W114  0.0330110541544
    W93  W115  -0.0583999377221
    W93  W116  -0.0317622185494
    W93  W117  0.0491633543724
    W93  W118  0.0432190178682
    W93  W119  0.0435126453206
    W93  W120  -0.0553425285286
    W93  W121  0.0110238100736
    W93  W122  0.0137294730486
    W93  W123  0.0285912985488
    W93  W124  -0.0427944225691
    W93  W125  -0.0327044495488
    W93  W126  0.0412391184165
    W93  W127  -0.0144807674592
    W93  W128  0.0096513396295
    W93  W129  -0.0899965488986
    W93  W130  0.0154711434592
    W93  W131  -0.0449905825673
    W93  W132  -0.0160326422782
    W93  W133  0.0140476849936
    W93  W134  0.0142494454322
    W93  W135  -0.00281632768096
    W93  W136  0.0462154648093
    W93  W137  0.00231837883413
    W93  W138  -0.0369040358873
    W93  W139  0.0218428887658
    W93  W140  -0.00971837906793
    W93  W141  -0.0442807004846
    W93  W142  0.0159975043518
    W93  W143  0.0330301581197
    W93  W144  0.0300025237906
    W93  W145  -0.0101241664077
    W93  W146  -0.044363688633
    W93  W147  -0.0514280205068
    W93  W148  0.00108278256796
    W93  W149  0.0962011800023
    W94  W94  0.178041666643
    W94  W95  -0.132893782027
    W94  W96  -0.00651621445051
    W94  W97  -0.0575225284697
    W94  W98  -0.0187646733494
    W94  W99  0.00723521670523
    W94  W100  -0.0288974584125
    W94  W101  0.0395152309327
    W94  W102  -0.023125499224
    W94  W103  -0.00619884510243
    W94  W104  0.0490878764095
    W94  W105  -0.0344963324495
    W94  W106  0.0463678012391
    W94  W107  -0.00479048121617
    W94  W108  -0.05121748936
    W94  W109  0.00941695834982
    W94  W110  -0.00345892504351
    W94  W111  -0.143924155957
    W94  W112  0.0577569763748
    W94  W113  0.0677853808168
    W94  W114  0.0276453082142
    W94  W115  0.000350285271676
    W94  W116  0.0252454250824
    W94  W117  -0.0685468501983
    W94  W118  -0.0232285928149
    W94  W119  0.044384091004
    W94  W120  0.115337927147
    W94  W121  0.0275467555288
    W94  W122  0.0514856410048
    W94  W123  0.0635049336949
    W94  W124  0.145760317581
    W94  W125  0.0211331352094
    W94  W126  0.0569865530557
    W94  W127  0.064067740485
    W94  W128  -0.00730171499671
    W94  W129  -0.00062044585382
    W94  W130  -0.0241899519589
    W94  W131  -0.0165386077682
    W94  W132  0.0793332061626
    W94  W133  0.00667937367506
    W94  W134  0.00155544621401
    W94  W135  0.0336876437191
    W94  W136  0.0333178048641
    W94  W137  0.0888489733676
    W94  W138  -0.034836283315
    W94  W139  -0.0957373653001
    W94  W140  0.0325963881223
    W94  W141  0.0394719325729
    W94  W142  0.0693713899253
    W94  W143  -0.0255490830175
    W94  W144  -0.011750589431
    W94  W145  -0.0625391996425
    W94  W146  -0.114410831406
    W94  W147  -0.00268316313632
    W94  W148  -0.0413641545505
    W94  W149  -0.0387324832322
    W95  W95  0.311820559657
    W95  W96  0.0366691641339
    W95  W97  0.0252760907677
    W95  W98  0.00367951563279
    W95  W99  0.0794956679049
    W95  W100  0.0103522722469
    W95  W101  -0.00995343447006
    W95  W102  0.0451126911536
    W95  W103  0.0444373315437
    W95  W104  -0.0469096988919
    W95  W105  0.0622135485593
    W95  W106  0.0407270564113
    W95  W107  -0.0445914546192
    W95  W108  0.0355388250163
    W95  W109  -0.0483162612685
    W95  W110  0.00261088484318
    W95  W111  0.108991267599
    W95  W112  -0.0698893814874
    W95  W113  -0.0434642758531
    W95  W114  -0.106540076562
    W95  W115  -0.0270823473143
    W95  W116  0.0481616579139
    W95  W117  0.146714033648
    W95  W118  -0.0169493779939
    W95  W119  -0.0290518887823
    W95  W120  -0.0917255656736
    W95  W121  0.00487310988896
    W95  W122  -0.0587139093216
    W95  W123  -0.0201893173541
    W95  W124  -0.064406525898
    W95  W125  -0.0322707775961
    W95  W126  -0.0740551055779
    W95  W127  -0.102788110072
    W95  W128  0.0277292050479
    W95  W129  0.0535998828571
    W95  W130  -0.0406179057926
    W95  W131  0.0367406260407
    W95  W132  -0.00928021061963
    W95  W133  0.0305480300796
    W95  W134  -0.0255236187782
    W95  W135  0.0528492800925
    W95  W136  0.00923972206739
    W95  W137  -0.0912569656997
    W95  W138  0.0782909477754
    W95  W139  0.0392089347198
    W95  W140  -0.00322273507418
    W95  W141  0.0286140336201
    W95  W142  -0.0677404844032
    W95  W143  0.0201103279111
    W95  W144  -0.0355250330738
    W95  W145  -0.0124518035091
    W95  W146  0.107259228404
    W95  W147  0.070750717836
    W95  W148  0.0561929962359
    W95  W149  -0.00316722086283
    W96  W96  0.187319147089
    W96  W97  -0.00382747079936
    W96  W98  0.0123254928973
    W96  W99  0.0228582381074
    W96  W100  -0.0146423379756
    W96  W101  -0.0280158665622
    W96  W102  -0.00675763396842
    W96  W103  0.0446955026461
    W96  W104  -0.00361104058927
    W96  W105  -0.0385492433447
    W96  W106  0.00821852819063
    W96  W107  -0.0400756980394
    W96  W108  0.0213761709924
    W96  W109  0.0739596758063
    W96  W110  -0.0727234749867
    W96  W111  -0.0117890448665
    W96  W112  0.0719862574227
    W96  W113  -0.0142075120626
    W96  W114  -0.00618928143381
    W96  W115  -0.00924204075024
    W96  W116  0.0224032030323
    W96  W117  0.0472091829627
    W96  W118  0.038904750687
    W96  W119  -0.0190522204163
    W96  W120  0.0761636345583
    W96  W121  -0.023218495166
    W96  W122  -0.00673203016981
    W96  W123  0.0539424118041
    W96  W124  0.0768030286596
    W96  W125  -0.0579720543226
    W96  W126  -0.0397207740386
    W96  W127  -0.113554160937
    W96  W128  0.0398545357796
    W96  W129  0.00156481537722
    W96  W130  0.0536194452239
    W96  W131  0.0459974952557
    W96  W132  0.055875609962
    W96  W133  0.0181931717902
    W96  W134  -0.0641635929309
    W96  W135  0.014276715837
    W96  W136  -0.0824163636644
    W96  W137  2.14890348152e-05
    W96  W138  0.0872362193438
    W96  W139  -0.0535158333092
    W96  W140  -0.0677626995016
    W96  W141  0.0373969832156
    W96  W142  -0.0458719620283
    W96  W143  -0.0130068719569
    W96  W144  0.0792226707043
    W96  W145  -0.0227511160664
    W96  W146  -0.0323360653817
    W96  W147  0.0316161031786
    W96  W148  -0.0247190541883
    W96  W149  -0.0596315404693
    W97  W97  0.273418578516
    W97  W98  0.00615096955455
    W97  W99  -0.0347638507067
    W97  W100  0.12515536529
    W97  W101  -0.0144450040098
    W97  W102  0.0323279302611
    W97  W103  0.0767779047089
    W97  W104  0.020412742885
    W97  W105  0.0512487281953
    W97  W106  -0.0310085179609
    W97  W107  0.0427067717329
    W97  W108  -0.0761160795534
    W97  W109  -0.0999499255358
    W97  W110  -0.0174749909588
    W97  W111  0.0752297539426
    W97  W112  0.0768119144475
    W97  W113  -0.0396314794261
    W97  W114  0.0114985973353
    W97  W115  0.0279827775917
    W97  W116  -0.0137064420417
    W97  W117  0.0447456945645
    W97  W118  0.0459397842543
    W97  W119  0.017696845759
    W97  W120  -0.0665265833585
    W97  W121  0.0199659094497
    W97  W122  -0.0903866447139
    W97  W123  0.00643848040644
    W97  W124  -0.0261472715161
    W97  W125  -0.0437453064279
    W97  W126  0.0688433501876
    W97  W127  -0.0286809467697
    W97  W128  -0.041402902397
    W97  W129  -0.0981339091423
    W97  W130  0.0426664763783
    W97  W131  -0.102416338
    W97  W132  -0.00354883897551
    W97  W133  0.0256802623856
    W97  W134  0.00428888694992
    W97  W135  -0.0729222349256
    W97  W136  -0.0774378028067
    W97  W137  0.0592120613452
    W97  W138  0.00355230904665
    W97  W139  -0.0367094774918
    W97  W140  -0.0339153325932
    W97  W141  -0.0991231150485
    W97  W142  0.0400953984877
    W97  W143  -0.0544892601935
    W97  W144  -0.0652576106881
    W97  W145  0.0391029155116
    W97  W146  0.0212031930363
    W97  W147  -0.0140208624477
    W97  W148  0.153440830017
    W97  W149  -0.00641735713532
    W98  W98  0.131972283301
    W98  W99  0.0397212162509
    W98  W100  0.101673516694
    W98  W101  -0.077066784034
    W98  W102  0.0473695391375
    W98  W103  -0.00660421350901
    W98  W104  0.0315658678598
    W98  W105  0.0245108647616
    W98  W106  0.00940895550179
    W98  W107  0.00674917491754
    W98  W108  -0.0522505327149
    W98  W109  0.0393320755282
    W98  W110  0.0126950349996
    W98  W111  0.0579256242289
    W98  W112  0.0135612233426
    W98  W113  -0.0229111129637
    W98  W114  -0.043779607461
    W98  W115  -0.00427370932479
    W98  W116  0.0477935349513
    W98  W117  0.102306785487
    W98  W118  -0.00636762318105
    W98  W119  -0.0486031371521
    W98  W120  -0.0288357477849
    W98  W121  -0.0907496913351
    W98  W122  0.00365878883307
    W98  W123  -0.0131517554966
    W98  W124  -0.0389981644431
    W98  W125  -0.0657787082413
    W98  W126  -0.00549545098625
    W98  W127  -0.0295062394453
    W98  W128  -0.0589769416254
    W98  W129  -0.0336093556203
    W98  W130  -0.0124183135456
    W98  W131  0.018762646176
    W98  W132  -0.0561715601327
    W98  W133  0.0342042716098
    W98  W134  -0.0560936788928
    W98  W135  -0.00231439617242
    W98  W136  -0.0455351774436
    W98  W137  -0.0530062590352
    W98  W138  -0.014116185836
    W98  W139  -0.012362894247
    W98  W140  0.0339461659057
    W98  W141  0.0240077526359
    W98  W142  -0.0138792735468
    W98  W143  0.0642780916725
    W98  W144  0.0490528346558
    W98  W145  0.0316501580575
    W98  W146  -0.0231887849318
    W98  W147  -0.015850369254
    W98  W148  -0.0741991270587
    W98  W149  0.0132256191813
    W99  W99  0.174967387678
    W99  W100  -0.000383663877663
    W99  W101  -0.00937053698327
    W99  W102  0.0211403155591
    W99  W103  0.0535963991932
    W99  W104  0.0410425510966
    W99  W105  0.0507437171485
    W99  W106  0.123205544577
    W99  W107  -0.0308290449168
    W99  W108  -0.0441317609257
    W99  W109  -0.0191311405127
    W99  W110  0.0136755714139
    W99  W111  -0.0262532972932
    W99  W112  -0.0553232935604
    W99  W113  0.0316239226453
    W99  W114  -0.106657890208
    W99  W115  -0.0282467752094
    W99  W116  0.0949792018844
    W99  W117  0.113148903785
    W99  W118  -0.03210305222
    W99  W119  0.0101339846134
    W99  W120  -0.00556063412568
    W99  W121  0.00460732935803
    W99  W122  -0.00378664510751
    W99  W123  -0.000114618351208
    W99  W124  0.0342629287086
    W99  W125  -0.0514792558447
    W99  W126  -0.0277316839862
    W99  W127  -0.0594929762644
    W99  W128  -0.0626501850144
    W99  W129  -0.00882382807807
    W99  W130  -0.0941958052962
    W99  W131  0.0217508605997
    W99  W132  0.0103032698308
    W99  W133  0.0238829742494
    W99  W134  -0.0947228313998
    W99  W135  0.0755427935576
    W99  W136  -0.021303753944
    W99  W137  -0.044271740947
    W99  W138  0.0347385068513
    W99  W139  -0.0356038135689
    W99  W140  0.041020425325
    W99  W141  0.0912848140058
    W99  W142  -0.0133286026989
    W99  W143  0.0348918158456
    W99  W144  -0.0200364880767
    W99  W145  -0.047450977131
    W99  W146  -0.0425766364379
    W99  W147  0.0396558098902
    W99  W148  -0.0518009070382
    W99  W149  -0.00267399091409
    W100  W100  0.316697878801
    W100  W101  -0.0933616475139
    W100  W102  0.0880004403457
    W100  W103  -0.0193897077811
    W100  W104  0.0141833785997
    W100  W105  0.0376550748929
    W100  W106  -0.0539550682308
    W100  W107  0.0795958618018
    W100  W108  -0.0901951734375
    W100  W109  0.00133643116642
    W100  W110  -0.00198366786684
    W100  W111  0.116611834291
    W100  W112  0.128064115254
    W100  W113  -0.0647886299207
    W100  W114  -0.0189597032658
    W100  W115  0.0349001858101
    W100  W116  0.00393466019464
    W100  W117  0.156945540334
    W100  W118  0.0144555125299
    W100  W119  -0.0806905866521
    W100  W120  -0.0200546578885
    W100  W121  -0.0621657275204
    W100  W122  -0.0477671927496
    W100  W123  0.0409711575904
    W100  W124  -0.04405392035
    W100  W125  -0.0541698344683
    W100  W126  0.031439233003
    W100  W127  0.00482917676625
    W100  W128  -0.0458979722227
    W100  W129  -0.0734013251452
    W100  W130  0.0260928659841
    W100  W131  -0.0177333382099
    W100  W132  -0.0736738960972
    W100  W133  0.0658945030294
    W100  W134  0.00824118819493
    W100  W135  0.00360429810207
    W100  W136  -0.0442311871865
    W100  W137  -0.033872235229
    W100  W138  -0.128320551968
    W100  W139  -0.0557844272496
    W100  W140  0.0489991061085
    W100  W141  -0.0556706882393
    W100  W142  0.0495072382736
    W100  W143  0.0433942880224
    W100  W144  -0.0493328059039
    W100  W145  0.107521141265
    W100  W146  -0.00841704446812
    W100  W147  -0.0496956474306
    W100  W148  0.0852118315408
    W100  W149  0.00265423787732
    W101  W101  0.202907897178
    W101  W102  -0.0864499201675
    W101  W103  0.0199050204962
    W101  W104  0.00673021008765
    W101  W105  -0.0426095564826
    W101  W106  -0.00352550587578
    W101  W107  -0.050879208467
    W101  W108  0.0179549726715
    W101  W109  -0.0163399117111
    W101  W110  -0.0444420779511
    W101  W111  -0.0324249015761
    W101  W112  -0.0176017630449
    W101  W113  0.0661909046436
    W101  W114  0.0329906774621
    W101  W115  -0.0207487260787
    W101  W116  0.0184034779253
    W101  W117  -0.0446474950748
    W101  W118  -0.00830569070814
    W101  W119  0.0485016302727
    W101  W120  0.0156709861063
    W101  W121  0.102174674572
    W101  W122  0.0388943096416
    W101  W123  -0.00232376684285
    W101  W124  -0.0142469114785
    W101  W125  0.0449518534747
    W101  W126  -0.0101314479151
    W101  W127  0.0247504317503
    W101  W128  0.0597909689012
    W101  W129  0.0227926108255
    W101  W130  -0.0191405132171
    W101  W131  -0.00857991412695
    W101  W132  0.0600952121353
    W101  W133  -0.0317017468063
    W101  W134  0.0708772237154
    W101  W135  0.00771194160641
    W101  W136  0.0889625945381
    W101  W137  0.0429730150157
    W101  W138  -0.0226120578797
    W101  W139  0.0505823599974
    W101  W140  -0.00844737205185
    W101  W141  -0.0513702047304
    W101  W142  0.00943911043774
    W101  W143  0.0057997865981
    W101  W144  -0.080107985115
    W101  W145  -0.0617095996311
    W101  W146  -0.0111354215815
    W101  W147  -0.0113892869192
    W101  W148  0.0507372682527
    W101  W149  0.0324646536707
    W102  W102  0.187946876185
    W102  W103  -0.0526719920173
    W102  W104  -0.00123208642266
    W102  W105  0.00265077379957
    W102  W106  0.00491566442705
    W102  W107  0.0382795083238
    W102  W108  -0.0610310025988
    W102  W109  -0.0620166551165
    W102  W110  0.0312865023468
    W102  W111  0.0196563270729
    W102  W112  0.0596909368421
    W102  W113  -0.0686278665953
    W102  W114  -0.0128805417104
    W102  W115  -0.0434324897801
    W102  W116  -0.0349978972158
    W102  W117  0.104350106656
    W102  W118  -0.00953996093601
    W102  W119  -0.0197256675833
    W102  W120  -0.0635740913699
    W102  W121  -0.111290057463
    W102  W122  -0.0475159851437
    W102  W123  0.0404012976005
    W102  W124  0.0389407890879
    W102  W125  -0.0181035269506
    W102  W126  0.0470013398104
    W102  W127  -0.0328449451236
    W102  W128  0.00418393794856
    W102  W129  -0.0083979602771
    W102  W130  -0.000505934347103
    W102  W131  -0.0342980331038
    W102  W132  0.0150205012965
    W102  W133  0.0839174755549
    W102  W134  -0.0706043809477
    W102  W135  0.0597854396233
    W102  W136  0.0166661555835
    W102  W137  0.00182561849315
    W102  W138  0.0092161751703
    W102  W139  -0.0666959543676
    W102  W140  0.0361075461469
    W102  W141  0.0639785560667
    W102  W142  -0.00252404187772
    W102  W143  -0.0493256196004
    W102  W144  0.0517636385569
    W102  W145  0.00158598022481
    W102  W146  0.0199638716245
    W102  W147  0.0341153562124
    W102  W148  0.00442776885697
    W102  W149  -0.0110478994544
    W103  W103  0.184787188948
    W103  W104  0.019391649321
    W103  W105  0.101587284684
    W103  W106  0.0887498218034
    W103  W107  0.000313448662697
    W103  W108  -0.0412088539626
    W103  W109  -0.023270842728
    W103  W110  -0.0123213999823
    W103  W111  -0.0484687069581
    W103  W112  -0.0326446396578
    W103  W113  0.0409469734085
    W103  W114  -0.0320587464691
    W103  W115  0.0448459594104
    W103  W116  0.100644786247
    W103  W117  -0.00764968587822
    W103  W118  -0.00916035869411
    W103  W119  0.0391820607036
    W103  W120  0.00333551473668
    W103  W121  0.0218111969674
    W103  W122  -0.0326055679259
    W103  W123  -0.0509085835766
    W103  W124  0.0371751846043
    W103  W125  -0.011281838742
    W103  W126  -0.0103640080638
    W103  W127  -0.0166108128405
    W103  W128  -0.0704702270309
    W103  W129  -0.0162404892105
    W103  W130  -0.0528815517297
    W103  W131  -0.0373027658523
    W103  W132  0.00974594103482
    W103  W133  -0.00324966640304
    W103  W134  -0.0610075109377
    W103  W135  -0.0314172132375
    W103  W136  -0.0843421438954
    W103  W137  0.0152326596331
    W103  W138  0.0358000340657
    W103  W139  -0.0264719195884
    W103  W140  0.0184312958929
    W103  W141  -0.0072537772531
    W103  W142  -0.00640405030357
    W103  W143  -0.0422081133675
    W103  W144  -0.064334512418
    W103  W145  -0.00496018387285
    W103  W146  -0.00894887560561
    W103  W147  0.0254184608004
    W103  W148  0.0172933468268
    W103  W149  -0.0358835330338
    W104  W104  0.098192964571
    W104  W105  -0.00966163455376
    W104  W106  0.0497910236701
    W104  W107  0.00175597251445
    W104  W108  -0.0669509864172
    W104  W109  -0.0232701373487
    W104  W110  -0.0225706749489
    W104  W111  -0.0387534221052
    W104  W112  -0.00252620674979
    W104  W113  0.0311248000168
    W104  W114  -0.0243467234006
    W104  W115  -0.0250450422581
    W104  W116  0.0155759098466
    W104  W117  0.0500557735119
    W104  W118  0.00150938366356
    W104  W119  0.0087437776155
    W104  W120  0.00955097372326
    W104  W121  0.0188050279119
    W104  W122  0.0148953558239
    W104  W123  0.00475981432785
    W104  W124  0.00116895262248
    W104  W125  -0.0460565900955
    W104  W126  0.0279403042429
    W104  W127  -0.029430993111
    W104  W128  -0.0664121417518
    W104  W129  -0.0782028414325
    W104  W130  -0.0296756572874
    W104  W131  -0.0167587069939
    W104  W132  0.0291818186794
    W104  W133  -0.00932584887977
    W104  W134  -0.0696188028924
    W104  W135  0.0206413857099
    W104  W136  -0.04294506164
    W104  W137  0.0389542979093
    W104  W138  -0.00346031397918
    W104  W139  -0.0260665996362
    W104  W140  -0.00449805859902
    W104  W141  0.0387431828335
    W104  W142  0.0218655995457
    W104  W143  0.0304915088186
    W104  W144  -0.0152902835137
    W104  W145  -0.0336651331504
    W104  W146  -0.0923312193259
    W104  W147  -0.0173397343487
    W104  W148  -0.0250622936458
    W104  W149  0.0163752653717
    W105  W105  0.232109576338
    W105  W106  0.0620484303607
    W105  W107  0.0490337032334
    W105  W108  -0.0093238842987
    W105  W109  -0.0830843469834
    W105  W110  0.0692262635284
    W105  W111  -0.00419705414091
    W105  W112  -0.132417988947
    W105  W113  -0.0101703295187
    W105  W114  -0.0756439456124
    W105  W115  0.0977409339328
    W105  W116  0.0728787536875
    W105  W117  -0.00835926773536
    W105  W118  -0.0524852794578
    W105  W119  -0.0168925585752
    W105  W120  -0.0574211275024
    W105  W121  -0.0225366477422
    W105  W122  -0.0347169967368
    W105  W123  -0.11182669577
    W105  W124  -0.0369501716657
    W105  W125  0.0271690561731
    W105  W126  -0.0133496615691
    W105  W127  0.0579763791423
    W105  W128  -0.095623926799
    W105  W129  0.0361478387116
    W105  W130  -0.0718104917659
    W105  W131  -0.020133053931
    W105  W132  -0.0439989859372
    W105  W133  -0.0176495537226
    W105  W134  -0.0260864214866
    W105  W135  -0.0459263813494
    W105  W136  -0.0877656053193
    W105  W137  -0.0223108469313
    W105  W138  0.0346706903569
    W105  W139  -0.0166169635038
    W105  W140  0.069279904018
    W105  W141  0.0297772912469
    W105  W142  -0.00752030833404
    W105  W143  -0.00242583295871
    W105  W144  -0.10402876118
    W105  W145  0.0657637143832
    W105  W146  0.070000091804
    W105  W147  0.0726378246971
    W105  W148  -0.00445954889288
    W105  W149  -0.0621984927376
    W106  W106  0.292772587047
    W106  W107  -0.0143276120874
    W106  W108  -0.0791378686785
    W106  W109  -0.0321024041365
    W106  W110  0.0730810984491
    W106  W111  -0.113034081936
    W106  W112  -0.0587350904926
    W106  W113  0.0701963576978
    W106  W114  -0.118366540931
    W106  W115  -0.028712984483
    W106  W116  0.105564441161
    W106  W117  0.0103869388678
    W106  W118  -0.0422915448662
    W106  W119  0.0800447540248
    W106  W120  0.0281830283249
    W106  W121  0.0446173339712
    W106  W122  -0.038445824096
    W106  W123  0.0207217882313
    W106  W124  0.141843366993
    W106  W125  -0.0499633771896
    W106  W126  0.0233833441668
    W106  W127  -0.0231913303469
    W106  W128  -0.144763627258
    W106  W129  -0.0333248514522
    W106  W130  -0.140740039085
    W106  W131  -0.0265041436804
    W106  W132  -0.0103551922743
    W106  W133  0.023670782641
    W106  W134  -0.123293140128
    W106  W135  0.0734317553281
    W106  W136  -0.0247322908491
    W106  W137  -0.0190506287157
    W106  W138  0.0296951612538
    W106  W139  -0.0755248750862
    W106  W140  0.053297721167
    W106  W141  0.0992735611337
    W106  W142  0.0462191198717
    W106  W143  -0.0469300002282
    W106  W144  -0.00550303585651
    W106  W145  -0.086708179092
    W106  W146  -0.0791310007681
    W106  W147  0.0137120542601
    W106  W148  -0.0501179411504
    W106  W149  -0.00727556241888
    W107  W107  0.14691665382
    W107  W108  -0.0419643122839
    W107  W109  -0.026193623091
    W107  W110  0.00965635052805
    W107  W111  -0.0459437587683
    W107  W112  0.0153968027763
    W107  W113  -0.0361118254229
    W107  W114  0.0585436185394
    W107  W115  0.0480354709325
    W107  W116  -0.0778429236465
    W107  W117  -0.0446419563499
    W107  W118  -0.0152354657375
    W107  W119  -0.0412898546737
    W107  W120  -0.0150268728024
    W107  W121  -0.049315072042
    W107  W122  -0.0381752118449
    W107  W123  -0.0511504635254
    W107  W124  -0.0292273016806
    W107  W125  0.0642252351662
    W107  W126  0.0351501648827
    W107  W127  0.0721604084398
    W107  W128  -0.068317126472
    W107  W129  -0.0344954609546
    W107  W130  -0.00187469852444
    W107  W131  -0.0449737669744
    W107  W132  -0.0365016549581
    W107  W133  -0.00894469129277
    W107  W134  -0.0491626962318
    W107  W135  -0.00304016555546
    W107  W136  -0.0509102090552
    W107  W137  0.0370939655237
    W107  W138  -0.110881160129
    W107  W139  -0.000137050374506
    W107  W140  0.0413987118144
    W107  W141  -0.000387135792647
    W107  W142  0.0280044291476
    W107  W143  -0.0718969664906
    W107  W144  -0.0572480202979
    W107  W145  0.0891597799898
    W107  W146  0.00957750153187
    W107  W147  -0.0425641813827
    W107  W148  0.0569949823809
    W107  W149  -0.0101882195836
    W108  W108  0.238477041437
    W108  W109  0.0154334907804
    W108  W110  -0.0135839599087
    W108  W111  0.0407543659441
    W108  W112  -0.0884902952976
    W108  W113  -0.0160169649344
    W108  W114  -0.00273997052157
    W108  W115  0.0430862922392
    W108  W116  -0.0531111327634
    W108  W117  -0.0309821593342
    W108  W118  0.0651117575152
    W108  W119  0.0043173850607
    W108  W120  0.0307203313068
    W108  W121  0.0891802402103
    W108  W122  0.0404843893791
    W108  W123  -0.00335485658436
    W108  W124  -0.0425579321044
    W108  W125  0.022897623217
    W108  W126  -0.0956802662471
    W108  W127  -0.0322224656251
    W108  W128  0.113601402574
    W108  W129  0.0414197647535
    W108  W130  0.0703468411764
    W108  W131  0.0828185022387
    W108  W132  2.36712839016e-05
    W108  W133  -0.0781815336972
    W108  W134  0.0846946627061
    W108  W135  -0.0245650645949
    W108  W136  -0.0401716498881
    W108  W137  -0.0691102299555
    W108  W138  0.102476672491
    W108  W139  0.0368667962011
    W108  W140  -0.086010655019
    W108  W141  0.0068223211539
    W108  W142  -0.0707428117419
    W108  W143  0.0724149054446
    W108  W144  0.0125743038164
    W108  W145  0.0560618768218
    W108  W146  0.0551754162383
    W108  W147  0.0722502545435
    W108  W148  -0.0236650436365
    W108  W149  -0.0113003313629
    W109  W109  0.214423479333
    W109  W110  -0.0342503194169
    W109  W111  0.01813918324
    W109  W112  0.0752420357061
    W109  W113  0.0145596665328
    W109  W114  0.0434032051499
    W109  W115  -0.00875579420997
    W109  W116  0.0364061490623
    W109  W117  -0.0398250659358
    W109  W118  -0.00491424729155
    W109  W119  -0.0521075476562
    W109  W120  0.077168754994
    W109  W121  -0.0698853590267
    W109  W122  0.0444455314756
    W109  W123  0.0102621482118
    W109  W124  -0.000713286505297
    W109  W125  -0.0167237303147
    W109  W126  -0.0466473540137
    W109  W127  0.00303118643905
    W109  W128  0.010990351042
    W109  W129  0.0377781034172
    W109  W130  0.0310410870421
    W109  W131  0.0718488149916
    W109  W132  -0.0625334379879
    W109  W133  0.00965055435524
    W109  W134  0.0129638711034
    W109  W135  -0.0174002371969
    W109  W136  0.024519272487
    W109  W137  -0.0557246858757
    W109  W138  -0.0728642164132
    W109  W139  0.0513679308875
    W109  W140  0.00460595855551
    W109  W141  -0.0414999238804
    W109  W142  -0.0186434377935
    W109  W143  0.0327145122535
    W109  W144  0.10700573433
    W109  W145  0.0071611887663
    W109  W146  -0.0234363613293
    W109  W147  -0.0891301739747
    W109  W148  -0.0856239378537
    W109  W149  0.0176064718941
    W110  W110  0.223928616112
    W110  W111  -0.00194838940756
    W110  W112  -0.0655367185464
    W110  W113  0.00202852918095
    W110  W114  -0.0715272950704
    W110  W115  0.0152932378871
    W110  W116  0.0283320228775
    W110  W117  -0.0704815041854
    W110  W118  -0.0390029021294
    W110  W119  0.0383817180468
    W110  W120  -0.0295827130907
    W110  W121  -0.00289519809249
    W110  W122  -0.0374131219238
    W110  W123  -0.0040374084638
    W110  W124  0.0523388643441
    W110  W125  -0.00648103182119
    W110  W126  0.0426216746948
    W110  W127  0.0701292176415
    W110  W128  -0.0921787908474
    W110  W129  0.0214686170782
    W110  W130  -0.0649222962727
    W110  W131  -0.0264696708439
    W110  W132  -0.0890256447076
    W110  W133  0.0144491015382
    W110  W134  0.0189022162573
    W110  W135  -0.0173621336941
    W110  W136  0.0268109694531
    W110  W137  -0.0445045855231
    W110  W138  0.00904557238821
    W110  W139  -0.0245478629226
    W110  W140  0.0538504933672
    W110  W141  0.0153081616759
    W110  W142  0.0546171729044
    W110  W143  -0.0253799977671
    W110  W144  0.0253712384782
    W110  W145  -0.006018131347
    W110  W146  0.0330412797765
    W110  W147  0.00249945229609
    W110  W148  -0.0357157272345
    W110  W149  -0.00105466417554
    W111  W111  0.317388079858
    W111  W112  -0.00862178315682
    W111  W113  -0.0789667982531
    W111  W114  -0.0521281236185
    W111  W115  -0.0113044043074
    W111  W116  -0.00649344280584
    W111  W117  0.120139621946
    W111  W118  0.0154464144517
    W111  W119  -0.0917321201365
    W111  W120  -0.109124936397
    W111  W121  -0.022199270788
    W111  W122  -0.0236528873876
    W111  W123  -0.0192778720326
    W111  W124  -0.194960955954
    W111  W125  -0.0691799492799
    W111  W126  -0.0428986116157
    W111  W127  -0.0559264292683
    W111  W128  0.0381556946426
    W111  W129  0.0136025827685
    W111  W130  0.0597198782636
    W111  W131  0.04695310098
    W111  W132  -0.0884843163163
    W111  W133  0.00845031045712
    W111  W134  0.0976806768836
    W111  W135  -0.0584547016109
    W111  W136  0.0217808672546
    W111  W137  -0.0929854066999
    W111  W138  0.0143497369347
    W111  W139  0.102535726312
    W111  W140  -0.0415757236082
    W111  W141  -0.0958890042702
    W111  W142  -0.0366360340863
    W111  W143  0.118267651433
    W111  W144  0.0137591344954
    W111  W145  0.0469220074833
    W111  W146  0.112368788012
    W111  W147  -0.0217239050538
    W111  W148  0.0535260161718
    W111  W149  0.044032119767
    W112  W112  0.360031053352
    W112  W113  -0.0133362887179
    W112  W114  0.105228027633
    W112  W115  -0.0408435685106
    W112  W116  -0.0156864079684
    W112  W117  0.0424635159743
    W112  W118  0.0557770549873
    W112  W119  0.0212983437991
    W112  W120  0.0822139128807
    W112  W121  -0.0570999910283
    W112  W122  -0.0243723429507
    W112  W123  0.152846521058
    W112  W124  0.147471590906
    W112  W125  -0.0301580352488
    W112  W126  0.069410960168
    W112  W127  -0.0244027978702
    W112  W128  0.0720863548501
    W112  W129  -0.055188571542
    W112  W130  0.0826244418249
    W112  W131  -0.0502043162582
    W112  W132  0.0381939540306
    W112  W133  0.106633119871
    W112  W134  0.0105904353074
    W112  W135  0.0275202273501
    W112  W136  0.0462247969236
    W112  W137  0.0526359505805
    W112  W138  -0.100518084263
    W112  W139  -0.103122862229
    W112  W140  -0.00163002371544
    W112  W141  -0.0774569765152
    W112  W142  0.0543719351402
    W112  W143  -0.0840606712078
    W112  W144  0.0752531382057
    W112  W145  -0.00781520638089
    W112  W146  -0.0747002881891
    W112  W147  -0.0729896207049
    W112  W148  0.0716830292948
    W112  W149  0.00249161329751
    W113  W113  0.111741933195
    W113  W114  -0.0057101058662
    W113  W115  -0.00562491581771
    W113  W116  0.0752047501952
    W113  W117  -0.024474023962
    W113  W118  0.0102497430292
    W113  W119  0.087499298117
    W113  W120  0.0496291941733
    W113  W121  0.0750964139764
    W113  W122  0.0389821889801
    W113  W123  0.0159722377188
    W113  W124  0.0709491785039
    W113  W125  -0.00104308905402
    W113  W126  -0.00540654048396
    W113  W127  0.0173571900533
    W113  W128  -0.0174547368887
    W113  W129  -0.0314391137268
    W113  W130  -0.0567876347866
    W113  W131  -0.0130702274579
    W113  W132  0.00800465224673
    W113  W133  -0.0117018581901
    W113  W134  -0.000582820686291
    W113  W135  0.0175363878113
    W113  W136  0.0205228268305
    W113  W137  -0.00724666142178
    W113  W138  -0.0194063638071
    W113  W139  -0.0202502793581
    W113  W140  0.0270503970322
    W113  W141  -0.0024492343765
    W113  W142  0.02047919596
    W113  W143  0.0139932192667
    W113  W144  -0.0242800012182
    W113  W145  -0.0375152457618
    W113  W146  -0.0792937668985
    W113  W147  -0.0118935794155
    W113  W148  -0.04340542236
    W113  W149  0.0369116985345
    W114  W114  0.248346522986
    W114  W115  0.00928167199739
    W114  W116  -0.0780834131548
    W114  W117  -0.0985380377582
    W114  W118  0.0232414779522
    W114  W119  0.00277287893313
    W114  W120  0.00738106164339
    W114  W121  -0.0713212202427
    W114  W122  0.0308831214855
    W114  W123  -0.0245409600913
    W114  W124  -0.0150293784754
    W114  W125  0.102059802387
    W114  W126  0.0234125453081
    W114  W127  0.0690269512942
    W114  W128  0.0923102015465
    W114  W129  0.00713705602078
    W114  W130  0.0765750029546
    W114  W131  -0.0473547303592
    W114  W132  0.0354069509179
    W114  W133  0.00467520288595
    W114  W134  0.0308909593135
    W114  W135  -0.0382270717164
    W114  W136  0.0478372056731
    W114  W137  0.0764097849315
    W114  W138  -0.100002284685
    W114  W139  0.0389875797013
    W114  W140  0.00941467738507
    W114  W141  -0.0797897773334
    W114  W142  -0.0174003850449
    W114  W143  -0.0818703314849
    W114  W144  0.0127583883963
    W114  W145  0.0463499195936
    W114  W146  0.00906946677473
    W114  W147  -0.0552772645101
    W114  W148  0.0283174285576
    W114  W149  0.0236658148408
    W115  W115  0.125041259877
    W115  W116  0.00681316495728
    W115  W117  -0.0599086586748
    W115  W118  0.0115496052038
    W115  W119  -0.011079394051
    W115  W120  0.0280607087087
    W115  W121  0.0188196585867
    W115  W122  0.00204099113926
    W115  W123  -0.0491361568918
    W115  W124  -0.0111704820843
    W115  W125  0.0376804646657
    W115  W126  -0.0200136551487
    W115  W127  0.0610072336164
    W115  W128  -0.0167944761151
    W115  W129  0.0096911049836
    W115  W130  0.0183897975227
    W115  W131  0.0026683973573
    W115  W132  -0.0310246735921
    W115  W133  -0.042188100256
    W115  W134  0.0388335766231
    W115  W135  -0.0643268569043
    W115  W136  -0.0871824691735
    W115  W137  -0.00623831773493
    W115  W138  -0.00187057439321
    W115  W139  -0.0202885535705
    W115  W140  0.00943204756612
    W115  W141  -0.0232634049091
    W115  W142  0.00100111155203
    W115  W143  0.00868099773751
    W115  W144  -0.0640504257741
    W115  W145  0.0944840728397
    W115  W146  0.0272886376991
    W115  W147  0.0300965900379
    W115  W148  0.0089597947983
    W115  W149  -0.0500273785839
    W116  W116  0.222707353868
    W116  W117  0.0707438439874
    W116  W118  -0.0247338596634
    W116  W119  0.0618284901199
    W116  W120  0.00478560625716
    W116  W121  -0.0163234986641
    W116  W122  0.0224396879658
    W116  W123  -0.00747590268685
    W116  W124  0.0690826155906
    W116  W125  -0.0505903297851
    W116  W126  -0.0313467057193
    W116  W127  -0.0101719626722
    W116  W128  -0.0371959690521
    W116  W129  0.0184898905208
    W116  W130  -0.0942026414305
    W116  W131  0.00100603126112
    W116  W132  -0.0278443329141
    W116  W133  0.0523913498497
    W116  W134  -0.0182651594814
    W116  W135  0.00262775955349
    W116  W136  0.014040007866
    W116  W137  -0.0728821724587
    W116  W138  0.0195148156858
    W116  W139  -0.040740569949
    W116  W140  0.0862515277833
    W116  W141  -0.00101112190842
    W116  W142  -0.0110913975747
    W116  W143  0.0460830807784
    W116  W144  -0.0036896776771
    W116  W145  -0.0360225756482
    W116  W146  -0.031952321806
    W116  W147  0.0279140093043
    W116  W148  -0.0924604006969
    W116  W149  0.0100741300421
    W117  W117  0.466325502489
    W117  W118  0.0782586917853
    W117  W119  -0.00688791722551
    W117  W120  -0.0598141456933
    W117  W121  -0.0063834837941
    W117  W122  0.00601294644771
    W117  W123  0.0668068970973
    W117  W124  -0.0460762462101
    W117  W125  -0.124369601299
    W117  W126  -0.0753287064105
    W117  W127  -0.189006782581
    W117  W128  0.0553596394997
    W117  W129  -0.109623911091
    W117  W130  -0.0116334262063
    W117  W131  0.0402718141182
    W117  W132  0.0188286354881
    W117  W133  0.0687874833397
    W117  W134  -0.0906727343317
    W117  W135  0.115609955364
    W117  W136  -0.0572717986694
    W117  W137  -0.120254942541
    W117  W138  0.0364174974229
    W117  W139  -0.0583000260603
    W117  W140  0.00158871049787
    W117  W141  0.0667878651521
    W117  W142  -0.0794542901211
    W117  W143  0.145902245316
    W117  W144  -0.0108926304627
    W117  W145  0.0362433329636
    W117  W146  -0.0592366700274
    W117  W147  0.0662373883295
    W117  W148  -0.0171422556955
    W117  W149  0.0655186498561
    W118  W118  0.202882777741
    W118  W119  0.0982718395
    W118  W120  0.0398989657197
    W118  W121  0.0931993539727
    W118  W122  0.00981057768884
    W118  W123  0.0828302033031
    W118  W124  0.0579168379045
    W118  W125  -0.0586818539285
    W118  W126  -0.0358101348752
    W118  W127  -0.098179177407
    W118  W128  0.0701137891942
    W118  W129  -0.135949626519
    W118  W130  0.0755937059282
    W118  W131  -0.00598971450061
    W118  W132  -0.00592248628418
    W118  W133  -0.0153198558561
    W118  W134  -0.000796728178032
    W118  W135  -0.00499329100753
    W118  W136  -0.106320162265
    W118  W137  -0.0620318343686
    W118  W138  0.0596877261186
    W118  W139  -0.0684933009625
    W118  W140  -0.0818736512878
    W118  W141  -0.0179534961427
    W118  W142  -0.0348199389609
    W118  W143  0.0442672379412
    W118  W144  0.0460881576354
    W118  W145  0.0741182972783
    W118  W146  -0.0735823790008
    W118  W147  0.0283338117274
    W118  W148  -0.0095720363531
    W118  W149  0.0519623604236
    W119  W119  0.284306966369
    W119  W120  0.0336876835617
    W119  W121  0.114581365083
    W119  W122  0.00338369880322
    W119  W123  0.0821020749627
    W119  W124  0.176524353706
    W119  W125  -0.0232153843854
    W119  W126  0.015898581136
    W119  W127  -0.0254066800171
    W119  W128  0.0205035063537
    W119  W129  -0.101695022895
    W119  W130  -0.0338059839775
    W119  W131  -0.0717870818518
    W119  W132  0.00463752077888
    W119  W133  0.0172483898636
    W119  W134  -0.00729128662762
    W119  W135  0.0180027516152
    W119  W136  -0.0103116983454
    W119  W137  -0.036582470998
    W119  W138  0.0506541823242
    W119  W139  -0.100505826341
    W119  W140  0.0020233403585
    W119  W141  -0.00489139193683
    W119  W142  0.0159460477266
    W119  W143  -0.0352421738751
    W119  W144  0.0250168490513
    W119  W145  -0.015343722387
    W119  W146  -0.0906850400511
    W119  W147  0.0352068902048
    W119  W148  -0.0358564106827
    W119  W149  0.0637856481395
    W120  W120  0.282103273061
    W120  W121  0.0894665189832
    W120  W122  0.0331635681308
    W120  W123  0.111664704926
    W120  W124  0.172086544679
    W120  W125  -0.0171517024568
    W120  W126  -0.00253199262242
    W120  W127  -0.00396015826849
    W120  W128  0.0183086848804
    W120  W129  -0.0180043030202
    W120  W130  0.0313777780713
    W120  W131  0.0415772943684
    W120  W132  0.0490107033519
    W120  W133  -0.0200568118784
    W120  W134  0.0137714730735
    W120  W135  0.0300986168572
    W120  W136  -0.0474503808522
    W120  W137  0.0275953704358
    W120  W138  0.00160782811868
    W120  W139  -0.108209041536
    W120  W140  -0.0427986788478
    W120  W141  0.0294406111936
    W120  W142  0.048762292818
    W120  W143  -0.00543432117705
    W120  W144  0.0218998890403
    W120  W145  -0.0180548304256
    W120  W146  -0.11466424707
    W120  W147  -0.000612264064692
    W120  W148  -0.0194752275784
    W120  W149  -0.0595736510423
    W121  W121  0.34499069165
    W121  W122  0.00408224245256
    W121  W123  0.0903425740115
    W121  W124  0.0576290937498
    W121  W125  -0.0388460602628
    W121  W126  -0.0270854067464
    W121  W127  -0.0438480568898
    W121  W128  0.0113970964593
    W121  W129  -0.0994872607663
    W121  W130  -0.00470836432798
    W121  W131  0.0128952299771
    W121  W132  0.0188871702411
    W121  W133  -0.0912239085824
    W121  W134  0.0810024705409
    W121  W135  0.0230501050859
    W121  W136  -0.0480974390843
    W121  W137  -0.0209480342291
    W121  W138  0.0513957168346
    W121  W139  -0.0386439768356
    W121  W140  -0.0997007939958
    W121  W141  -0.0192525200154
    W121  W142  0.0526072431736
    W121  W143  0.0643955274256
    W121  W144  -0.105250670841
    W121  W145  -0.0138342612063
    W121  W146  -0.0811782890532
    W121  W147  0.023138202636
    W121  W148  0.0910159906392
    W121  W149  0.0304527937324
    W122  W122  0.106018015455
    W122  W123  -0.0139982658136
    W122  W124  -0.02553673809
    W122  W125  0.0200287741731
    W122  W126  -0.042498430454
    W122  W127  0.0140485088792
    W122  W128  0.0633498965399
    W122  W129  0.0172813909071
    W122  W130  0.00960365052735
    W122  W131  0.0447621052159
    W122  W132  0.0291364564409
    W122  W133  -0.0280740329354
    W122  W134  0.0300946685754
    W122  W135  0.00319699960159
    W122  W136  0.022952106558
    W122  W137  -0.0120133989751
    W122  W138  -0.00182946148986
    W122  W139  0.0206815779542
    W122  W140  0.00705829162663
    W122  W141  0.0135834482775
    W122  W142  -0.0368167616284
    W122  W143  0.0805721600927
    W122  W144  0.00615224451608
    W122  W145  0.00310708754313
    W122  W146  -0.0393921517539
    W122  W147  0.0139527003922
    W122  W148  -0.0885698576149
    W122  W149  0.0216755371882
    W123  W123  0.285318020647
    W123  W124  0.197223121232
    W123  W125  -0.0815304524431
    W123  W126  0.0348744749696
    W123  W127  -0.0780729014894
    W123  W128  0.0607460367825
    W123  W129  -0.0698698417287
    W123  W130  0.042548718803
    W123  W131  -0.000470989866423
    W123  W132  0.0451499043317
    W123  W133  0.0543730593549
    W123  W134  0.0223706774257
    W123  W135  0.0720834184604
    W123  W136  0.0142671781517
    W123  W137  -0.00687229411939
    W123  W138  0.0306817073572
    W123  W139  -0.143804117658
    W123  W140  -0.0548814304845
    W123  W141  0.0131540827479
    W123  W142  0.0582137599859
    W123  W143  -0.00952506977522
    W123  W144  0.070909572911
    W123  W145  -0.0497119199351
    W123  W146  -0.103206827769
    W123  W147  0.00948444362954
    W123  W148  0.0296161068519
    W123  W149  -0.00238646756426
    W124  W124  0.482037372783
    W124  W125  -0.0403842941027
    W124  W126  0.0697482757491
    W124  W127  -0.0228009918474
    W124  W128  0.00522215568768
    W124  W129  -0.0445435335959
    W124  W130  -0.0245098078292
    W124  W131  -0.0550075100977
    W124  W132  0.0712630029671
    W124  W133  0.0823539450148
    W124  W134  -0.0542132951258
    W124  W135  0.0768357112454
    W124  W136  -0.0178650486904
    W124  W137  0.0280064169354
    W124  W138  0.0642612054075
    W124  W139  -0.250417631207
    W124  W140  0.0123639758276
    W124  W141  0.076262977848
    W124  W142  0.078907237436
    W124  W143  -0.131554807282
    W124  W144  0.0934101216501
    W124  W145  -0.0761926887041
    W124  W146  -0.142781112963
    W124  W147  0.0565124332211
    W124  W148  -0.0442788961689
    W124  W149  -0.0636894038458
    W125  W125  0.187879081416
    W125  W126  0.00206216444444
    W125  W127  0.124327882075
    W125  W128  0.0489392666007
    W125  W129  0.0954584305896
    W125  W130  -0.00799111511819
    W125  W131  -0.0210974753223
    W125  W132  0.0271059165957
    W125  W133  -0.0207801688968
    W125  W134  0.045335516828
    W125  W135  -0.00766096025852
    W125  W136  0.0796051837856
    W125  W137  0.0581232471345
    W125  W138  -0.0860637588638
    W125  W139  0.0609654537621
    W125  W140  0.0597612936274
    W125  W141  -0.0235342635421
    W125  W142  -0.00726914304737
    W125  W143  -0.0754410279928
    W125  W144  -0.0792527417893
    W125  W145  0.0298306681188
    W125  W146  0.0737863403684
    W125  W147  -0.00321094469
    W125  W148  0.0395645526879
    W125  W149  -0.0173603850959
    W126  W126  0.157920615504
    W126  W127  0.0590153430316
    W126  W128  -0.0633749664573
    W126  W129  -0.0183703717995
    W126  W130  -0.0077530707536
    W126  W131  -0.0793144420679
    W126  W132  0.0163032476459
    W126  W133  0.0364635660769
    W126  W134  -0.00273699041559
    W126  W135  -0.0154407162426
    W126  W136  0.0406768296954
    W126  W137  0.0979249514965
    W126  W138  -0.0381937302474
    W126  W139  -0.0485815206514
    W126  W140  0.019926474843
    W126  W141  -0.019590082505
    W126  W142  0.0890151619715
    W126  W143  -0.0922050806404
    W126  W144  0.00923306445986
    W126  W145  -0.0521799621028
    W126  W146  -0.0221234642033
    W126  W147  -0.0428172912078
    W126  W148  0.0505921481576
    W126  W149  -0.0205066193263
    W127  W127  0.244803192046
    W127  W128  -0.0460322619434
    W127  W129  0.0913154786896
    W127  W130  -0.0402276261541
    W127  W131  -0.0418402182577
    W127  W132  -0.0460907992598
    W127  W133  -0.0129856365273
    W127  W134  0.0927561009648
    W127  W135  -0.0553411623482
    W127  W136  0.101977349748
    W127  W137  0.0600668262192
    W127  W138  -0.141948363195
    W127  W139  0.0463615660068
    W127  W140  0.104854601849
    W127  W141  -0.0646165301459
    W127  W142  0.0734672003294
    W127  W143  -0.0614180783555
    W127  W144  -0.0771647454826
    W127  W145  0.0242434592953
    W127  W146  0.0560270978325
    W127  W147  -0.058133578793
    W127  W148  0.0219167220278
    W127  W149  -0.0182907268887
    W128  W128  0.339498194301
    W128  W129  0.0624701200992
    W128  W130  0.105624860713
    W128  W131  0.0407204457509
    W128  W132  0.102290208706
    W128  W133  0.015555906637
    W128  W134  0.10467804571
    W128  W135  0.0218437271373
    W128  W136  0.0776583054705
    W128  W137  -0.0084805100244
    W128  W138  0.0527596139238
    W128  W139  -0.000150268391715
    W128  W140  -0.0481685494772
    W128  W141  -0.0319222457208
    W128  W142  -0.0834264718342
    W128  W143  0.0310235049532
    W128  W144  0.0209062152239
    W128  W145  0.0135303749917
    W128  W146  0.0426772800631
    W128  W147  0.0765210343021
    W128  W148  0.0149289368826
    W128  W149  0.00464024772871
    W129  W129  0.255853854746
    W129  W130  -0.0140088741144
    W129  W131  0.0542259991637
    W129  W132  0.0365760331112
    W129  W133  0.0123681381224
    W129  W134  0.082594781211
    W129  W135  -0.0148796850183
    W129  W136  0.138664031028
    W129  W137  0.034576572332
    W129  W138  0.0107852705213
    W129  W139  0.0773826464192
    W129  W140  0.0513342141424
    W129  W141  0.00253739004058
    W129  W142  -0.0210446437334
    W129  W143  -0.0371580019922
    W129  W144  -0.0101027954554
    W129  W145  -0.0609443402032
    W129  W146  0.146800558549
    W129  W147  0.0348480739555
    W129  W148  -0.00546872449175
    W129  W149  -0.0887644623909
    W130  W130  0.185085283816
    W130  W131  0.0208624925218
    W130  W132  0.0322112026834
    W130  W133  -0.0180464650108
    W130  W134  0.0603720734747
    W130  W135  -0.0547383509838
    W130  W136  -0.0470114855442
    W130  W137  0.0273954077316
    W130  W138  0.0437758180506
    W130  W139  -0.00532814633419
    W130  W140  -0.0978668725602
    W130  W141  -0.049880790959
    W130  W142  -0.0282237965878
    W130  W143  0.0118913403066
    W130  W144  0.056496261213
    W130  W145  0.049881772139
    W130  W146  0.017991646045
    W130  W147  0.00682966949924
    W130  W148  0.0347969681365
    W130  W149  -0.0247741928769
    W131  W131  0.150846320091
    W131  W132  -0.00196528396386
    W131  W133  -0.0361948964919
    W131  W134  0.0219864431201
    W131  W135  0.0211427115887
    W131  W136  -0.0129241481186
    W131  W137  -0.0584962535641
    W131  W138  0.0390952399094
    W131  W139  0.0375254793463
    W131  W140  -0.03691759489
    W131  W141  0.04216503329
    W131  W142  -0.0454019754742
    W131  W143  0.0985280221861
    W131  W144  0.0227789169402
    W131  W145  0.00398671498296
    W131  W146  0.0120515378562
    W131  W147  0.0232472435005
    W131  W148  -0.0542123861706
    W131  W149  -0.0212064650968
    W132  W132  0.198935278421
    W132  W133  0.00431095658723
    W132  W134  -0.0223376405629
    W132  W135  0.0518860733035
    W132  W136  0.0163903346589
    W132  W137  0.12510488751
    W132  W138  0.0834256224
    W132  W139  -0.0631110492958
    W132  W140  -0.0448959143549
    W132  W141  0.0653132494923
    W132  W142  -0.0173930374614
    W132  W143  -0.0397632756457
    W132  W144  -0.0310062372406
    W132  W145  -0.0868730387267
    W132  W146  -0.035795769467
    W132  W147  0.0822871684281
    W132  W148  0.0314578830712
    W132  W149  -0.0730168914634
    W133  W133  0.193589138633
    W133  W134  -0.0276672966554
    W133  W135  0.0389401414203
    W133  W136  0.064277964768
    W133  W137  -0.00800514260848
    W133  W138  -0.0294137698
    W133  W139  -0.0568532241876
    W133  W140  0.0599611350061
    W133  W141  -0.00341940826427
    W133  W142  0.0117910871949
    W133  W143  -0.0519704429766
    W133  W144  0.0507356367875
    W133  W145  -0.0298371937191
    W133  W146  -0.000167441546824
    W133  W147  -0.00435433917368
    W133  W148  -0.00209893576318
    W133  W149  0.00409558829162
    W134  W134  0.309339778326
    W134  W135  -0.0731383915107
    W134  W136  0.11467499441
    W134  W137  -0.00368746838544
    W134  W138  -0.0311249308117
    W134  W139  0.0543657348412
    W134  W140  -0.0180747563876
    W134  W141  -0.133620737316
    W134  W142  0.0379225595211
    W134  W143  0.0513042713208
    W134  W144  -0.0506822062964
    W134  W145  0.0146708899884
    W134  W146  0.0822406787206
    W134  W147  -0.0139997830199
    W134  W148  0.0766531615798
    W134  W149  0.00201347037948
    W135  W135  0.166149674213
    W135  W136  0.044621452498
    W135  W137  -0.0213262837665
    W135  W138  -0.0271431761076
    W135  W139  -0.0512461750952
    W135  W140  0.0276965290187
    W135  W141  0.0953113218514
    W135  W142  -0.000508435881049
    W135  W143  -0.00381490572301
    W135  W144  -0.0127001877706
    W135  W145  -0.0454630077671
    W135  W146  -0.0612396347711
    W135  W147  0.0211929864017
    W135  W148  0.000297552438351
    W135  W149  0.0181382041281
    W136  W136  0.33926491287
    W136  W137  0.0291466992714
    W136  W138  -0.116318674115
    W136  W139  0.0887319124191
    W136  W140  0.0878420829131
    W136  W141  -0.0670287653689
    W136  W142  0.0405708187585
    W136  W143  -0.0416623222432
    W136  W144  -0.00690547975589
    W136  W145  -0.111656744883
    W136  W146  0.0719965291021
    W136  W147  -0.0619663649359
    W136  W148  0.0395988203759
    W136  W149  0.0487254039484
    W137  W137  0.279667023464
    W137  W138  -0.0128140407498
    W137  W139  -0.0185155519659
    W137  W140  -0.0201594656255
    W137  W141  -0.00375649164293
    W137  W142  0.0602590705168
    W137  W143  -0.109852583033
    W137  W144  -0.048721652597
    W137  W145  -0.078633937664
    W137  W146  -0.0114050233278
    W137  W147  -0.0146021088527
    W137  W148  0.08642535351
    W137  W149  -0.0802581357753
    W138  W138  0.321698320035
    W138  W139  -0.0740204847562
    W138  W140  -0.120727688758
    W138  W141  0.100991378824
    W138  W142  -0.074289272774
    W138  W143  0.0383378122702
    W138  W144  0.0885904044914
    W138  W145  -0.0564210486689
    W138  W146  0.014561293241
    W138  W147  0.163869502803
    W138  W148  -0.0802634820388
    W138  W149  -0.076552483469
    W139  W139  0.304357892091
    W139  W140  0.00298377629696
    W139  W141  -0.078026673631
    W139  W142  -0.0478292433854
    W139  W143  0.0434458494146
    W139  W144  -0.0342249911428
    W139  W145  0.00454210015919
    W139  W146  0.115711316909
    W139  W147  -0.0819195087848
    W139  W148  0.0227987399075
    W139  W149  0.0657314835792
    W140  W140  0.233391812974
    W140  W141  -0.000289380025805
    W140  W142  0.0195316349532
    W140  W143  -0.0324079355549
    W140  W144  -0.0441999962331
    W140  W145  0.0119790782541
    W140  W146  0.0181925621221
    W140  W147  -0.022784262744
    W140  W148  -0.0383031556344
    W140  W149  0.0202881572569
    W141  W141  0.210943471849
    W141  W142  -0.0327996875674
    W141  W143  0.00919872872255
    W141  W144  0.033888017274
    W141  W145  -0.0390007654772
    W141  W146  -0.0556276747736
    W141  W147  0.092101323345
    W141  W148  -0.100728043024
    W141  W149  -0.0519030360885
    W142  W142  0.174341438389
    W142  W143  -0.0516981530117
    W142  W144  -0.0342519407476
    W142  W145  -0.0418231568571
    W142  W146  -0.0414288830055
    W142  W147  -0.0618981845398
    W142  W148  0.0715239140767
    W142  W149  -0.017093038128
    W143  W143  0.301815778298
    W143  W144  -0.0146249452051
    W143  W145  0.044642491091
    W143  W146  -0.032151949298
    W143  W147  0.0250080523408
    W143  W148  -0.0835816490925
    W143  W149  0.0525357494185
    W144  W144  0.281933433321
    W144  W145  -0.0386050781534
    W144  W146  -0.029423908907
    W144  W147  -0.0134328082447
    W144  W148  -0.143329393909
    W144  W149  0.0149344858814
    W145  W145  0.212229432151
    W145  W146  0.0255106669039
    W145  W147  0.00431137390514
    W145  W148  0.00297793468857
    W145  W149  0.0246018914777
    W146  W146  0.271264480228
    W146  W147  0.0229376990825
    W146  W148  0.0653472169837
    W146  W149  -0.0347551109102
    W147  W147  0.210830073855
    W147  W148  -0.0419376157312
    W147  W149  -0.0670119270918
    W148  W148  0.312899470522
    W148  W149  -0.0224868636059
    W149  W149  0.223982278566
ENDATA
