NAME          QRTO0
ROWS
 N  COST
 E  G0_0
 E  G0_1
 E  G0_2
 E  G0_3
 E  G0_4
 E  G0_5
 E  G1_0
 E  G1_1
 E  G1_2
 E  G1_3
 E  G1_4
 E  G1_5
 E  G2_0
 E  G2_1
 E  G2_2
 E  G2_3
 E  G2_4
 E  G2_5
 E  G3_0
 E  G3_1
 E  G3_2
 E  G3_3
 E  G3_4
 E  G3_5
 E  G4_0
 E  G4_1
 E  G4_2
 E  G4_3
 E  G4_4
 E  G4_5
 E  G5_0
 E  G5_1
 E  G5_2
 E  G5_3
 E  G5_4
 E  G5_5
 E  G6_0
 E  G6_1
 E  G6_2
 E  G6_3
 E  G6_4
 E  G6_5
 E  G7_0
 E  G7_1
 E  G7_2
 E  G7_3
 E  G7_4
 E  G7_5
 E  G8_0
 E  G8_1
 E  G8_2
 E  G8_3
 E  G8_4
 E  G8_5
 E  G9_0
 E  G9_1
 E  G9_2
 E  G9_3
 E  G9_4
 E  G9_5
 E  G10_0
 E  G10_1
 E  G10_2
 E  G10_3
 E  G10_4
 E  G10_5
 E  G11_0
 E  G11_1
 E  G11_2
 E  G11_3
 E  G11_4
 E  G11_5
 E  G12_0
 E  G12_1
 E  G12_2
 E  G12_3
 E  G12_4
 E  G12_5
 E  G13_0
 E  G13_1
 E  G13_2
 E  G13_3
 E  G13_4
 E  G13_5
 E  UTIL0
 L  UCAP0
 E  UTIL1
 L  UCAP1
 E  UTIL2
 L  UCAP2
COLUMNS
    X0_0  COST  -1.15619199767
    X0_0  G0_0  0.422671771471
    X0_0  G0_1  -0.593443772801
    X0_0  G0_2  0.501614975547
    X0_0  G0_3  0.168643003843
    X0_0  G0_4  0.0824747034308
    X0_0  G0_5  -0.107839427977
    X0_0  UTIL0  -0.0547502377554
    X0_0  UTIL2  -0.297939031303
    X0_1  COST  1.09947931388
    X0_1  G0_0  0.314470114354
    X0_1  G0_1  1.18463261723
    X0_1  G0_2  1.52527056352
    X0_1  G0_3  -0.851129221356
    X0_1  G0_4  0.308095549197
    X0_1  G0_5  -1.49405592843
    X0_1  UTIL2  -0.226217106072
    X0_2  COST  0.302696948412
    X0_2  G0_0  1.26418382526
    X0_2  G0_1  -0.129034881525
    X0_2  G0_2  -1.16518129843
    X0_2  G0_3  1.30364735698
    X0_2  G0_4  -1.04162149102
    X0_2  G0_5  1.11449593677
    X0_2  UTIL2  -0.414722510201
    X0_3  COST  -0.61824249321
    X0_3  G0_0  -0.0338663015629
    X0_3  G0_1  0.550778507558
    X0_3  G0_2  0.296400444674
    X0_3  G0_3  -1.23438714967
    X0_3  G0_4  0.403641565388
    X0_3  G0_5  -0.401045705721
    X0_3  UTIL0  -0.47027980616
    X0_3  UTIL2  -0.440087635035
    X0_4  COST  -0.0152132945954
    X0_4  G0_0  -1.16788006979
    X0_4  G0_1  -0.6160211694
    X0_4  G0_2  -0.140088698879
    X0_4  G0_3  0.36851091561
    X0_4  G0_4  -0.671561552858
    X0_4  G0_5  0.264184199536
    X0_4  UTIL0  -0.409895681201
    X0_4  UTIL1  -0.381266521777
    X0_5  COST  -0.403146805174
    X0_5  G0_0  -0.54438812034
    X0_5  G0_1  0.348269468653
    X0_5  G0_2  0.998462562028
    X0_5  G0_3  2.37390314628
    X0_5  G0_4  0.771306034129
    X0_5  G0_5  0.873304348307
    X0_5  UTIL0  -0.453066433533
    X0_5  UTIL2  -0.370434876766
    X0_6  COST  -0.793966256268
    X0_6  G0_0  -0.606562353195
    X0_6  G0_1  -0.62422984223
    X0_6  G0_2  0.0828280949061
    X0_6  G0_3  0.659729585272
    X0_6  G0_4  -1.08403203877
    X0_6  G0_5  1.23359250515
    X0_6  UTIL1  -0.129426192023
    X0_6  UTIL2  -0.477777697536
    X0_7  COST  -0.114057225657
    X0_7  G0_0  -0.659832227029
    X0_7  G0_1  1.36844373368
    X0_7  G0_2  -0.411022021166
    X0_7  G0_3  -0.0823504078043
    X0_7  G0_4  0.83886205901
    X0_7  G0_5  -0.423670379779
    X0_7  UTIL2  -0.32898784063
    Y0_0  COST  -1.85450864305
    Y0_0  G0_0  1
    Y0_1  G0_1  1
    Y0_2  COST  -0.230868373149
    Y0_2  G0_2  1
    Y0_3  G0_3  1
    Y0_4  COST  -0.186967823254
    Y0_4  G0_4  1
    Y0_5  G0_5  1
    X1_0  COST  0.242100458208
    X1_0  G1_0  -0.900129027222
    X1_0  G1_1  0.437603681613
    X1_0  G1_2  -0.228971983754
    X1_0  G1_3  0.921979211423
    X1_0  G1_4  0.71784913789
    X1_0  G1_5  0.785428532611
    X1_0  UTIL0  -0.453682950239
    X1_1  COST  -1.03737833733
    X1_1  G1_0  -0.86605788642
    X1_1  G1_1  -0.765046448319
    X1_1  G1_2  0.641582394154
    X1_1  G1_3  -0.297049649248
    X1_1  G1_4  -0.39421415856
    X1_1  G1_5  -0.53813931016
    X1_1  UTIL1  -0.569973319608
    X1_1  UTIL2  -0.551162769645
    X1_2  COST  -1.03833402457
    X1_2  G1_0  -0.146157958845
    X1_2  G1_1  -0.896741581396
    X1_2  G1_2  -0.418849765911
    X1_2  G1_3  0.926430961496
    X1_2  G1_4  0.396970635421
    X1_2  G1_5  -1.13774314193
    X1_2  UTIL0  -0.173407023807
    X1_2  UTIL2  -0.562515269947
    X1_3  COST  -0.737174641633
    X1_3  G1_0  0.10610411573
    X1_3  G1_1  1.30873634807
    X1_3  G1_2  1.60176339562
    X1_3  G1_3  -1.28018575931
    X1_3  G1_4  0.0616743221851
    X1_3  G1_5  1.69861146816
    X1_3  UTIL1  -0.142226235483
    X1_4  COST  0.377595511088
    X1_4  G1_0  0.579150909157
    X1_4  G1_1  0.255543202496
    X1_4  G1_2  -0.909093428984
    X1_4  G1_3  -1.59979766753
    X1_4  G1_4  0.116214631897
    X1_4  G1_5  -0.355676539005
    X1_5  COST  -0.519346246066
    X1_5  G1_0  2.10819275312
    X1_5  G1_1  1.63586332287
    X1_5  G1_2  0.617441025223
    X1_5  G1_3  -0.458469265494
    X1_5  G1_4  0.266320725013
    X1_5  G1_5  -0.109977794478
    X1_5  UTIL0  -0.435689502086
    X1_5  UTIL1  -0.143830963568
    X1_5  UTIL2  -0.168878598639
    X1_6  COST  -0.877820372558
    X1_6  G1_0  -0.232118595249
    X1_6  G1_1  -0.854595582343
    X1_6  G1_2  0.297348857639
    X1_6  G1_3  -2.2408330589
    X1_6  G1_4  -0.422561029426
    X1_6  G1_5  0.218343169588
    X1_7  COST  0.977457380096
    X1_7  G1_0  -1.04621588149
    X1_7  G1_1  -1.58436974579
    X1_7  G1_2  -0.194840312317
    X1_7  G1_3  -1.69465506249
    X1_7  G1_4  -0.434697101018
    X1_7  G1_5  -0.778735697328
    X1_7  UTIL1  -0.552845424966
    X1_7  UTIL2  -0.389581214762
    Y1_0  COST  0.508759562967
    Y1_0  G1_0  1
    Y1_1  G1_1  1
    Y1_2  COST  1.51989960918
    Y1_2  G1_2  1
    Y1_3  COST  -1.20276290977
    Y1_3  G1_3  1
    Y1_4  COST  4.50151640425
    Y1_4  G1_4  1
    Y1_5  COST  2.35507234025
    Y1_5  G1_5  1
    X2_0  COST  0.041790625576
    X2_0  G2_0  0.41114537133
    X2_0  G2_1  0.364651084119
    X2_0  G2_2  -0.474796402503
    X2_0  G2_3  1.51575270801
    X2_0  G2_4  -0.267960646669
    X2_0  G2_5  0.0646235687404
    X2_0  UTIL1  -0.354369123475
    X2_1  COST  -0.697944786111
    X2_1  G2_0  -0.503523311145
    X2_1  G2_1  1.89536210508
    X2_1  G2_2  -0.0330223985815
    X2_1  G2_3  0.246951349788
    X2_1  G2_4  0.287821181792
    X2_1  G2_5  0.322002052576
    X2_1  UTIL0  -0.542699982635
    X2_1  UTIL2  -0.347108993642
    X2_2  COST  1.1778430251
    X2_2  G2_0  0.654502859569
    X2_2  G2_1  0.437865465339
    X2_2  G2_2  0.116124502372
    X2_2  G2_3  1.22929579446
    X2_2  G2_4  0.761211500347
    X2_2  G2_5  -0.622177023365
    X2_2  UTIL1  -0.544539364329
    X2_2  UTIL2  -0.514645232592
    X2_3  COST  -0.483744345654
    X2_3  G2_0  0.408913848092
    X2_3  G2_1  -1.73030449395
    X2_3  G2_2  2.84479648082
    X2_3  G2_3  2.62629502012
    X2_3  G2_4  0.907194386879
    X2_3  G2_5  -0.1811094129
    X2_3  UTIL1  -0.106771363262
    X2_3  UTIL2  -0.392983179241
    X2_4  COST  -0.919304975842
    X2_4  G2_0  0.572432735887
    X2_4  G2_1  -0.347029589894
    X2_4  G2_2  -2.45753997218
    X2_4  G2_3  0.552970313739
    X2_4  G2_4  -0.327210452039
    X2_4  G2_5  -0.255147830582
    X2_4  UTIL0  -0.50895607081
    X2_4  UTIL2  -0.320380397897
    X2_5  COST  1.0622237955
    X2_5  G2_0  -0.476179215626
    X2_5  G2_1  -0.577656278303
    X2_5  G2_2  -0.0303666827878
    X2_5  G2_3  1.1358624493
    X2_5  G2_4  -0.247970609334
    X2_5  G2_5  -0.413192120336
    X2_5  UTIL0  -0.462808112903
    X2_5  UTIL1  -0.421568884593
    X2_6  COST  -1.14910613979
    X2_6  G2_0  0.223994816181
    X2_6  G2_1  -1.00566250824
    X2_6  G2_2  -0.776394310844
    X2_6  G2_3  -0.444234151602
    X2_6  G2_4  -0.0332196155594
    X2_6  G2_5  -0.425140164981
    X2_6  UTIL1  -0.559291400593
    X2_7  COST  -0.722075279563
    X2_7  G2_0  0.0349560590049
    X2_7  G2_1  -2.04719167691
    X2_7  G2_2  -1.03836407789
    X2_7  G2_3  0.109060039431
    X2_7  G2_4  0.33876141464
    X2_7  G2_5  -0.848628685427
    X2_7  UTIL1  -0.0726579063071
    X2_7  UTIL2  -0.43857959939
    Y2_0  COST  2.50191773469
    Y2_0  G2_0  1
    Y2_1  G2_1  1
    Y2_2  G2_2  1
    Y2_3  G2_3  1
    Y2_4  COST  1.62816427943
    Y2_4  G2_4  1
    Y2_5  COST  -1.17309397013
    Y2_5  G2_5  1
    X3_0  COST  1.14366573249
    X3_0  G3_0  0.544917965889
    X3_0  G3_1  -1.96848202237
    X3_0  G3_2  1.32357086866
    X3_0  G3_3  1.63046008101
    X3_0  G3_4  -0.19092376418
    X3_0  G3_5  0.139596557307
    X3_0  UTIL1  -0.172386746363
    X3_1  COST  0.487804578176
    X3_1  G3_0  -0.769241373346
    X3_1  G3_1  -0.942737905499
    X3_1  G3_2  -1.64606826023
    X3_1  G3_3  0.482458394
    X3_1  G3_4  0.812262018423
    X3_1  G3_5  -0.654733736668
    X3_1  UTIL0  -0.470268841094
    X3_1  UTIL1  -0.35289272822
    X3_1  UTIL2  -0.532803173438
    X3_2  COST  -0.912870517767
    X3_2  G3_0  -0.0969697344091
    X3_2  G3_1  -0.310067750375
    X3_2  G3_2  1.50921640003
    X3_2  G3_3  0.436645297513
    X3_2  G3_4  -0.0184426048501
    X3_2  G3_5  -1.0605648119
    X3_2  UTIL0  -0.230946236575
    X3_3  COST  0.533468687834
    X3_3  G3_0  0.813259657465
    X3_3  G3_1  -0.352572379214
    X3_3  G3_2  0.915893249459
    X3_3  G3_3  1.28883846374
    X3_3  G3_4  -3.01356574566
    X3_3  G3_5  0.467909548383
    X3_3  UTIL0  -0.335356082307
    X3_4  COST  1.18430250503
    X3_4  G3_0  -0.295357283943
    X3_4  G3_1  -0.265414386253
    X3_4  G3_2  -0.14826979722
    X3_4  G3_3  -2.01945783984
    X3_4  G3_4  -0.0377047483608
    X3_4  G3_5  -1.17959791022
    X3_4  UTIL1  -0.531279774528
    X3_5  COST  -0.302448284727
    X3_5  G3_0  0.317650169372
    X3_5  G3_1  -0.81122777915
    X3_5  G3_2  0.866650149574
    X3_5  G3_3  -0.124584580956
    X3_5  G3_4  1.03149961884
    X3_5  G3_5  0.716235920755
    X3_5  UTIL2  -0.2597982806
    X3_6  COST  0.58739399615
    X3_6  G3_0  1.9439114073
    X3_6  G3_1  1.08997026434
    X3_6  G3_2  0.466006368101
    X3_6  G3_3  -0.463761672114
    X3_6  G3_4  0.216016057378
    X3_6  G3_5  0.168331649321
    X3_6  UTIL0  -0.362987873807
    X3_6  UTIL2  -0.423556031195
    X3_7  COST  0.165287122383
    X3_7  G3_0  -0.137554213763
    X3_7  G3_1  -0.659892800088
    X3_7  G3_2  -0.350224634749
    X3_7  G3_3  0.124223432239
    X3_7  G3_4  -0.0453018599391
    X3_7  G3_5  1.8501739384
    X3_7  UTIL0  -0.16576347332
    X3_7  UTIL2  -0.55759320148
    Y3_0  COST  -3.9074645866
    Y3_0  G3_0  1
    Y3_1  G3_1  1
    Y3_2  COST  -1.27834800781
    Y3_2  G3_2  1
    Y3_3  G3_3  1
    Y3_4  G3_4  1
    Y3_5  COST  3.14259886348
    Y3_5  G3_5  1
    X4_0  COST  0.885790066151
    X4_0  G4_0  2.23141361315
    X4_0  G4_1  -0.22074792772
    X4_0  G4_2  -0.704334203671
    X4_0  G4_3  -0.313555509668
    X4_0  G4_4  1.0087466283
    X4_0  G4_5  -1.31667485082
    X4_0  UTIL1  -0.551732619935
    X4_1  COST  0.991449111153
    X4_1  G4_0  0.779545593771
    X4_1  G4_1  -0.24311884686
    X4_1  G4_2  0.74671385665
    X4_1  G4_3  1.60721502415
    X4_1  G4_4  -0.366412055089
    X4_1  G4_5  0.501668106289
    X4_1  UTIL1  -0.16214663626
    X4_1  UTIL2  -0.123877384716
    X4_2  COST  0.0634072847832
    X4_2  G4_0  -0.19566897986
    X4_2  G4_1  0.479930893095
    X4_2  G4_2  -0.553353658434
    X4_2  G4_3  -0.359130348051
    X4_2  G4_4  -0.282724643751
    X4_2  G4_5  0.58463900845
    X4_2  UTIL0  -0.273542949222
    X4_2  UTIL1  -0.150589294212
    X4_2  UTIL2  -0.0541709222912
    X4_3  COST  1.08690133784
    X4_3  G4_0  0.3168509459
    X4_3  G4_1  1.29366510682
    X4_3  G4_2  -0.969852634232
    X4_3  G4_3  0.0469537392645
    X4_3  G4_4  1.25380244657
    X4_3  G4_5  -1.04640306452
    X4_3  UTIL0  -0.287022481303
    X4_4  COST  -0.161394900749
    X4_4  G4_0  0.104260284009
    X4_4  G4_1  -0.359133718999
    X4_4  G4_2  1.04723279377
    X4_4  G4_3  0.0813952608357
    X4_4  G4_4  -0.345484034093
    X4_4  G4_5  -0.822631164661
    X4_4  UTIL0  -0.195637904481
    X4_5  COST  -0.333010964995
    X4_5  G4_0  -0.270893673726
    X4_5  G4_1  1.79821616783
    X4_5  G4_2  2.16615841252
    X4_5  G4_3  0.633049137959
    X4_5  G4_4  1.51588706322
    X4_5  G4_5  1.23878824947
    X4_5  UTIL1  -0.561422792899
    X4_6  COST  -0.231684681621
    X4_6  G4_0  -0.798215326366
    X4_6  G4_1  0.782545995271
    X4_6  G4_2  1.96818303311
    X4_6  G4_3  -0.00123929994479
    X4_6  G4_4  0.838429779063
    X4_6  G4_5  0.390029869479
    X4_6  UTIL2  -0.325492668756
    X4_7  COST  1.14253206887
    X4_7  G4_0  -0.341534827518
    X4_7  G4_1  -0.328123856562
    X4_7  G4_2  0.531476370203
    X4_7  G4_3  -0.697483791079
    X4_7  G4_4  1.21476638012
    X4_7  G4_5  -0.665587688025
    X4_7  UTIL0  -0.298973065137
    X4_7  UTIL2  -0.519282916624
    Y4_0  COST  2.75597443662
    Y4_0  G4_0  1
    Y4_1  COST  1.75629633305
    Y4_1  G4_1  1
    Y4_2  G4_2  1
    Y4_3  G4_3  1
    Y4_4  G4_4  1
    Y4_5  COST  -4.88792325579
    Y4_5  G4_5  1
    X5_0  COST  0.205944298112
    X5_0  G5_0  -0.417426784152
    X5_0  G5_1  0.840657535045
    X5_0  G5_2  -1.98499850368
    X5_0  G5_3  1.7381515692
    X5_0  G5_4  -0.030091406325
    X5_0  G5_5  0.808036288904
    X5_0  UTIL0  -0.194959778304
    X5_1  COST  0.989998342307
    X5_1  G5_0  -0.763105908745
    X5_1  G5_1  0.571008901033
    X5_1  G5_2  -0.42008989632
    X5_1  G5_3  -0.357876585327
    X5_1  G5_4  0.407105529488
    X5_1  G5_5  -1.41245815195
    X5_1  UTIL0  -0.478165919946
    X5_1  UTIL1  -0.316259012172
    X5_2  COST  0.12849940226
    X5_2  G5_0  0.372321501375
    X5_2  G5_1  1.46217425447
    X5_2  G5_2  -0.547370336956
    X5_2  G5_3  0.705300744085
    X5_2  G5_4  0.947236381591
    X5_2  G5_5  0.613847220415
    X5_2  UTIL0  -0.259192964617
    X5_2  UTIL2  -0.22696021901
    X5_3  COST  1.0394029623
    X5_3  G5_0  0.63327976149
    X5_3  G5_1  0.396875886656
    X5_3  G5_2  -0.738357256331
    X5_3  G5_3  -0.290222836442
    X5_3  G5_4  0.640470298448
    X5_3  G5_5  -0.797521096866
    X5_3  UTIL0  -0.266193630685
    X5_3  UTIL1  -0.213844780661
    X5_3  UTIL2  -0.133791535011
    X5_4  COST  0.67115620071
    X5_4  G5_0  -0.349845843185
    X5_4  G5_1  -0.695319384329
    X5_4  G5_2  0.0101207270643
    X5_4  G5_3  0.770340921947
    X5_4  G5_4  -1.01052978725
    X5_4  G5_5  -0.202707367515
    X5_4  UTIL0  -0.160320012956
    X5_5  COST  -0.141365624894
    X5_5  G5_0  -1.48918161221
    X5_5  G5_1  0.758459303501
    X5_5  G5_2  0.861905256928
    X5_5  G5_3  -0.883121531639
    X5_5  G5_4  0.299620045389
    X5_5  G5_5  -0.538187679868
    X5_5  UTIL1  -0.0546297313769
    X5_5  UTIL2  -0.238619863648
    X5_6  COST  1.13314715162
    X5_6  G5_0  -0.52991737104
    X5_6  G5_1  0.498086926311
    X5_6  G5_2  0.414742453071
    X5_6  G5_3  0.952232444558
    X5_6  G5_4  0.0617434978333
    X5_6  G5_5  0.637333802564
    X5_6  UTIL2  -0.2797463946
    X5_7  COST  -0.869114843157
    X5_7  G5_0  -0.0761751514461
    X5_7  G5_1  -0.524195728458
    X5_7  G5_2  -0.505053314509
    X5_7  G5_3  0.625373246382
    X5_7  G5_4  -0.688255377105
    X5_7  G5_5  -0.153567069755
    X5_7  UTIL0  -0.055388840297
    X5_7  UTIL1  -0.402826566727
    X5_7  UTIL2  -0.110294704931
    Y5_0  COST  -1.06737707447
    Y5_0  G5_0  1
    Y5_1  COST  2.75517278699
    Y5_1  G5_1  1
    Y5_2  COST  -4.8539528435
    Y5_2  G5_2  1
    Y5_3  COST  -0.295712590961
    Y5_3  G5_3  1
    Y5_4  COST  -1.77888255675
    Y5_4  G5_4  1
    Y5_5  G5_5  1
    X6_0  COST  -0.534520942531
    X6_0  G6_0  0.265949735334
    X6_0  G6_1  0.678611438846
    X6_0  G6_2  0.749389842576
    X6_0  G6_3  0.261725899114
    X6_0  G6_4  0.567651527309
    X6_0  G6_5  -0.870962613078
    X6_0  UTIL1  -0.240135705239
    X6_1  COST  1.07052634589
    X6_1  G6_0  0.334472966029
    X6_1  G6_1  -1.11893758843
    X6_1  G6_2  0.298990178661
    X6_1  G6_3  -0.148272836386
    X6_1  G6_4  -0.219782623285
    X6_1  G6_5  -0.504895739919
    X6_1  UTIL0  -0.180238811154
    X6_1  UTIL1  -0.18196977256
    X6_2  COST  -0.714568735127
    X6_2  G6_0  0.614731816028
    X6_2  G6_1  0.765618791626
    X6_2  G6_2  -0.208063910185
    X6_2  G6_3  -1.43178788863
    X6_2  G6_4  -0.185549260894
    X6_2  G6_5  0.183737090707
    X6_2  UTIL1  -0.109624354151
    X6_2  UTIL2  -0.0913346477493
    X6_3  COST  0.23729158014
    X6_3  G6_0  1.192683621
    X6_3  G6_1  0.921884900564
    X6_3  G6_2  -2.20813170271
    X6_3  G6_3  1.73331015396
    X6_3  G6_4  0.124929629998
    X6_3  G6_5  0.299594841358
    X6_3  UTIL0  -0.359280898432
    X6_4  COST  -0.439361924924
    X6_4  G6_0  0.189129369255
    X6_4  G6_1  -0.180583119269
    X6_4  G6_2  -0.653013696547
    X6_4  G6_3  0.941183394117
    X6_4  G6_4  -0.429615771779
    X6_4  G6_5  -0.934873462467
    X6_4  UTIL0  -0.251414065412
    X6_4  UTIL1  -0.206788063327
    X6_5  COST  0.775100747928
    X6_5  G6_0  -0.210214090497
    X6_5  G6_1  -0.526163346517
    X6_5  G6_2  0.155466664075
    X6_5  G6_3  -0.357282081515
    X6_5  G6_4  0.128301747256
    X6_5  G6_5  1.49538875544
    X6_6  COST  -0.216729365616
    X6_6  G6_0  -0.506927433008
    X6_6  G6_1  -0.092138076079
    X6_6  G6_2  0.638245661056
    X6_6  G6_3  0.486114959983
    X6_6  G6_4  0.347681634662
    X6_6  G6_5  -0.832092163908
    X6_6  UTIL1  -0.315220258171
    X6_6  UTIL2  -0.358588950849
    X6_7  COST  -0.0764642564648
    X6_7  G6_0  0.578951378289
    X6_7  G6_1  -0.461409682938
    X6_7  G6_2  0.351557566858
    X6_7  G6_3  0.425815112195
    X6_7  G6_4  -0.235081746777
    X6_7  G6_5  -0.221187155439
    X6_7  UTIL0  -0.132941310251
    X6_7  UTIL1  -0.303067037864
    X6_7  UTIL2  -0.138258186816
    Y6_0  COST  -0.633184993683
    Y6_0  G6_0  1
    Y6_1  COST  -1.05600438951
    Y6_1  G6_1  1
    Y6_2  G6_2  1
    Y6_3  COST  -1.21321683657
    Y6_3  G6_3  1
    Y6_4  COST  -0.171366085359
    Y6_4  G6_4  1
    Y6_5  COST  -2.6829522401
    Y6_5  G6_5  1
    X7_0  COST  0.262643723438
    X7_0  G7_0  0.256983569585
    X7_0  G7_1  0.875403266592
    X7_0  G7_2  -1.61157973778
    X7_0  G7_3  -1.49939630328
    X7_0  G7_4  0.0969131950548
    X7_0  G7_5  2.26130163834
    X7_0  UTIL0  -0.359165606224
    X7_0  UTIL1  -0.528571784041
    X7_0  UTIL2  -0.559275687308
    X7_1  COST  0.541146848117
    X7_1  G7_0  -0.00753805731552
    X7_1  G7_1  -0.291647077446
    X7_1  G7_2  0.123226270837
    X7_1  G7_3  1.41606071672
    X7_1  G7_4  -1.08182060546
    X7_1  G7_5  -0.999430432671
    X7_1  UTIL2  -0.594279391497
    X7_2  COST  -1.02631448191
    X7_2  G7_0  1.35372424848
    X7_2  G7_1  -0.106397689472
    X7_2  G7_2  -0.157790708093
    X7_2  G7_3  -0.242276135583
    X7_2  G7_4  0.405218687231
    X7_2  G7_5  1.16985280623
    X7_2  UTIL0  -0.356847291743
    X7_2  UTIL1  -0.307690793495
    X7_3  COST  0.305674247952
    X7_3  G7_0  -0.0629501183067
    X7_3  G7_1  0.767903346608
    X7_3  G7_2  0.145048504387
    X7_3  G7_3  0.917373393652
    X7_3  G7_4  0.22444458695
    X7_3  G7_5  -1.12915124676
    X7_3  UTIL0  -0.274134200856
    X7_3  UTIL1  -0.338579154889
    X7_3  UTIL2  -0.574402525573
    X7_4  COST  -0.276941647367
    X7_4  G7_0  -2.23367099141
    X7_4  G7_1  -0.935402101712
    X7_4  G7_2  -1.38876015405
    X7_4  G7_3  -0.0183721964193
    X7_4  G7_4  0.175929297151
    X7_4  G7_5  -0.249033942501
    X7_4  UTIL0  -0.20833502927
    X7_4  UTIL2  -0.51565985346
    X7_5  COST  -0.598463438677
    X7_5  G7_0  -0.590303181683
    X7_5  G7_1  -0.946322375891
    X7_5  G7_2  -0.148900539518
    X7_5  G7_3  -0.0627171283185
    X7_5  G7_4  -0.0751833982065
    X7_5  G7_5  0.8309517862
    X7_5  UTIL0  -0.292332979242
    X7_5  UTIL1  -0.533833891599
    X7_6  COST  -0.123035794876
    X7_6  G7_0  -0.687924036614
    X7_6  G7_1  -0.624863178423
    X7_6  G7_2  -0.0299073262444
    X7_6  G7_3  0.0225554014954
    X7_6  G7_4  0.112966314966
    X7_6  G7_5  0.0633642966227
    X7_6  UTIL0  -0.11661256605
    X7_6  UTIL1  -0.499304115274
    X7_6  UTIL2  -0.249293026242
    X7_7  COST  0.144662273492
    X7_7  G7_0  -0.133585697575
    X7_7  G7_1  -0.278312316104
    X7_7  G7_2  -0.0925376808498
    X7_7  G7_3  0.851255917686
    X7_7  G7_4  -0.295852857395
    X7_7  G7_5  -0.661241668198
    X7_7  UTIL0  -0.247973824817
    Y7_0  COST  2.65493836509
    Y7_0  G7_0  1
    Y7_1  COST  -5.27901411011
    Y7_1  G7_1  1
    Y7_2  G7_2  1
    Y7_3  G7_3  1
    Y7_4  COST  2.85474485524
    Y7_4  G7_4  1
    Y7_5  G7_5  1
    X8_0  COST  0.0807226017026
    X8_0  G8_0  -1.10113976025
    X8_0  G8_1  -0.434229779084
    X8_0  G8_2  -0.237833680062
    X8_0  G8_3  0.133968829761
    X8_0  G8_4  0.38082703728
    X8_0  G8_5  1.18382852665
    X8_0  UTIL1  -0.567163312399
    X8_0  UTIL2  -0.454803169784
    X8_1  COST  1.07004596179
    X8_1  G8_0  0.1163860124
    X8_1  G8_1  0.514916427085
    X8_1  G8_2  -0.296764577158
    X8_1  G8_3  0.976301883308
    X8_1  G8_4  0.14146656531
    X8_1  G8_5  0.37562636864
    X8_1  UTIL0  -0.211493054623
    X8_1  UTIL1  -0.353482013381
    X8_2  COST  -0.709398016263
    X8_2  G8_0  -0.917415651791
    X8_2  G8_1  -0.72172100919
    X8_2  G8_2  -1.61433054746
    X8_2  G8_3  1.03437602412
    X8_2  G8_4  2.18797175343
    X8_2  G8_5  0.384756190383
    X8_3  COST  -0.749364620913
    X8_3  G8_0  -0.448958362945
    X8_3  G8_1  -0.812928484367
    X8_3  G8_2  0.339937080732
    X8_3  G8_3  0.51847309017
    X8_3  G8_4  0.0520418250118
    X8_3  G8_5  -1.00296617145
    X8_3  UTIL0  -0.189920077958
    X8_3  UTIL2  -0.125817450255
    X8_4  COST  0.131690627033
    X8_4  G8_0  -1.33952924139
    X8_4  G8_1  0.0738189936319
    X8_4  G8_2  -0.251345644453
    X8_4  G8_3  0.252195738368
    X8_4  G8_4  -0.00853409600932
    X8_4  G8_5  -1.4293231868
    X8_4  UTIL0  -0.10288976655
    X8_5  COST  0.970653905246
    X8_5  G8_0  0.315143655617
    X8_5  G8_1  -0.415855267029
    X8_5  G8_2  0.413650853876
    X8_5  G8_3  -0.195866373878
    X8_5  G8_4  -0.369238360674
    X8_5  G8_5  0.441254395137
    X8_5  UTIL1  -0.525024334363
    X8_5  UTIL2  -0.0804960534257
    X8_6  COST  0.0931025227669
    X8_6  G8_0  1.12601692996
    X8_6  G8_1  -0.35508313718
    X8_6  G8_2  0.39543745185
    X8_6  G8_3  1.22703352931
    X8_6  G8_4  -0.725812453157
    X8_6  G8_5  1.47692716161
    X8_6  UTIL1  -0.144597652867
    X8_7  COST  -0.663428015929
    X8_7  G8_0  -0.545297857983
    X8_7  G8_1  0.337108970424
    X8_7  G8_2  1.04941677668
    X8_7  G8_3  0.404062723324
    X8_7  G8_4  0.796511938792
    X8_7  G8_5  0.255018501736
    X8_7  UTIL0  -0.162475033372
    X8_7  UTIL1  -0.389668735545
    X8_7  UTIL2  -0.13708469984
    Y8_0  COST  -1.35447363111
    Y8_0  G8_0  1
    Y8_1  COST  -1.63346227354
    Y8_1  G8_1  1
    Y8_2  COST  -0.185166777219
    Y8_2  G8_2  1
    Y8_3  G8_3  1
    Y8_4  G8_4  1
    Y8_5  G8_5  1
    X9_0  COST  -0.0905886185369
    X9_0  G9_0  0.646326173288
    X9_0  G9_1  -1.33020265408
    X9_0  G9_2  -0.616053518709
    X9_0  G9_3  -1.46011620497
    X9_0  G9_4  -0.253358171506
    X9_0  G9_5  0.179344914194
    X9_0  UTIL1  -0.0648197994799
    X9_1  COST  1.05880603899
    X9_1  G9_0  0.0965277949723
    X9_1  G9_1  -0.457213878716
    X9_1  G9_2  0.906884480832
    X9_1  G9_3  -1.15596494793
    X9_1  G9_4  0.157652694274
    X9_1  G9_5  -0.506176139555
    X9_2  COST  -1.06271220769
    X9_2  G9_0  0.414286133577
    X9_2  G9_1  -0.723113001162
    X9_2  G9_2  -0.253652592997
    X9_2  G9_3  -1.97164752485
    X9_2  G9_4  -0.73273250567
    X9_2  G9_5  0.5223460865
    X9_2  UTIL0  -0.288744549391
    X9_2  UTIL1  -0.143530558232
    X9_2  UTIL2  -0.517774249187
    X9_3  COST  -1.15836587624
    X9_3  G9_0  -0.490586153441
    X9_3  G9_1  0.17545603276
    X9_3  G9_2  -0.671434184705
    X9_3  G9_3  -0.84115906887
    X9_3  G9_4  -0.715288367728
    X9_3  G9_5  -0.125203581577
    X9_3  UTIL0  -0.306491797346
    X9_3  UTIL1  -0.445146364307
    X9_3  UTIL2  -0.109353576994
    X9_4  COST  0.766717599072
    X9_4  G9_0  -0.0790133233557
    X9_4  G9_1  0.26594812701
    X9_4  G9_2  -1.14525188324
    X9_4  G9_3  -1.1580201375
    X9_4  G9_4  1.25914746845
    X9_4  G9_5  1.62159194507
    X9_4  UTIL0  -0.141882953206
    X9_4  UTIL1  -0.194904398359
    X9_4  UTIL2  -0.326175388011
    X9_5  COST  0.830259674279
    X9_5  G9_0  2.84323987813
    X9_5  G9_1  0.903049386968
    X9_5  G9_2  0.40954075481
    X9_5  G9_3  0.333798046833
    X9_5  G9_4  -0.727124542777
    X9_5  G9_5  0.611253174593
    X9_6  COST  0.796705575096
    X9_6  G9_0  0.312259281823
    X9_6  G9_1  0.588008611239
    X9_6  G9_2  -0.408461596197
    X9_6  G9_3  0.439841268723
    X9_6  G9_4  0.0888784486034
    X9_6  G9_5  1.79000255963
    X9_6  UTIL0  -0.299560132516
    X9_6  UTIL2  -0.190138618857
    X9_7  COST  0.356673434289
    X9_7  G9_0  -0.973895793822
    X9_7  G9_1  0.46073590072
    X9_7  G9_2  -0.212657890196
    X9_7  G9_3  -0.421515336843
    X9_7  G9_4  0.602090476391
    X9_7  G9_5  0.835944205782
    X9_7  UTIL1  -0.34675348875
    Y9_0  COST  -1.98068315921
    Y9_0  G9_0  1
    Y9_1  G9_1  1
    Y9_2  COST  -0.25814910402
    Y9_2  G9_2  1
    Y9_3  COST  2.23385733959
    Y9_3  G9_3  1
    Y9_4  COST  1.31400547989
    Y9_4  G9_4  1
    Y9_5  COST  -0.232588459131
    Y9_5  G9_5  1
    X10_0  COST  0.127782594693
    X10_0  G10_0  1.19823588747
    X10_0  G10_1  -0.207064909392
    X10_0  G10_2  0.348307675091
    X10_0  G10_3  -0.924471375226
    X10_0  G10_4  0.199313134152
    X10_0  G10_5  0.544092815248
    X10_0  UTIL0  -0.218772813315
    X10_0  UTIL1  -0.469708552302
    X10_0  UTIL2  -0.171816168578
    X10_1  COST  0.496984202335
    X10_1  G10_0  -0.740065040695
    X10_1  G10_1  -1.13364411391
    X10_1  G10_2  0.701449747514
    X10_1  G10_3  0.828140335724
    X10_1  G10_4  -0.805015278712
    X10_1  G10_5  -0.280958700171
    X10_1  UTIL0  -0.496869931012
    X10_1  UTIL1  -0.253424511682
    X10_1  UTIL2  -0.362117995591
    X10_2  COST  -0.601961327683
    X10_2  G10_0  -0.494562204667
    X10_2  G10_1  -1.23809657178
    X10_2  G10_2  -0.605653633562
    X10_2  G10_3  -0.276026366794
    X10_2  G10_4  0.796034192861
    X10_2  G10_5  1.60254722116
    X10_2  UTIL0  -0.513809804863
    X10_2  UTIL2  -0.41050102948
    X10_3  COST  1.16330541646
    X10_3  G10_0  -1.87291331764
    X10_3  G10_1  -0.364426143237
    X10_3  G10_2  -1.45740729974
    X10_3  G10_3  1.72326637912
    X10_3  G10_4  0.962747795463
    X10_3  G10_5  1.87947803566
    X10_4  COST  -0.529676414973
    X10_4  G10_0  0.319569241654
    X10_4  G10_1  0.107448059054
    X10_4  G10_2  0.958603144484
    X10_4  G10_3  -0.715179662946
    X10_4  G10_4  -0.61598419309
    X10_4  G10_5  -0.280512470117
    X10_4  UTIL0  -0.446018586378
    X10_4  UTIL1  -0.194264445728
    X10_5  COST  1.08516864679
    X10_5  G10_0  -0.321223862502
    X10_5  G10_1  0.352182956749
    X10_5  G10_2  -1.243710767
    X10_5  G10_3  -0.505603099113
    X10_5  G10_4  0.138431187763
    X10_5  G10_5  -0.682412282307
    X10_5  UTIL0  -0.334804355935
    X10_5  UTIL1  -0.372051691368
    X10_5  UTIL2  -0.218779255299
    X10_6  COST  0.38351714782
    X10_6  G10_0  -0.369108454435
    X10_6  G10_1  1.45288119156
    X10_6  G10_2  -0.987043631706
    X10_6  G10_3  -1.29548656464
    X10_6  G10_4  -0.0630653860835
    X10_6  G10_5  -1.22103456371
    X10_6  UTIL1  -0.379375143446
    X10_6  UTIL2  -0.297793353045
    X10_7  COST  -1.17231629391
    X10_7  G10_0  0.19500367877
    X10_7  G10_1  -1.1483080672
    X10_7  G10_2  -0.906680990734
    X10_7  G10_3  -0.105649091128
    X10_7  G10_4  -0.358524876686
    X10_7  G10_5  -0.167953159217
    Y10_0  COST  2.44992789412
    Y10_0  G10_0  1
    Y10_1  COST  -0.765604628359
    Y10_1  G10_1  1
    Y10_2  COST  5.49622402641
    Y10_2  G10_2  1
    Y10_3  G10_3  1
    Y10_4  COST  2.19097696211
    Y10_4  G10_4  1
    Y10_5  G10_5  1
    X11_0  COST  0.639172281581
    X11_0  G11_0  0.369117672619
    X11_0  G11_1  -0.696602720044
    X11_0  G11_2  0.21625753303
    X11_0  G11_3  -1.05505439296
    X11_0  G11_4  0.994284998896
    X11_0  G11_5  -0.501250891869
    X11_1  COST  -1.15824881013
    X11_1  G11_0  0.889513268778
    X11_1  G11_1  0.351620812265
    X11_1  G11_2  1.37610971176
    X11_1  G11_3  1.46809063573
    X11_1  G11_4  0.929138016784
    X11_1  G11_5  1.21386443447
    X11_1  UTIL1  -0.383640076967
    X11_2  COST  -0.810897667298
    X11_2  G11_0  -0.0870711542212
    X11_2  G11_1  -1.53213912082
    X11_2  G11_2  -0.0987076986946
    X11_2  G11_3  0.137468693149
    X11_2  G11_4  1.08033989177
    X11_2  G11_5  0.399984405655
    X11_2  UTIL1  -0.376042757799
    X11_3  COST  -0.356314165349
    X11_3  G11_0  -0.799657420933
    X11_3  G11_1  -0.0488625114026
    X11_3  G11_2  0.705650870928
    X11_3  G11_3  0.816962505184
    X11_3  G11_4  -1.59686195111
    X11_3  G11_5  -1.51172818592
    X11_3  UTIL0  -0.195938619085
    X11_3  UTIL2  -0.323273343135
    X11_4  COST  -0.900967857294
    X11_4  G11_0  -0.119776437786
    X11_4  G11_1  0.0272447863242
    X11_4  G11_2  0.278088650504
    X11_4  G11_3  0.959127530336
    X11_4  G11_4  0.828329254144
    X11_4  G11_5  -0.366253335756
    X11_4  UTIL0  -0.358814236968
    X11_5  COST  -0.458074514661
    X11_5  G11_0  0.504330806033
    X11_5  G11_1  -0.252874125455
    X11_5  G11_2  -0.0959410825876
    X11_5  G11_3  0.515095773521
    X11_5  G11_4  0.615983554932
    X11_5  G11_5  2.97111616147
    X11_5  UTIL0  -0.0518752291342
    X11_5  UTIL2  -0.0976820969037
    X11_6  COST  -1.15833663292
    X11_6  G11_0  1.60326657816
    X11_6  G11_1  0.110628767018
    X11_6  G11_2  -1.33574588706
    X11_6  G11_3  -0.946299661725
    X11_6  G11_4  -0.0601009782221
    X11_6  G11_5  0.546530167692
    X11_6  UTIL1  -0.531694896817
    X11_6  UTIL2  -0.255780197142
    X11_7  COST  0.17792555553
    X11_7  G11_0  0.735676854377
    X11_7  G11_1  0.36644071747
    X11_7  G11_2  -0.694183554737
    X11_7  G11_3  -0.156956937239
    X11_7  G11_4  -0.251149392881
    X11_7  G11_5  0.27325907975
    Y11_0  COST  0.678038041603
    Y11_0  G11_0  1
    Y11_1  COST  1.229902532
    Y11_1  G11_1  1
    Y11_2  COST  -1.32703932559
    Y11_2  G11_2  1
    Y11_3  COST  -0.127235832823
    Y11_3  G11_3  1
    Y11_4  G11_4  1
    Y11_5  COST  0.533046629673
    Y11_5  G11_5  1
    X12_0  COST  0.122261954989
    X12_0  G12_0  -0.533735344377
    X12_0  G12_1  -0.407453784549
    X12_0  G12_2  -0.155093460728
    X12_0  G12_3  -1.55615242285
    X12_0  G12_4  0.173424427088
    X12_0  G12_5  -1.06617638292
    X12_0  UTIL0  -0.110760745131
    X12_1  COST  0.459001186231
    X12_1  G12_0  0.529571326901
    X12_1  G12_1  0.36773523891
    X12_1  G12_2  -0.321343459565
    X12_1  G12_3  -0.201604174267
    X12_1  G12_4  -2.47927972814
    X12_1  G12_5  -0.610744852379
    X12_1  UTIL0  -0.0631612583195
    X12_1  UTIL1  -0.165409192042
    X12_1  UTIL2  -0.0859742638146
    X12_2  COST  0.0999354339373
    X12_2  G12_0  -0.499737950127
    X12_2  G12_1  0.430945461617
    X12_2  G12_2  -0.290975526673
    X12_2  G12_3  0.980936912042
    X12_2  G12_4  -0.304206764004
    X12_2  G12_5  0.00178104229371
    X12_2  UTIL0  -0.293491568839
    X12_3  COST  -0.0537130759475
    X12_3  G12_0  1.36226162437
    X12_3  G12_1  1.11104663745
    X12_3  G12_2  0.435908050158
    X12_3  G12_3  1.58823013838
    X12_3  G12_4  -0.856044170645
    X12_3  G12_5  -0.954427884465
    X12_3  UTIL0  -0.3324689289
    X12_3  UTIL1  -0.508474099715
    X12_3  UTIL2  -0.56755661399
    X12_4  COST  0.768614665247
    X12_4  G12_0  0.436958046079
    X12_4  G12_1  1.39892148606
    X12_4  G12_2  0.776352906555
    X12_4  G12_3  -0.0232909300074
    X12_4  G12_4  1.06702850736
    X12_4  G12_5  0.441842861168
    X12_4  UTIL1  -0.40777494933
    X12_5  COST  0.0251053271287
    X12_5  G12_0  0.709557447693
    X12_5  G12_1  -1.5169397147
    X12_5  G12_2  -0.025004122371
    X12_5  G12_3  -1.61738621031
    X12_5  G12_4  -0.0969080771109
    X12_5  G12_5  -0.76818966264
    X12_5  UTIL1  -0.0849757048144
    X12_5  UTIL2  -0.469880185028
    X12_6  COST  0.557769544157
    X12_6  G12_0  -0.717561399976
    X12_6  G12_1  0.301007234499
    X12_6  G12_2  -0.905397250473
    X12_6  G12_3  -1.21014507249
    X12_6  G12_4  0.23370105646
    X12_6  G12_5  -0.565807822139
    X12_6  UTIL2  -0.0990907359283
    X12_7  COST  0.884952602899
    X12_7  G12_0  1.0673905616
    X12_7  G12_1  0.933854321137
    X12_7  G12_2  -1.2325273428
    X12_7  G12_3  -0.75930271718
    X12_7  G12_4  0.259089149767
    X12_7  G12_5  -0.0878492504875
    X12_7  UTIL0  -0.381595728481
    X12_7  UTIL1  -0.541038148697
    X12_7  UTIL2  -0.413622404965
    Y12_0  G12_0  1
    Y12_1  G12_1  1
    Y12_2  G12_2  1
    Y12_3  G12_3  1
    Y12_4  G12_4  1
    Y12_5  COST  3.76664031619
    Y12_5  G12_5  1
    X13_0  COST  1.10320310103
    X13_0  G13_0  -1.30061042555
    X13_0  G13_1  -1.15531745428
    X13_0  G13_2  -1.16400252909
    X13_0  G13_3  -0.383665688707
    X13_0  G13_4  -0.97159652558
    X13_0  G13_5  0.70480170183
    X13_0  UTIL1  -0.385244352588
    X13_1  COST  -0.889709890233
    X13_1  G13_0  0.659087453952
    X13_1  G13_1  1.2693617029
    X13_1  G13_2  1.22088090021
    X13_1  G13_3  -0.316991067947
    X13_1  G13_4  0.548758557036
    X13_1  G13_5  -1.51703228948
    X13_1  UTIL0  -0.255286523349
    X13_1  UTIL1  -0.288076992779
    X13_1  UTIL2  -0.358369075619
    X13_2  COST  0.485517277989
    X13_2  G13_0  -0.149718151667
    X13_2  G13_1  1.05764520773
    X13_2  G13_2  0.405730701341
    X13_2  G13_3  -1.28837241306
    X13_2  G13_4  0.0718029806423
    X13_2  G13_5  -0.222248017579
    X13_2  UTIL0  -0.533977978235
    X13_2  UTIL1  -0.0988032377658
    X13_3  COST  0.672071194978
    X13_3  G13_0  0.304917554463
    X13_3  G13_1  -1.41746779056
    X13_3  G13_2  -1.21275325815
    X13_3  G13_3  0.0354439416872
    X13_3  G13_4  0.0436816579022
    X13_3  G13_5  0.692563910728
    X13_3  UTIL0  -0.49962842151
    X13_3  UTIL1  -0.509791921538
    X13_4  COST  0.11589809158
    X13_4  G13_0  -1.65520008379
    X13_4  G13_1  -0.0601148344504
    X13_4  G13_2  -0.0109130359914
    X13_4  G13_3  -0.544028047233
    X13_4  G13_4  2.02289341623
    X13_4  G13_5  -0.0193095144161
    X13_4  UTIL0  -0.246700070089
    X13_4  UTIL1  -0.256785590714
    X13_5  COST  -0.239006738867
    X13_5  G13_0  -0.543850339165
    X13_5  G13_1  0.771518625705
    X13_5  G13_2  0.161746200332
    X13_5  G13_3  0.674907844249
    X13_5  G13_4  1.14488446334
    X13_5  G13_5  0.64524323236
    X13_6  COST  -0.526851057486
    X13_6  G13_0  -0.557525340242
    X13_6  G13_1  -2.10129252017
    X13_6  G13_2  -0.190665146325
    X13_6  G13_3  0.458131077313
    X13_6  G13_4  -0.512111737204
    X13_6  G13_5  0.0674488635726
    X13_6  UTIL0  -0.306608665637
    X13_7  COST  -1.11059146043
    X13_7  G13_0  -0.33976614336
    X13_7  G13_1  1.33507264645
    X13_7  G13_2  0.759837930834
    X13_7  G13_3  -0.131777380178
    X13_7  G13_4  -0.393531965037
    X13_7  G13_5  1.06784501672
    X13_7  UTIL0  -0.426827485443
    X13_7  UTIL2  -0.489188857786
    Y13_0  G13_0  1
    Y13_1  G13_1  1
    Y13_2  COST  -1.16469671958
    Y13_2  G13_2  1
    Y13_3  COST  -1.57530744313
    Y13_3  G13_3  1
    Y13_4  G13_4  1
    Y13_5  COST  2.19164586287
    Y13_5  G13_5  1
    PW0  COST  1.49123369052
    PW0  UTIL0  1
    PW0  UCAP0  1
    PW1  COST  0.544396662286
    PW1  UTIL1  1
    PW1  UCAP1  1
    PW2  COST  0.978117540138
    PW2  UTIL2  1
    PW2  UCAP2  1
RHS
    RHS  G0_0  -0.21699884769
    RHS  G0_1  0.117785542937
    RHS  G0_2  -0.0453260546373
    RHS  G0_3  -0.0242765184382
    RHS  G0_4  0.18567905131
    RHS  G0_5  0.0187717117361
    RHS  G1_0  0.268010774105
    RHS  G1_1  0.13320641501
    RHS  G1_2  0.16586604161
    RHS  G1_3  0.228023645168
    RHS  G1_4  -0.270134686225
    RHS  G1_5  0.146910017437
    RHS  G2_0  -0.12980724579
    RHS  G2_1  0.236431662717
    RHS  G2_2  0.291163364758
    RHS  G2_3  0.0237897287268
    RHS  G2_4  -0.054037296818
    RHS  G2_5  -0.157522292899
    RHS  G3_0  0.248552671656
    RHS  G3_1  -0.244650850157
    RHS  G3_2  -0.155923087298
    RHS  G3_3  0.110567258399
    RHS  G3_4  -0.067842127505
    RHS  G3_5  0.136230251467
    RHS  G4_0  0.136527250574
    RHS  G4_1  0.0594543894341
    RHS  G4_2  0.142954913911
    RHS  G4_3  0.244547142056
    RHS  G4_4  0.292927423385
    RHS  G4_5  -0.204435919133
    RHS  G5_0  -0.0663146811297
    RHS  G5_1  -0.0146487376957
    RHS  G5_2  0.148247151585
    RHS  G5_3  0.290767422967
    RHS  G5_4  0.0178267617673
    RHS  G5_5  -0.195277673102
    RHS  G6_0  -0.0711269556414
    RHS  G6_1  0.103438006347
    RHS  G6_2  0.0271490003021
    RHS  G6_3  -0.0015199539906
    RHS  G6_4  -0.207517320627
    RHS  G6_5  0.185100400741
    RHS  G7_0  -0.277945185775
    RHS  G7_1  0.240677947589
    RHS  G7_2  -0.0477860503023
    RHS  G7_3  0.0145095806643
    RHS  G7_4  0.186557571187
    RHS  G7_5  0.0303597585364
    RHS  G8_0  0.261439410014
    RHS  G8_1  0.192459879915
    RHS  G8_2  0.205732416921
    RHS  G8_3  -0.219873162387
    RHS  G8_4  0.00926485287216
    RHS  G8_5  0.220249077776
    RHS  G9_0  0.104747521748
    RHS  G9_1  0.21930818955
    RHS  G9_2  -0.0156453270324
    RHS  G9_3  -0.128941971748
    RHS  G9_4  0.298745710047
    RHS  G9_5  0.153980944493
    RHS  G10_0  0.23952283019
    RHS  G10_1  -0.0338777216684
    RHS  G10_2  -0.05252966214
    RHS  G10_3  0.272773303077
    RHS  G10_4  -0.185486736999
    RHS  G10_5  0.234074034577
    RHS  G11_0  -0.077070386965
    RHS  G11_1  -0.199976668296
    RHS  G11_2  0.122468472595
    RHS  G11_3  0.273179601367
    RHS  G11_4  -0.0125698898994
    RHS  G11_5  0.100281939128
    RHS  G12_0  -0.0448196306055
    RHS  G12_1  0.0654708198358
    RHS  G12_2  -0.210517889149
    RHS  G12_3  0.190016460203
    RHS  G12_4  -0.288483073346
    RHS  G12_5  -0.260538553143
    RHS  G13_0  0.0800335994556
    RHS  G13_1  -0.241323691057
    RHS  G13_2  -0.243522941633
    RHS  G13_3  0.00235133602326
    RHS  G13_4  -0.286186899103
    RHS  G13_5  -0.287706892955
    RHS  UTIL0  0
    RHS  UCAP0  3.84487731313
    RHS  UTIL1  0
    RHS  UCAP1  2.66964384065
    RHS  UTIL2  0
    RHS  UCAP2  2.5903942172
RANGES
BOUNDS
 LO BND  X0_0  -1
 UP BND  X0_0  1
 LO BND  X0_1  -1
 UP BND  X0_1  1
 LO BND  X0_2  -1
 UP BND  X0_2  1
 LO BND  X0_3  -1
 UP BND  X0_3  1
 LO BND  X0_4  -1
 UP BND  X0_4  1
 LO BND  X0_5  -1
 UP BND  X0_5  1
 LO BND  X0_6  -1
 UP BND  X0_6  1
 LO BND  X0_7  -1
 UP BND  X0_7  1
 LO BND  Y0_0  -1.2
 UP BND  Y0_0  1.2
 LO BND  Y0_1  -1.2
 UP BND  Y0_1  1.2
 LO BND  Y0_2  -1.2
 UP BND  Y0_2  1.2
 LO BND  Y0_3  -1.2
 UP BND  Y0_3  1.2
 LO BND  Y0_4  -1.2
 UP BND  Y0_4  1.2
 LO BND  Y0_5  -1.2
 UP BND  Y0_5  1.2
 LO BND  X1_0  -1
 UP BND  X1_0  1
 LO BND  X1_1  -1
 UP BND  X1_1  1
 LO BND  X1_2  -1
 UP BND  X1_2  1
 LO BND  X1_3  -1
 UP BND  X1_3  1
 LO BND  X1_4  -1
 UP BND  X1_4  1
 LO BND  X1_5  -1
 UP BND  X1_5  1
 LO BND  X1_6  -1
 UP BND  X1_6  1
 LO BND  X1_7  -1
 UP BND  X1_7  1
 LO BND  Y1_0  -1.2
 UP BND  Y1_0  1.2
 LO BND  Y1_1  -1.2
 UP BND  Y1_1  1.2
 LO BND  Y1_2  -1.2
 UP BND  Y1_2  1.2
 LO BND  Y1_3  -1.2
 UP BND  Y1_3  1.2
 LO BND  Y1_4  -1.2
 UP BND  Y1_4  1.2
 LO BND  Y1_5  -1.2
 UP BND  Y1_5  1.2
 LO BND  X2_0  -1
 UP BND  X2_0  1
 LO BND  X2_1  -1
 UP BND  X2_1  1
 LO BND  X2_2  -1
 UP BND  X2_2  1
 LO BND  X2_3  -1
 UP BND  X2_3  1
 LO BND  X2_4  -1
 UP BND  X2_4  1
 LO BND  X2_5  -1
 UP BND  X2_5  1
 LO BND  X2_6  -1
 UP BND  X2_6  1
 LO BND  X2_7  -1
 UP BND  X2_7  1
 LO BND  Y2_0  -1.2
 UP BND  Y2_0  1.2
 LO BND  Y2_1  -1.2
 UP BND  Y2_1  1.2
 LO BND  Y2_2  -1.2
 UP BND  Y2_2  1.2
 LO BND  Y2_3  -1.2
 UP BND  Y2_3  1.2
 LO BND  Y2_4  -1.2
 UP BND  Y2_4  1.2
 LO BND  Y2_5  -1.2
 UP BND  Y2_5  1.2
 LO BND  X3_0  -1
 UP BND  X3_0  1
 LO BND  X3_1  -1
 UP BND  X3_1  1
 LO BND  X3_2  -1
 UP BND  X3_2  1
 LO BND  X3_3  -1
 UP BND  X3_3  1
 LO BND  X3_4  -1
 UP BND  X3_4  1
 LO BND  X3_5  -1
 UP BND  X3_5  1
 LO BND  X3_6  -1
 UP BND  X3_6  1
 LO BND  X3_7  -1
 UP BND  X3_7  1
 LO BND  Y3_0  -1.2
 UP BND  Y3_0  1.2
 LO BND  Y3_1  -1.2
 UP BND  Y3_1  1.2
 LO BND  Y3_2  -1.2
 UP BND  Y3_2  1.2
 LO BND  Y3_3  -1.2
 UP BND  Y3_3  1.2
 LO BND  Y3_4  -1.2
 UP BND  Y3_4  1.2
 LO BND  Y3_5  -1.2
 UP BND  Y3_5  1.2
 LO BND  X4_0  -1
 UP BND  X4_0  1
 LO BND  X4_1  -1
 UP BND  X4_1  1
 LO BND  X4_2  -1
 UP BND  X4_2  1
 LO BND  X4_3  -1
 UP BND  X4_3  1
 LO BND  X4_4  -1
 UP BND  X4_4  1
 LO BND  X4_5  -1
 UP BND  X4_5  1
 LO BND  X4_6  -1
 UP BND  X4_6  1
 LO BND  X4_7  -1
 UP BND  X4_7  1
 LO BND  Y4_0  -1.2
 UP BND  Y4_0  1.2
 LO BND  Y4_1  -1.2
 UP BND  Y4_1  1.2
 LO BND  Y4_2  -1.2
 UP BND  Y4_2  1.2
 LO BND  Y4_3  -1.2
 UP BND  Y4_3  1.2
 LO BND  Y4_4  -1.2
 UP BND  Y4_4  1.2
 LO BND  Y4_5  -1.2
 UP BND  Y4_5  1.2
 LO BND  X5_0  -1
 UP BND  X5_0  1
 LO BND  X5_1  -1
 UP BND  X5_1  1
 LO BND  X5_2  -1
 UP BND  X5_2  1
 LO BND  X5_3  -1
 UP BND  X5_3  1
 LO BND  X5_4  -1
 UP BND  X5_4  1
 LO BND  X5_5  -1
 UP BND  X5_5  1
 LO BND  X5_6  -1
 UP BND  X5_6  1
 LO BND  X5_7  -1
 UP BND  X5_7  1
 LO BND  Y5_0  -1.2
 UP BND  Y5_0  1.2
 LO BND  Y5_1  -1.2
 UP BND  Y5_1  1.2
 LO BND  Y5_2  -1.2
 UP BND  Y5_2  1.2
 LO BND  Y5_3  -1.2
 UP BND  Y5_3  1.2
 LO BND  Y5_4  -1.2
 UP BND  Y5_4  1.2
 LO BND  Y5_5  -1.2
 UP BND  Y5_5  1.2
 LO BND  X6_0  -1
 UP BND  X6_0  1
 LO BND  X6_1  -1
 UP BND  X6_1  1
 LO BND  X6_2  -1
 UP BND  X6_2  1
 LO BND  X6_3  -1
 UP BND  X6_3  1
 LO BND  X6_4  -1
 UP BND  X6_4  1
 LO BND  X6_5  -1
 UP BND  X6_5  1
 LO BND  X6_6  -1
 UP BND  X6_6  1
 LO BND  X6_7  -1
 UP BND  X6_7  1
 LO BND  Y6_0  -1.2
 UP BND  Y6_0  1.2
 LO BND  Y6_1  -1.2
 UP BND  Y6_1  1.2
 LO BND  Y6_2  -1.2
 UP BND  Y6_2  1.2
 LO BND  Y6_3  -1.2
 UP BND  Y6_3  1.2
 LO BND  Y6_4  -1.2
 UP BND  Y6_4  1.2
 LO BND  Y6_5  -1.2
 UP BND  Y6_5  1.2
 LO BND  X7_0  -1
 UP BND  X7_0  1
 LO BND  X7_1  -1
 UP BND  X7_1  1
 LO BND  X7_2  -1
 UP BND  X7_2  1
 LO BND  X7_3  -1
 UP BND  X7_3  1
 LO BND  X7_4  -1
 UP BND  X7_4  1
 LO BND  X7_5  -1
 UP BND  X7_5  1
 LO BND  X7_6  -1
 UP BND  X7_6  1
 LO BND  X7_7  -1
 UP BND  X7_7  1
 LO BND  Y7_0  -1.2
 UP BND  Y7_0  1.2
 LO BND  Y7_1  -1.2
 UP BND  Y7_1  1.2
 LO BND  Y7_2  -1.2
 UP BND  Y7_2  1.2
 LO BND  Y7_3  -1.2
 UP BND  Y7_3  1.2
 LO BND  Y7_4  -1.2
 UP BND  Y7_4  1.2
 LO BND  Y7_5  -1.2
 UP BND  Y7_5  1.2
 LO BND  X8_0  -1
 UP BND  X8_0  1
 LO BND  X8_1  -1
 UP BND  X8_1  1
 LO BND  X8_2  -1
 UP BND  X8_2  1
 LO BND  X8_3  -1
 UP BND  X8_3  1
 LO BND  X8_4  -1
 UP BND  X8_4  1
 LO BND  X8_5  -1
 UP BND  X8_5  1
 LO BND  X8_6  -1
 UP BND  X8_6  1
 LO BND  X8_7  -1
 UP BND  X8_7  1
 LO BND  Y8_0  -1.2
 UP BND  Y8_0  1.2
 LO BND  Y8_1  -1.2
 UP BND  Y8_1  1.2
 LO BND  Y8_2  -1.2
 UP BND  Y8_2  1.2
 LO BND  Y8_3  -1.2
 UP BND  Y8_3  1.2
 LO BND  Y8_4  -1.2
 UP BND  Y8_4  1.2
 LO BND  Y8_5  -1.2
 UP BND  Y8_5  1.2
 LO BND  X9_0  -1
 UP BND  X9_0  1
 LO BND  X9_1  -1
 UP BND  X9_1  1
 LO BND  X9_2  -1
 UP BND  X9_2  1
 LO BND  X9_3  -1
 UP BND  X9_3  1
 LO BND  X9_4  -1
 UP BND  X9_4  1
 LO BND  X9_5  -1
 UP BND  X9_5  1
 LO BND  X9_6  -1
 UP BND  X9_6  1
 LO BND  X9_7  -1
 UP BND  X9_7  1
 LO BND  Y9_0  -1.2
 UP BND  Y9_0  1.2
 LO BND  Y9_1  -1.2
 UP BND  Y9_1  1.2
 LO BND  Y9_2  -1.2
 UP BND  Y9_2  1.2
 LO BND  Y9_3  -1.2
 UP BND  Y9_3  1.2
 LO BND  Y9_4  -1.2
 UP BND  Y9_4  1.2
 LO BND  Y9_5  -1.2
 UP BND  Y9_5  1.2
 LO BND  X10_0  -1
 UP BND  X10_0  1
 LO BND  X10_1  -1
 UP BND  X10_1  1
 LO BND  X10_2  -1
 UP BND  X10_2  1
 LO BND  X10_3  -1
 UP BND  X10_3  1
 LO BND  X10_4  -1
 UP BND  X10_4  1
 LO BND  X10_5  -1
 UP BND  X10_5  1
 LO BND  X10_6  -1
 UP BND  X10_6  1
 LO BND  X10_7  -1
 UP BND  X10_7  1
 LO BND  Y10_0  -1.2
 UP BND  Y10_0  1.2
 LO BND  Y10_1  -1.2
 UP BND  Y10_1  1.2
 LO BND  Y10_2  -1.2
 UP BND  Y10_2  1.2
 LO BND  Y10_3  -1.2
 UP BND  Y10_3  1.2
 LO BND  Y10_4  -1.2
 UP BND  Y10_4  1.2
 LO BND  Y10_5  -1.2
 UP BND  Y10_5  1.2
 LO BND  X11_0  -1
 UP BND  X11_0  1
 LO BND  X11_1  -1
 UP BND  X11_1  1
 LO BND  X11_2  -1
 UP BND  X11_2  1
 LO BND  X11_3  -1
 UP BND  X11_3  1
 LO BND  X11_4  -1
 UP BND  X11_4  1
 LO BND  X11_5  -1
 UP BND  X11_5  1
 LO BND  X11_6  -1
 UP BND  X11_6  1
 LO BND  X11_7  -1
 UP BND  X11_7  1
 LO BND  Y11_0  -1.2
 UP BND  Y11_0  1.2
 LO BND  Y11_1  -1.2
 UP BND  Y11_1  1.2
 LO BND  Y11_2  -1.2
 UP BND  Y11_2  1.2
 LO BND  Y11_3  -1.2
 UP BND  Y11_3  1.2
 LO BND  Y11_4  -1.2
 UP BND  Y11_4  1.2
 LO BND  Y11_5  -1.2
 UP BND  Y11_5  1.2
 LO BND  X12_0  -1
 UP BND  X12_0  1
 LO BND  X12_1  -1
 UP BND  X12_1  1
 LO BND  X12_2  -1
 UP BND  X12_2  1
 LO BND  X12_3  -1
 UP BND  X12_3  1
 LO BND  X12_4  -1
 UP BND  X12_4  1
 LO BND  X12_5  -1
 UP BND  X12_5  1
 LO BND  X12_6  -1
 UP BND  X12_6  1
 LO BND  X12_7  -1
 UP BND  X12_7  1
 LO BND  Y12_0  -1.2
 UP BND  Y12_0  1.2
 LO BND  Y12_1  -1.2
 UP BND  Y12_1  1.2
 LO BND  Y12_2  -1.2
 UP BND  Y12_2  1.2
 LO BND  Y12_3  -1.2
 UP BND  Y12_3  1.2
 LO BND  Y12_4  -1.2
 UP BND  Y12_4  1.2
 LO BND  Y12_5  -1.2
 UP BND  Y12_5  1.2
 LO BND  X13_0  -1
 UP BND  X13_0  1
 LO BND  X13_1  -1
 UP BND  X13_1  1
 LO BND  X13_2  -1
 UP BND  X13_2  1
 LO BND  X13_3  -1
 UP BND  X13_3  1
 LO BND  X13_4  -1
 UP BND  X13_4  1
 LO BND  X13_5  -1
 UP BND  X13_5  1
 LO BND  X13_6  -1
 UP BND  X13_6  1
 LO BND  X13_7  -1
 UP BND  X13_7  1
 LO BND  Y13_0  -1.2
 UP BND  Y13_0  1.2
 LO BND  Y13_1  -1.2
 UP BND  Y13_1  1.2
 LO BND  Y13_2  -1.2
 UP BND  Y13_2  1.2
 LO BND  Y13_3  -1.2
 UP BND  Y13_3  1.2
 LO BND  Y13_4  -1.2
 UP BND  Y13_4  1.2
 LO BND  Y13_5  -1.2
 UP BND  Y13_5  1.2
QUADOBJ
    X0_0  X0_0  1.49520294747
    X0_1  X0_1  0.81088512827
    X0_2  X0_2  1.24014165907
    X0_3  X0_3  1.01808965458
    X0_4  X0_4  0.581414275337
    X0_5  X0_5  0.904857311629
    X0_6  X0_6  1.05159459847
    X0_7  X0_7  0.787497574318
    Y0_0  Y0_0  5.66879621918
    Y0_2  Y0_2  4.2175186861
    Y0_4  Y0_4  3.83203159642
    X1_0  X1_0  0.21964329213
    X1_1  X1_1  1.02787454346
    X1_2  X1_2  0.994376937429
    X1_3  X1_3  0.510620468071
    X1_4  X1_4  0.17870184112
    X1_5  X1_5  0.884553873944
    X1_6  X1_6  0.333139601736
    X1_7  X1_7  0.360806213309
    Y1_0  Y1_0  2.06018773881
    Y1_2  Y1_2  5.75209047641
    Y1_3  Y1_3  9.6701860318
    Y1_4  Y1_4  10.088285799
    Y1_5  Y1_5  5.99616597756
    X2_0  X2_0  1.03573667714
    X2_1  X2_1  1.06222783163
    X2_2  X2_2  1.34515887887
    X2_3  X2_3  1.42037341678
    X2_4  X2_4  1.46296735834
    X2_5  X2_5  0.626427502141
    X2_6  X2_6  0.790332464793
    X2_7  X2_7  0.761492003204
    Y2_0  Y2_0  10.4481072526
    Y2_4  Y2_4  3.41635694203
    Y2_5  Y2_5  6.08348346413
    X3_0  X3_0  0.210318609898
    X3_1  X3_1  0.768071627113
    X3_2  X3_2  0.128953302545
    X3_3  X3_3  1.42176256098
    X3_4  X3_4  1.47346919013
    X3_5  X3_5  0.413717584586
    X3_6  X3_6  0.654206915989
    X3_7  X3_7  1.46459843911
    Y3_0  Y3_0  10.0707102499
    Y3_2  Y3_2  5.72827542423
    Y3_5  Y3_5  9.60481689918
    X4_0  X4_0  1.38005711519
    X4_1  X4_1  0.315049823423
    X4_2  X4_2  0.281220891043
    X4_3  X4_3  0.197047516818
    X4_4  X4_4  0.261186867734
    X4_5  X4_5  0.443724627662
    X4_6  X4_6  0.743355599829
    X4_7  X4_7  1.01586273959
    Y4_0  Y4_0  5.86767793848
    Y4_1  Y4_1  5.75983535654
    Y4_5  Y4_5  10.0731625094
    X5_0  X5_0  0.778524598224
    X5_1  X5_1  1.29659599189
    X5_2  X5_2  1.28882778037
    X5_3  X5_3  0.596971014018
    X5_4  X5_4  0.566174127873
    X5_5  X5_5  1.21134090698
    X5_6  X5_6  1.58129979416
    X5_7  X5_7  0.553323834264
    Y5_0  Y5_0  2.86065097
    Y5_1  Y5_1  8.62682721892
    Y5_2  Y5_2  11.6149566692
    Y5_3  Y5_3  2.22320736395
    Y5_4  Y5_4  5.89441667748
    X6_0  X6_0  0.568877434391
    X6_1  X6_1  0.917959246886
    X6_2  X6_2  0.388321691036
    X6_3  X6_3  0.493678102245
    X6_4  X6_4  1.18553281356
    X6_5  X6_5  1.25248150221
    X6_6  X6_6  0.330478699283
    X6_7  X6_7  0.628544682454
    Y6_0  Y6_0  7.07484931119
    Y6_1  Y6_1  2.98231311339
    Y6_3  Y6_3  11.9588555559
    Y6_4  Y6_4  7.76483290334
    Y6_5  Y6_5  9.24093897898
    X7_0  X7_0  0.155523674867
    X7_1  X7_1  0.29416822966
    X7_2  X7_2  1.20446656013
    X7_3  X7_3  1.41004164568
    X7_4  X7_4  0.745766248535
    X7_5  X7_5  0.808981326144
    X7_6  X7_6  0.996932388504
    X7_7  X7_7  1.25713774904
    Y7_0  Y7_0  8.36630237688
    Y7_1  Y7_1  11.2126991367
    Y7_4  Y7_4  7.43299364376
    X8_0  X8_0  0.513011819286
    X8_1  X8_1  1.02631251034
    X8_2  X8_2  1.3653399453
    X8_3  X8_3  0.160477047494
    X8_4  X8_4  1.48406461137
    X8_5  X8_5  1.18652425546
    X8_6  X8_6  0.909688368908
    X8_7  X8_7  0.923054248217
    Y8_0  Y8_0  10.8264065706
    Y8_1  Y8_1  5.7267754448
    Y8_2  Y8_2  2.87833966598
    X9_0  X9_0  1.48268448358
    X9_1  X9_1  0.490257687771
    X9_2  X9_2  0.880596319444
    X9_3  X9_3  1.42900531364
    X9_4  X9_4  1.50958154679
    X9_5  X9_5  1.41246011664
    X9_6  X9_6  0.649101912404
    X9_7  X9_7  1.38304677267
    Y9_0  Y9_0  5.34573025441
    Y9_2  Y9_2  3.60366924303
    Y9_3  Y9_3  7.42329218283
    Y9_4  Y9_4  10.098302692
    Y9_5  Y9_5  3.27062274983
    X10_0  X10_0  1.28246721749
    X10_1  X10_1  0.816025930235
    X10_2  X10_2  0.987913517017
    X10_3  X10_3  1.41202847058
    X10_4  X10_4  1.18876807908
    X10_5  X10_5  1.4659980271
    X10_6  X10_6  0.562254826275
    X10_7  X10_7  1.43662989829
    Y10_0  Y10_0  5.46851057812
    Y10_1  Y10_1  3.23156155472
    Y10_2  Y10_2  11.9378067492
    Y10_4  Y10_4  8.14798690872
    X11_0  X11_0  1.05872332682
    X11_1  X11_1  1.36646574255
    X11_2  X11_2  0.393991366715
    X11_3  X11_3  1.44497433929
    X11_4  X11_4  0.793894213833
    X11_5  X11_5  0.49684179051
    X11_6  X11_6  1.07641249635
    X11_7  X11_7  0.736948858361
    Y11_0  Y11_0  3.75951192445
    Y11_1  Y11_1  3.17743931396
    Y11_2  Y11_2  6.4362106421
    Y11_3  Y11_3  3.56314625377
    Y11_5  Y11_5  10.9232866319
    X12_0  X12_0  0.464556181639
    X12_1  X12_1  1.21201782349
    X12_2  X12_2  0.328535167744
    X12_3  X12_3  1.28456521632
    X12_4  X12_4  0.914368135468
    X12_5  X12_5  1.30410527149
    X12_6  X12_6  1.20018254579
    X12_7  X12_7  1.23650597902
    Y12_5  Y12_5  9.13708836379
    X13_0  X13_0  1.23138796093
    X13_1  X13_1  0.971262136373
    X13_2  X13_2  0.585630482304
    X13_3  X13_3  1.05037168655
    X13_4  X13_4  1.47071872924
    X13_5  X13_5  1.47286171158
    X13_6  X13_6  0.793411229593
    X13_7  X13_7  0.304289590856
    Y13_2  Y13_2  9.91634882343
    Y13_3  Y13_3  4.50175984566
    Y13_5  Y13_5  6.81199811771
    PW0  PW0  2.04841903487
    PW1  PW1  2.58551552779
    PW2  PW2  4.023330921
ENDATA
