NAME          QSMOOTH0
ROWS
 N  COST
 G  DEM0
 G  DEM1
 G  DEM2
 G  DEM3
 G  DEM4
 G  DEM5
 G  DEM6
 G  DEM7
 G  DEM8
 G  DEM9
 G  DEM10
 G  DEM11
 G  DEM12
 G  DEM13
 G  DEM14
 G  DEM15
 G  DEM16
 G  DEM17
 G  DEM18
 G  DEM19
 G  DEM20
 G  DEM21
 G  DEM22
 G  DEM23
 G  DEM24
 G  DEM25
 G  DEM26
 G  DEM27
 G  DEM28
 G  DEM29
 G  DEM30
 G  DEM31
 G  DEM32
 G  DEM33
 G  DEM34
 G  DEM35
 G  DEM36
 G  DEM37
 G  DEM38
 G  DEM39
 G  DEM40
 G  DEM41
 G  DEM42
 G  DEM43
 G  DEM44
 G  DEM45
 G  DEM46
 G  DEM47
 G  DEM48
 G  DEM49
 G  DEM50
 G  DEM51
 G  DEM52
 G  DEM53
 G  DEM54
 G  DEM55
 G  DEM56
 G  DEM57
 G  DEM58
 G  DEM59
 G  DEM60
 G  DEM61
 G  DEM62
 G  DEM63
 G  DEM64
 G  DEM65
 G  DEM66
 G  DEM67
 G  DEM68
 G  DEM69
 G  DEM70
 G  DEM71
 G  DEM72
 G  DEM73
 G  DEM74
 G  DEM75
 G  DEM76
 G  DEM77
 G  DEM78
 G  DEM79
COLUMNS
    P0_0  COST  1.42936075997
    P0_0  DEM0  1
    P0_1  COST  2.90464215064
    P0_1  DEM1  1
    P0_2  COST  1.028943227
    P0_2  DEM2  1
    P0_3  COST  1.19325655793
    P0_3  DEM3  1
    P0_4  COST  3.83930115665
    P0_4  DEM4  1
    P0_5  COST  1.56762417755
    P0_5  DEM5  1
    P0_6  COST  3.87156637706
    P0_6  DEM6  1
    P0_7  COST  2.20500083677
    P0_7  DEM7  1
    P0_8  COST  2.87946339743
    P0_8  DEM8  1
    P0_9  COST  2.99488621485
    P0_9  DEM9  1
    P0_10  COST  2.7141730322
    P0_10  DEM10  1
    P0_11  COST  3.82997191439
    P0_11  DEM11  1
    P0_12  COST  1.87280825807
    P0_12  DEM12  1
    P0_13  COST  3.0528024665
    P0_13  DEM13  1
    P0_14  COST  3.37867954864
    P0_14  DEM14  1
    P0_15  COST  1.80038192342
    P0_15  DEM15  1
    P0_16  COST  3.14937897331
    P0_16  DEM16  1
    P0_17  COST  2.11456294777
    P0_17  DEM17  1
    P0_18  COST  2.24283955639
    P0_18  DEM18  1
    P0_19  COST  3.43665700713
    P0_19  DEM19  1
    P0_20  COST  2.43857567047
    P0_20  DEM20  1
    P0_21  COST  1.26248539929
    P0_21  DEM21  1
    P0_22  COST  2.73320275444
    P0_22  DEM22  1
    P0_23  COST  3.27753611911
    P0_23  DEM23  1
    P0_24  COST  2.74456162119
    P0_24  DEM24  1
    P0_25  COST  3.50037055626
    P0_25  DEM25  1
    P0_26  COST  3.27331204171
    P0_26  DEM26  1
    P0_27  COST  2.09156126913
    P0_27  DEM27  1
    P0_28  COST  3.65166140883
    P0_28  DEM28  1
    P0_29  COST  1.72021770462
    P0_29  DEM29  1
    P0_30  COST  1.48267526339
    P0_30  DEM30  1
    P0_31  COST  2.22791324044
    P0_31  DEM31  1
    P0_32  COST  3.18442448124
    P0_32  DEM32  1
    P0_33  COST  3.1879326775
    P0_33  DEM33  1
    P0_34  COST  2.48466418761
    P0_34  DEM34  1
    P0_35  COST  3.25861407377
    P0_35  DEM35  1
    P0_36  COST  2.74789458832
    P0_36  DEM36  1
    P0_37  COST  1.8218597537
    P0_37  DEM37  1
    P0_38  COST  3.43978451731
    P0_38  DEM38  1
    P0_39  COST  2.41541463675
    P0_39  DEM39  1
    P0_40  COST  3.12986783418
    P0_40  DEM40  1
    P0_41  COST  1.14423627233
    P0_41  DEM41  1
    P0_42  COST  1.3684729336
    P0_42  DEM42  1
    P0_43  COST  1.01665514051
    P0_43  DEM43  1
    P0_44  COST  1.06242508261
    P0_44  DEM44  1
    P0_45  COST  3.05506897305
    P0_45  DEM45  1
    P0_46  COST  2.20480606881
    P0_46  DEM46  1
    P0_47  COST  1.15032290015
    P0_47  DEM47  1
    P0_48  COST  2.01426872601
    P0_48  DEM48  1
    P0_49  COST  2.20884998352
    P0_49  DEM49  1
    P0_50  COST  3.0089561225
    P0_50  DEM50  1
    P0_51  COST  3.46990512239
    P0_51  DEM51  1
    P0_52  COST  1.25845961266
    P0_52  DEM52  1
    P0_53  COST  2.77442499476
    P0_53  DEM53  1
    P0_54  COST  3.41559113785
    P0_54  DEM54  1
    P0_55  COST  1.02621073996
    P0_55  DEM55  1
    P0_56  COST  3.12194346511
    P0_56  DEM56  1
    P0_57  COST  3.43515000436
    P0_57  DEM57  1
    P0_58  COST  1.07230351616
    P0_58  DEM58  1
    P0_59  COST  3.02437971421
    P0_59  DEM59  1
    P0_60  COST  2.66819572707
    P0_60  DEM60  1
    P0_61  COST  3.95308551334
    P0_61  DEM61  1
    P0_62  COST  2.86782578407
    P0_62  DEM62  1
    P0_63  COST  2.3871114434
    P0_63  DEM63  1
    P0_64  COST  1.90278973013
    P0_64  DEM64  1
    P0_65  COST  1.65461393277
    P0_65  DEM65  1
    P0_66  COST  3.0352002586
    P0_66  DEM66  1
    P0_67  COST  1.7445434718
    P0_67  DEM67  1
    P0_68  COST  3.058657762
    P0_68  DEM68  1
    P0_69  COST  3.50554687752
    P0_69  DEM69  1
    P0_70  COST  3.53671951971
    P0_70  DEM70  1
    P0_71  COST  1.12033211313
    P0_71  DEM71  1
    P0_72  COST  2.50024411309
    P0_72  DEM72  1
    P0_73  COST  2.75407859921
    P0_73  DEM73  1
    P0_74  COST  3.90525082413
    P0_74  DEM74  1
    P0_75  COST  1.09117325045
    P0_75  DEM75  1
    P0_76  COST  2.74083466429
    P0_76  DEM76  1
    P0_77  COST  1.80828419913
    P0_77  DEM77  1
    P0_78  COST  2.59501264831
    P0_78  DEM78  1
    P0_79  COST  2.04607528355
    P0_79  DEM79  1
    P1_0  COST  2.66241936558
    P1_0  DEM0  1
    P1_1  COST  1.64362747012
    P1_1  DEM1  1
    P1_2  COST  1.87488334554
    P1_2  DEM2  1
    P1_3  COST  1.2782265371
    P1_3  DEM3  1
    P1_4  COST  1.96188535001
    P1_4  DEM4  1
    P1_5  COST  3.06735718156
    P1_5  DEM5  1
    P1_6  COST  2.05415261583
    P1_6  DEM6  1
    P1_7  COST  2.32601008258
    P1_7  DEM7  1
    P1_8  COST  3.6025343041
    P1_8  DEM8  1
    P1_9  COST  1.17559151825
    P1_9  DEM9  1
    P1_10  COST  1.48065874817
    P1_10  DEM10  1
    P1_11  COST  2.28779951898
    P1_11  DEM11  1
    P1_12  COST  1.617004652
    P1_12  DEM12  1
    P1_13  COST  3.6539134433
    P1_13  DEM13  1
    P1_14  COST  1.44671220525
    P1_14  DEM14  1
    P1_15  COST  1.70049917925
    P1_15  DEM15  1
    P1_16  COST  3.45419506355
    P1_16  DEM16  1
    P1_17  COST  1.07306864364
    P1_17  DEM17  1
    P1_18  COST  1.75208068698
    P1_18  DEM18  1
    P1_19  COST  1.99454541898
    P1_19  DEM19  1
    P1_20  COST  3.63981308699
    P1_20  DEM20  1
    P1_21  COST  3.33736016576
    P1_21  DEM21  1
    P1_22  COST  2.78777390382
    P1_22  DEM22  1
    P1_23  COST  3.04479092857
    P1_23  DEM23  1
    P1_24  COST  1.96470301888
    P1_24  DEM24  1
    P1_25  COST  1.14807201952
    P1_25  DEM25  1
    P1_26  COST  2.46851090318
    P1_26  DEM26  1
    P1_27  COST  2.88043006435
    P1_27  DEM27  1
    P1_28  COST  1.39098829925
    P1_28  DEM28  1
    P1_29  COST  2.4647932581
    P1_29  DEM29  1
    P1_30  COST  1.64517205415
    P1_30  DEM30  1
    P1_31  COST  3.04171984345
    P1_31  DEM31  1
    P1_32  COST  3.3526674337
    P1_32  DEM32  1
    P1_33  COST  2.43141938744
    P1_33  DEM33  1
    P1_34  COST  3.83739695261
    P1_34  DEM34  1
    P1_35  COST  3.27684659547
    P1_35  DEM35  1
    P1_36  COST  3.08613517907
    P1_36  DEM36  1
    P1_37  COST  2.49600994421
    P1_37  DEM37  1
    P1_38  COST  1.88208422964
    P1_38  DEM38  1
    P1_39  COST  2.01865874772
    P1_39  DEM39  1
    P1_40  COST  2.77630963184
    P1_40  DEM40  1
    P1_41  COST  3.27898131301
    P1_41  DEM41  1
    P1_42  COST  2.67098670864
    P1_42  DEM42  1
    P1_43  COST  1.62056242686
    P1_43  DEM43  1
    P1_44  COST  1.34818353653
    P1_44  DEM44  1
    P1_45  COST  1.9844051343
    P1_45  DEM45  1
    P1_46  COST  3.44432984894
    P1_46  DEM46  1
    P1_47  COST  3.32152412941
    P1_47  DEM47  1
    P1_48  COST  3.46156132864
    P1_48  DEM48  1
    P1_49  COST  2.06482459445
    P1_49  DEM49  1
    P1_50  COST  1.59671221258
    P1_50  DEM50  1
    P1_51  COST  3.20768121763
    P1_51  DEM51  1
    P1_52  COST  1.31398203096
    P1_52  DEM52  1
    P1_53  COST  3.98179404767
    P1_53  DEM53  1
    P1_54  COST  1.96822337985
    P1_54  DEM54  1
    P1_55  COST  1.48073552524
    P1_55  DEM55  1
    P1_56  COST  1.52973804701
    P1_56  DEM56  1
    P1_57  COST  2.31104646222
    P1_57  DEM57  1
    P1_58  COST  2.63057985037
    P1_58  DEM58  1
    P1_59  COST  1.60023184258
    P1_59  DEM59  1
    P1_60  COST  3.76272705763
    P1_60  DEM60  1
    P1_61  COST  3.08561464733
    P1_61  DEM61  1
    P1_62  COST  1.10208630716
    P1_62  DEM62  1
    P1_63  COST  3.53019213391
    P1_63  DEM63  1
    P1_64  COST  2.77841704115
    P1_64  DEM64  1
    P1_65  COST  1.81645067735
    P1_65  DEM65  1
    P1_66  COST  3.89222662588
    P1_66  DEM66  1
    P1_67  COST  2.27359274587
    P1_67  DEM67  1
    P1_68  COST  1.48032330623
    P1_68  DEM68  1
    P1_69  COST  3.14073714154
    P1_69  DEM69  1
    P1_70  COST  1.27106951296
    P1_70  DEM70  1
    P1_71  COST  3.07581775804
    P1_71  DEM71  1
    P1_72  COST  3.89351760479
    P1_72  DEM72  1
    P1_73  COST  2.43106933543
    P1_73  DEM73  1
    P1_74  COST  1.43729776626
    P1_74  DEM74  1
    P1_75  COST  2.05448613183
    P1_75  DEM75  1
    P1_76  COST  2.94402112093
    P1_76  DEM76  1
    P1_77  COST  3.65471669904
    P1_77  DEM77  1
    P1_78  COST  2.58103254939
    P1_78  DEM78  1
    P1_79  COST  1.00501065504
    P1_79  DEM79  1
    P2_0  COST  3.10268494654
    P2_0  DEM0  1
    P2_1  COST  1.98860767243
    P2_1  DEM1  1
    P2_2  COST  3.55589481926
    P2_2  DEM2  1
    P2_3  COST  3.94105459244
    P2_3  DEM3  1
    P2_4  COST  2.44444904498
    P2_4  DEM4  1
    P2_5  COST  2.99291182197
    P2_5  DEM5  1
    P2_6  COST  2.82187600932
    P2_6  DEM6  1
    P2_7  COST  2.58930781686
    P2_7  DEM7  1
    P2_8  COST  1.33644343121
    P2_8  DEM8  1
    P2_9  COST  2.7926863976
    P2_9  DEM9  1
    P2_10  COST  3.84333238753
    P2_10  DEM10  1
    P2_11  COST  2.56927659466
    P2_11  DEM11  1
    P2_12  COST  2.55828193944
    P2_12  DEM12  1
    P2_13  COST  3.14956079698
    P2_13  DEM13  1
    P2_14  COST  3.4481880658
    P2_14  DEM14  1
    P2_15  COST  2.36002213446
    P2_15  DEM15  1
    P2_16  COST  3.75536460979
    P2_16  DEM16  1
    P2_17  COST  1.12173326752
    P2_17  DEM17  1
    P2_18  COST  3.88728593774
    P2_18  DEM18  1
    P2_19  COST  2.74994790305
    P2_19  DEM19  1
    P2_20  COST  2.44887374373
    P2_20  DEM20  1
    P2_21  COST  2.54582071423
    P2_21  DEM21  1
    P2_22  COST  2.19206798162
    P2_22  DEM22  1
    P2_23  COST  3.77191279947
    P2_23  DEM23  1
    P2_24  COST  3.79724593461
    P2_24  DEM24  1
    P2_25  COST  3.73279032275
    P2_25  DEM25  1
    P2_26  COST  1.67377654194
    P2_26  DEM26  1
    P2_27  COST  2.86164654833
    P2_27  DEM27  1
    P2_28  COST  2.81608076404
    P2_28  DEM28  1
    P2_29  COST  2.58301452925
    P2_29  DEM29  1
    P2_30  COST  3.94216180023
    P2_30  DEM30  1
    P2_31  COST  2.79617491125
    P2_31  DEM31  1
    P2_32  COST  1.94295627216
    P2_32  DEM32  1
    P2_33  COST  3.87167509806
    P2_33  DEM33  1
    P2_34  COST  2.10665352456
    P2_34  DEM34  1
    P2_35  COST  1.15675228787
    P2_35  DEM35  1
    P2_36  COST  3.83142797884
    P2_36  DEM36  1
    P2_37  COST  1.70229031511
    P2_37  DEM37  1
    P2_38  COST  2.35945351081
    P2_38  DEM38  1
    P2_39  COST  3.01734188687
    P2_39  DEM39  1
    P2_40  COST  2.79246675088
    P2_40  DEM40  1
    P2_41  COST  1.09023471307
    P2_41  DEM41  1
    P2_42  COST  2.34112306196
    P2_42  DEM42  1
    P2_43  COST  2.24965170941
    P2_43  DEM43  1
    P2_44  COST  1.2703222364
    P2_44  DEM44  1
    P2_45  COST  2.29347005587
    P2_45  DEM45  1
    P2_46  COST  1.92528645813
    P2_46  DEM46  1
    P2_47  COST  2.57865606753
    P2_47  DEM47  1
    P2_48  COST  1.74278194293
    P2_48  DEM48  1
    P2_49  COST  2.06407376936
    P2_49  DEM49  1
    P2_50  COST  1.4951845004
    P2_50  DEM50  1
    P2_51  COST  2.19089162297
    P2_51  DEM51  1
    P2_52  COST  2.65750529993
    P2_52  DEM52  1
    P2_53  COST  1.9817128849
    P2_53  DEM53  1
    P2_54  COST  2.76340511882
    P2_54  DEM54  1
    P2_55  COST  1.919429029
    P2_55  DEM55  1
    P2_56  COST  3.84330913648
    P2_56  DEM56  1
    P2_57  COST  2.54958352501
    P2_57  DEM57  1
    P2_58  COST  3.41016767491
    P2_58  DEM58  1
    P2_59  COST  3.86255324043
    P2_59  DEM59  1
    P2_60  COST  2.49612126028
    P2_60  DEM60  1
    P2_61  COST  3.35957382763
    P2_61  DEM61  1
    P2_62  COST  3.11228862913
    P2_62  DEM62  1
    P2_63  COST  2.50264978069
    P2_63  DEM63  1
    P2_64  COST  2.73491323183
    P2_64  DEM64  1
    P2_65  COST  1.80593031154
    P2_65  DEM65  1
    P2_66  COST  1.47982884282
    P2_66  DEM66  1
    P2_67  COST  3.81881088812
    P2_67  DEM67  1
    P2_68  COST  1.65819322282
    P2_68  DEM68  1
    P2_69  COST  2.51226257075
    P2_69  DEM69  1
    P2_70  COST  1.07065664891
    P2_70  DEM70  1
    P2_71  COST  1.08366815077
    P2_71  DEM71  1
    P2_72  COST  1.32611005423
    P2_72  DEM72  1
    P2_73  COST  3.38084742995
    P2_73  DEM73  1
    P2_74  COST  3.72010908868
    P2_74  DEM74  1
    P2_75  COST  3.61056704461
    P2_75  DEM75  1
    P2_76  COST  3.21619623059
    P2_76  DEM76  1
    P2_77  COST  3.29171636821
    P2_77  DEM77  1
    P2_78  COST  3.37670253953
    P2_78  DEM78  1
    P2_79  COST  2.60679289526
    P2_79  DEM79  1
    P3_0  COST  1.43557887934
    P3_0  DEM0  1
    P3_1  COST  3.54199007856
    P3_1  DEM1  1
    P3_2  COST  3.03228581948
    P3_2  DEM2  1
    P3_3  COST  1.4482559197
    P3_3  DEM3  1
    P3_4  COST  2.88834517542
    P3_4  DEM4  1
    P3_5  COST  1.057348091
    P3_5  DEM5  1
    P3_6  COST  3.89442844172
    P3_6  DEM6  1
    P3_7  COST  3.96306784337
    P3_7  DEM7  1
    P3_8  COST  2.78901711673
    P3_8  DEM8  1
    P3_9  COST  1.52681852661
    P3_9  DEM9  1
    P3_10  COST  3.37418789472
    P3_10  DEM10  1
    P3_11  COST  2.77582745739
    P3_11  DEM11  1
    P3_12  COST  3.62322679904
    P3_12  DEM12  1
    P3_13  COST  2.11817628269
    P3_13  DEM13  1
    P3_14  COST  3.56861242568
    P3_14  DEM14  1
    P3_15  COST  1.29287366392
    P3_15  DEM15  1
    P3_16  COST  3.27282264945
    P3_16  DEM16  1
    P3_17  COST  1.87443035158
    P3_17  DEM17  1
    P3_18  COST  3.2978508282
    P3_18  DEM18  1
    P3_19  COST  3.10450906649
    P3_19  DEM19  1
    P3_20  COST  3.49236879356
    P3_20  DEM20  1
    P3_21  COST  3.23051952996
    P3_21  DEM21  1
    P3_22  COST  2.26839481853
    P3_22  DEM22  1
    P3_23  COST  3.700563299
    P3_23  DEM23  1
    P3_24  COST  1.94351223264
    P3_24  DEM24  1
    P3_25  COST  3.96227738357
    P3_25  DEM25  1
    P3_26  COST  1.59664778891
    P3_26  DEM26  1
    P3_27  COST  3.13139674814
    P3_27  DEM27  1
    P3_28  COST  3.43008384025
    P3_28  DEM28  1
    P3_29  COST  1.42683631884
    P3_29  DEM29  1
    P3_30  COST  2.04526482823
    P3_30  DEM30  1
    P3_31  COST  1.70664663867
    P3_31  DEM31  1
    P3_32  COST  3.24296589294
    P3_32  DEM32  1
    P3_33  COST  3.78679719444
    P3_33  DEM33  1
    P3_34  COST  2.22951930238
    P3_34  DEM34  1
    P3_35  COST  1.25118529795
    P3_35  DEM35  1
    P3_36  COST  1.58673123171
    P3_36  DEM36  1
    P3_37  COST  1.84682104836
    P3_37  DEM37  1
    P3_38  COST  1.76632471555
    P3_38  DEM38  1
    P3_39  COST  3.47123969345
    P3_39  DEM39  1
    P3_40  COST  1.59091956232
    P3_40  DEM40  1
    P3_41  COST  3.73654628977
    P3_41  DEM41  1
    P3_42  COST  1.59415873357
    P3_42  DEM42  1
    P3_43  COST  1.64776989648
    P3_43  DEM43  1
    P3_44  COST  2.33872657789
    P3_44  DEM44  1
    P3_45  COST  2.81455202044
    P3_45  DEM45  1
    P3_46  COST  1.93199521373
    P3_46  DEM46  1
    P3_47  COST  2.83591776931
    P3_47  DEM47  1
    P3_48  COST  1.0799960428
    P3_48  DEM48  1
    P3_49  COST  1.67756516171
    P3_49  DEM49  1
    P3_50  COST  2.35985902689
    P3_50  DEM50  1
    P3_51  COST  1.13033441871
    P3_51  DEM51  1
    P3_52  COST  1.06661950722
    P3_52  DEM52  1
    P3_53  COST  3.50165832586
    P3_53  DEM53  1
    P3_54  COST  1.11247654348
    P3_54  DEM54  1
    P3_55  COST  1.29099836946
    P3_55  DEM55  1
    P3_56  COST  1.65102827388
    P3_56  DEM56  1
    P3_57  COST  3.78474786554
    P3_57  DEM57  1
    P3_58  COST  1.9047392194
    P3_58  DEM58  1
    P3_59  COST  3.8511869972
    P3_59  DEM59  1
    P3_60  COST  2.4989704599
    P3_60  DEM60  1
    P3_61  COST  1.40998162396
    P3_61  DEM61  1
    P3_62  COST  3.4504384333
    P3_62  DEM62  1
    P3_63  COST  3.41930086723
    P3_63  DEM63  1
    P3_64  COST  2.89481468197
    P3_64  DEM64  1
    P3_65  COST  2.4127290606
    P3_65  DEM65  1
    P3_66  COST  3.37760564652
    P3_66  DEM66  1
    P3_67  COST  1.53885771172
    P3_67  DEM67  1
    P3_68  COST  1.64609902244
    P3_68  DEM68  1
    P3_69  COST  3.94350822871
    P3_69  DEM69  1
    P3_70  COST  2.44545637631
    P3_70  DEM70  1
    P3_71  COST  1.62234775545
    P3_71  DEM71  1
    P3_72  COST  1.55389883503
    P3_72  DEM72  1
    P3_73  COST  3.15742174347
    P3_73  DEM73  1
    P3_74  COST  2.7971835674
    P3_74  DEM74  1
    P3_75  COST  3.89426728445
    P3_75  DEM75  1
    P3_76  COST  1.58294431514
    P3_76  DEM76  1
    P3_77  COST  2.12277515764
    P3_77  DEM77  1
    P3_78  COST  3.06738425439
    P3_78  DEM78  1
    P3_79  COST  1.73555150063
    P3_79  DEM79  1
RHS
    RHS  DEM0  131.773478062
    RHS  DEM1  101.524046632
    RHS  DEM2  156.916650617
    RHS  DEM3  112.809154874
    RHS  DEM4  122.821199171
    RHS  DEM5  84.9622401966
    RHS  DEM6  88.4306720471
    RHS  DEM7  123.455491835
    RHS  DEM8  99.4901009636
    RHS  DEM9  139.385198291
    RHS  DEM10  80.180296755
    RHS  DEM11  109.379767904
    RHS  DEM12  109.358126727
    RHS  DEM13  85.0959232201
    RHS  DEM14  89.4063622039
    RHS  DEM15  142.225659698
    RHS  DEM16  119.417289924
    RHS  DEM17  101.362318357
    RHS  DEM18  149.441630498
    RHS  DEM19  135.629289447
    RHS  DEM20  125.680256197
    RHS  DEM21  116.459440612
    RHS  DEM22  104.082059272
    RHS  DEM23  119.464741092
    RHS  DEM24  92.0956022514
    RHS  DEM25  125.681987072
    RHS  DEM26  128.370555663
    RHS  DEM27  106.546865283
    RHS  DEM28  111.894292851
    RHS  DEM29  100.142352257
    RHS  DEM30  132.755361687
    RHS  DEM31  92.9286947703
    RHS  DEM32  92.7096278709
    RHS  DEM33  86.9206312384
    RHS  DEM34  142.482588234
    RHS  DEM35  147.281047466
    RHS  DEM36  156.678644469
    RHS  DEM37  153.924369907
    RHS  DEM38  100.118859625
    RHS  DEM39  114.813125128
    RHS  DEM40  121.840236428
    RHS  DEM41  121.420422593
    RHS  DEM42  140.600425396
    RHS  DEM43  139.069021607
    RHS  DEM44  82.9427879215
    RHS  DEM45  151.570351003
    RHS  DEM46  116.126107428
    RHS  DEM47  152.436770989
    RHS  DEM48  113.223315483
    RHS  DEM49  100.748408659
    RHS  DEM50  136.309263279
    RHS  DEM51  107.923406111
    RHS  DEM52  119.732145751
    RHS  DEM53  145.502718078
    RHS  DEM54  129.212742705
    RHS  DEM55  97.2390388649
    RHS  DEM56  88.0132299579
    RHS  DEM57  123.808625461
    RHS  DEM58  108.034475851
    RHS  DEM59  121.032624715
    RHS  DEM60  130.113079047
    RHS  DEM61  106.558818884
    RHS  DEM62  83.2407261004
    RHS  DEM63  143.629642004
    RHS  DEM64  89.3638083341
    RHS  DEM65  108.380019135
    RHS  DEM66  136.56795873
    RHS  DEM67  84.7118345189
    RHS  DEM68  115.75434067
    RHS  DEM69  152.627203557
    RHS  DEM70  141.541102585
    RHS  DEM71  116.912041459
    RHS  DEM72  82.8127930963
    RHS  DEM73  148.716424661
    RHS  DEM74  137.543647807
    RHS  DEM75  137.021493014
    RHS  DEM76  139.488242702
    RHS  DEM77  99.5318177205
    RHS  DEM78  125.429768804
    RHS  DEM79  131.50569936
RANGES
BOUNDS
 UP BND  P0_0  94.5081791315
 UP BND  P0_1  94.5081791315
 UP BND  P0_2  94.5081791315
 UP BND  P0_3  94.5081791315
 UP BND  P0_4  94.5081791315
 UP BND  P0_5  94.5081791315
 UP BND  P0_6  94.5081791315
 UP BND  P0_7  94.5081791315
 UP BND  P0_8  94.5081791315
 UP BND  P0_9  94.5081791315
 UP BND  P0_10  94.5081791315
 UP BND  P0_11  94.5081791315
 UP BND  P0_12  94.5081791315
 UP BND  P0_13  94.5081791315
 UP BND  P0_14  94.5081791315
 UP BND  P0_15  94.5081791315
 UP BND  P0_16  94.5081791315
 UP BND  P0_17  94.5081791315
 UP BND  P0_18  94.5081791315
 UP BND  P0_19  94.5081791315
 UP BND  P0_20  94.5081791315
 UP BND  P0_21  94.5081791315
 UP BND  P0_22  94.5081791315
 UP BND  P0_23  94.5081791315
 UP BND  P0_24  94.5081791315
 UP BND  P0_25  94.5081791315
 UP BND  P0_26  94.5081791315
 UP BND  P0_27  94.5081791315
 UP BND  P0_28  94.5081791315
 UP BND  P0_29  94.5081791315
 UP BND  P0_30  94.5081791315
 UP BND  P0_31  94.5081791315
 UP BND  P0_32  94.5081791315
 UP BND  P0_33  94.5081791315
 UP BND  P0_34  94.5081791315
 UP BND  P0_35  94.5081791315
 UP BND  P0_36  94.5081791315
 UP BND  P0_37  94.5081791315
 UP BND  P0_38  94.5081791315
 UP BND  P0_39  94.5081791315
 UP BND  P0_40  94.5081791315
 UP BND  P0_41  94.5081791315
 UP BND  P0_42  94.5081791315
 UP BND  P0_43  94.5081791315
 UP BND  P0_44  94.5081791315
 UP BND  P0_45  94.5081791315
 UP BND  P0_46  94.5081791315
 UP BND  P0_47  94.5081791315
 UP BND  P0_48  94.5081791315
 UP BND  P0_49  94.5081791315
 UP BND  P0_50  94.5081791315
 UP BND  P0_51  94.5081791315
 UP BND  P0_52  94.5081791315
 UP BND  P0_53  94.5081791315
 UP BND  P0_54  94.5081791315
 UP BND  P0_55  94.5081791315
 UP BND  P0_56  94.5081791315
 UP BND  P0_57  94.5081791315
 UP BND  P0_58  94.5081791315
 UP BND  P0_59  94.5081791315
 UP BND  P0_60  94.5081791315
 UP BND  P0_61  94.5081791315
 UP BND  P0_62  94.5081791315
 UP BND  P0_63  94.5081791315
 UP BND  P0_64  94.5081791315
 UP BND  P0_65  94.5081791315
 UP BND  P0_66  94.5081791315
 UP BND  P0_67  94.5081791315
 UP BND  P0_68  94.5081791315
 UP BND  P0_69  94.5081791315
 UP BND  P0_70  94.5081791315
 UP BND  P0_71  94.5081791315
 UP BND  P0_72  94.5081791315
 UP BND  P0_73  94.5081791315
 UP BND  P0_74  94.5081791315
 UP BND  P0_75  94.5081791315
 UP BND  P0_76  94.5081791315
 UP BND  P0_77  94.5081791315
 UP BND  P0_78  94.5081791315
 UP BND  P0_79  94.5081791315
 UP BND  P1_0  99.3854765576
 UP BND  P1_1  99.3854765576
 UP BND  P1_2  99.3854765576
 UP BND  P1_3  99.3854765576
 UP BND  P1_4  99.3854765576
 UP BND  P1_5  99.3854765576
 UP BND  P1_6  99.3854765576
 UP BND  P1_7  99.3854765576
 UP BND  P1_8  99.3854765576
 UP BND  P1_9  99.3854765576
 UP BND  P1_10  99.3854765576
 UP BND  P1_11  99.3854765576
 UP BND  P1_12  99.3854765576
 UP BND  P1_13  99.3854765576
 UP BND  P1_14  99.3854765576
 UP BND  P1_15  99.3854765576
 UP BND  P1_16  99.3854765576
 UP BND  P1_17  99.3854765576
 UP BND  P1_18  99.3854765576
 UP BND  P1_19  99.3854765576
 UP BND  P1_20  99.3854765576
 UP BND  P1_21  99.3854765576
 UP BND  P1_22  99.3854765576
 UP BND  P1_23  99.3854765576
 UP BND  P1_24  99.3854765576
 UP BND  P1_25  99.3854765576
 UP BND  P1_26  99.3854765576
 UP BND  P1_27  99.3854765576
 UP BND  P1_28  99.3854765576
 UP BND  P1_29  99.3854765576
 UP BND  P1_30  99.3854765576
 UP BND  P1_31  99.3854765576
 UP BND  P1_32  99.3854765576
 UP BND  P1_33  99.3854765576
 UP BND  P1_34  99.3854765576
 UP BND  P1_35  99.3854765576
 UP BND  P1_36  99.3854765576
 UP BND  P1_37  99.3854765576
 UP BND  P1_38  99.3854765576
 UP BND  P1_39  99.3854765576
 UP BND  P1_40  99.3854765576
 UP BND  P1_41  99.3854765576
 UP BND  P1_42  99.3854765576
 UP BND  P1_43  99.3854765576
 UP BND  P1_44  99.3854765576
 UP BND  P1_45  99.3854765576
 UP BND  P1_46  99.3854765576
 UP BND  P1_47  99.3854765576
 UP BND  P1_48  99.3854765576
 UP BND  P1_49  99.3854765576
 UP BND  P1_50  99.3854765576
 UP BND  P1_51  99.3854765576
 UP BND  P1_52  99.3854765576
 UP BND  P1_53  99.3854765576
 UP BND  P1_54  99.3854765576
 UP BND  P1_55  99.3854765576
 UP BND  P1_56  99.3854765576
 UP BND  P1_57  99.3854765576
 UP BND  P1_58  99.3854765576
 UP BND  P1_59  99.3854765576
 UP BND  P1_60  99.3854765576
 UP BND  P1_61  99.3854765576
 UP BND  P1_62  99.3854765576
 UP BND  P1_63  99.3854765576
 UP BND  P1_64  99.3854765576
 UP BND  P1_65  99.3854765576
 UP BND  P1_66  99.3854765576
 UP BND  P1_67  99.3854765576
 UP BND  P1_68  99.3854765576
 UP BND  P1_69  99.3854765576
 UP BND  P1_70  99.3854765576
 UP BND  P1_71  99.3854765576
 UP BND  P1_72  99.3854765576
 UP BND  P1_73  99.3854765576
 UP BND  P1_74  99.3854765576
 UP BND  P1_75  99.3854765576
 UP BND  P1_76  99.3854765576
 UP BND  P1_77  99.3854765576
 UP BND  P1_78  99.3854765576
 UP BND  P1_79  99.3854765576
 UP BND  P2_0  61.6222622364
 UP BND  P2_1  61.6222622364
 UP BND  P2_2  61.6222622364
 UP BND  P2_3  61.6222622364
 UP BND  P2_4  61.6222622364
 UP BND  P2_5  61.6222622364
 UP BND  P2_6  61.6222622364
 UP BND  P2_7  61.6222622364
 UP BND  P2_8  61.6222622364
 UP BND  P2_9  61.6222622364
 UP BND  P2_10  61.6222622364
 UP BND  P2_11  61.6222622364
 UP BND  P2_12  61.6222622364
 UP BND  P2_13  61.6222622364
 UP BND  P2_14  61.6222622364
 UP BND  P2_15  61.6222622364
 UP BND  P2_16  61.6222622364
 UP BND  P2_17  61.6222622364
 UP BND  P2_18  61.6222622364
 UP BND  P2_19  61.6222622364
 UP BND  P2_20  61.6222622364
 UP BND  P2_21  61.6222622364
 UP BND  P2_22  61.6222622364
 UP BND  P2_23  61.6222622364
 UP BND  P2_24  61.6222622364
 UP BND  P2_25  61.6222622364
 UP BND  P2_26  61.6222622364
 UP BND  P2_27  61.6222622364
 UP BND  P2_28  61.6222622364
 UP BND  P2_29  61.6222622364
 UP BND  P2_30  61.6222622364
 UP BND  P2_31  61.6222622364
 UP BND  P2_32  61.6222622364
 UP BND  P2_33  61.6222622364
 UP BND  P2_34  61.6222622364
 UP BND  P2_35  61.6222622364
 UP BND  P2_36  61.6222622364
 UP BND  P2_37  61.6222622364
 UP BND  P2_38  61.6222622364
 UP BND  P2_39  61.6222622364
 UP BND  P2_40  61.6222622364
 UP BND  P2_41  61.6222622364
 UP BND  P2_42  61.6222622364
 UP BND  P2_43  61.6222622364
 UP BND  P2_44  61.6222622364
 UP BND  P2_45  61.6222622364
 UP BND  P2_46  61.6222622364
 UP BND  P2_47  61.6222622364
 UP BND  P2_48  61.6222622364
 UP BND  P2_49  61.6222622364
 UP BND  P2_50  61.6222622364
 UP BND  P2_51  61.6222622364
 UP BND  P2_52  61.6222622364
 UP BND  P2_53  61.6222622364
 UP BND  P2_54  61.6222622364
 UP BND  P2_55  61.6222622364
 UP BND  P2_56  61.6222622364
 UP BND  P2_57  61.6222622364
 UP BND  P2_58  61.6222622364
 UP BND  P2_59  61.6222622364
 UP BND  P2_60  61.6222622364
 UP BND  P2_61  61.6222622364
 UP BND  P2_62  61.6222622364
 UP BND  P2_63  61.6222622364
 UP BND  P2_64  61.6222622364
 UP BND  P2_65  61.6222622364
 UP BND  P2_66  61.6222622364
 UP BND  P2_67  61.6222622364
 UP BND  P2_68  61.6222622364
 UP BND  P2_69  61.6222622364
 UP BND  P2_70  61.6222622364
 UP BND  P2_71  61.6222622364
 UP BND  P2_72  61.6222622364
 UP BND  P2_73  61.6222622364
 UP BND  P2_74  61.6222622364
 UP BND  P2_75  61.6222622364
 UP BND  P2_76  61.6222622364
 UP BND  P2_77  61.6222622364
 UP BND  P2_78  61.6222622364
 UP BND  P2_79  61.6222622364
 UP BND  P3_0  90.3934337171
 UP BND  P3_1  90.3934337171
 UP BND  P3_2  90.3934337171
 UP BND  P3_3  90.3934337171
 UP BND  P3_4  90.3934337171
 UP BND  P3_5  90.3934337171
 UP BND  P3_6  90.3934337171
 UP BND  P3_7  90.3934337171
 UP BND  P3_8  90.3934337171
 UP BND  P3_9  90.3934337171
 UP BND  P3_10  90.3934337171
 UP BND  P3_11  90.3934337171
 UP BND  P3_12  90.3934337171
 UP BND  P3_13  90.3934337171
 UP BND  P3_14  90.3934337171
 UP BND  P3_15  90.3934337171
 UP BND  P3_16  90.3934337171
 UP BND  P3_17  90.3934337171
 UP BND  P3_18  90.3934337171
 UP BND  P3_19  90.3934337171
 UP BND  P3_20  90.3934337171
 UP BND  P3_21  90.3934337171
 UP BND  P3_22  90.3934337171
 UP BND  P3_23  90.3934337171
 UP BND  P3_24  90.3934337171
 UP BND  P3_25  90.3934337171
 UP BND  P3_26  90.3934337171
 UP BND  P3_27  90.3934337171
 UP BND  P3_28  90.3934337171
 UP BND  P3_29  90.3934337171
 UP BND  P3_30  90.3934337171
 UP BND  P3_31  90.3934337171
 UP BND  P3_32  90.3934337171
 UP BND  P3_33  90.3934337171
 UP BND  P3_34  90.3934337171
 UP BND  P3_35  90.3934337171
 UP BND  P3_36  90.3934337171
 UP BND  P3_37  90.3934337171
 UP BND  P3_38  90.3934337171
 UP BND  P3_39  90.3934337171
 UP BND  P3_40  90.3934337171
 UP BND  P3_41  90.3934337171
 UP BND  P3_42  90.3934337171
 UP BND  P3_43  90.3934337171
 UP BND  P3_44  90.3934337171
 UP BND  P3_45  90.3934337171
 UP BND  P3_46  90.3934337171
 UP BND  P3_47  90.3934337171
 UP BND  P3_48  90.3934337171
 UP BND  P3_49  90.3934337171
 UP BND  P3_50  90.3934337171
 UP BND  P3_51  90.3934337171
 UP BND  P3_52  90.3934337171
 UP BND  P3_53  90.3934337171
 UP BND  P3_54  90.3934337171
 UP BND  P3_55  90.3934337171
 UP BND  P3_56  90.3934337171
 UP BND  P3_57  90.3934337171
 UP BND  P3_58  90.3934337171
 UP BND  P3_59  90.3934337171
 UP BND  P3_60  90.3934337171
 UP BND  P3_61  90.3934337171
 UP BND  P3_62  90.3934337171
 UP BND  P3_63  90.3934337171
 UP BND  P3_64  90.3934337171
 UP BND  P3_65  90.3934337171
 UP BND  P3_66  90.3934337171
 UP BND  P3_67  90.3934337171
 UP BND  P3_68  90.3934337171
 UP BND  P3_69  90.3934337171
 UP BND  P3_70  90.3934337171
 UP BND  P3_71  90.3934337171
 UP BND  P3_72  90.3934337171
 UP BND  P3_73  90.3934337171
 UP BND  P3_74  90.3934337171
 UP BND  P3_75  90.3934337171
 UP BND  P3_76  90.3934337171
 UP BND  P3_77  90.3934337171
 UP BND  P3_78  90.3934337171
 UP BND  P3_79  90.3934337171
QUADOBJ
    P0_0  P0_0  4.31180930716
    P0_0  P0_1  -4.31180930716
    P0_1  P0_1  8.62361861432
    P0_1  P0_2  -4.31180930716
    P0_2  P0_2  8.62361861432
    P0_2  P0_3  -4.31180930716
    P0_3  P0_3  8.62361861432
    P0_3  P0_4  -4.31180930716
    P0_4  P0_4  8.62361861432
    P0_4  P0_5  -4.31180930716
    P0_5  P0_5  8.62361861432
    P0_5  P0_6  -4.31180930716
    P0_6  P0_6  8.62361861432
    P0_6  P0_7  -4.31180930716
    P0_7  P0_7  8.62361861432
    P0_7  P0_8  -4.31180930716
    P0_8  P0_8  8.62361861432
    P0_8  P0_9  -4.31180930716
    P0_9  P0_9  8.62361861432
    P0_9  P0_10  -4.31180930716
    P0_10  P0_10  8.62361861432
    P0_10  P0_11  -4.31180930716
    P0_11  P0_11  8.62361861432
    P0_11  P0_12  -4.31180930716
    P0_12  P0_12  8.62361861432
    P0_12  P0_13  -4.31180930716
    P0_13  P0_13  8.62361861432
    P0_13  P0_14  -4.31180930716
    P0_14  P0_14  8.62361861432
    P0_14  P0_15  -4.31180930716
    P0_15  P0_15  8.62361861432
    P0_15  P0_16  -4.31180930716
    P0_16  P0_16  8.62361861432
    P0_16  P0_17  -4.31180930716
    P0_17  P0_17  8.62361861432
    P0_17  P0_18  -4.31180930716
    P0_18  P0_18  8.62361861432
    P0_18  P0_19  -4.31180930716
    P0_19  P0_19  8.62361861432
    P0_19  P0_20  -4.31180930716
    P0_20  P0_20  8.62361861432
    P0_20  P0_21  -4.31180930716
    P0_21  P0_21  8.62361861432
    P0_21  P0_22  -4.31180930716
    P0_22  P0_22  8.62361861432
    P0_22  P0_23  -4.31180930716
    P0_23  P0_23  8.62361861432
    P0_23  P0_24  -4.31180930716
    P0_24  P0_24  8.62361861432
    P0_24  P0_25  -4.31180930716
    P0_25  P0_25  8.62361861432
    P0_25  P0_26  -4.31180930716
    P0_26  P0_26  8.62361861432
    P0_26  P0_27  -4.31180930716
    P0_27  P0_27  8.62361861432
    P0_27  P0_28  -4.31180930716
    P0_28  P0_28  8.62361861432
    P0_28  P0_29  -4.31180930716
    P0_29  P0_29  8.62361861432
    P0_29  P0_30  -4.31180930716
    P0_30  P0_30  8.62361861432
    P0_30  P0_31  -4.31180930716
    P0_31  P0_31  8.62361861432
    P0_31  P0_32  -4.31180930716
    P0_32  P0_32  8.62361861432
    P0_32  P0_33  -4.31180930716
    P0_33  P0_33  8.62361861432
    P0_33  P0_34  -4.31180930716
    P0_34  P0_34  8.62361861432
    P0_34  P0_35  -4.31180930716
    P0_35  P0_35  8.62361861432
    P0_35  P0_36  -4.31180930716
    P0_36  P0_36  8.62361861432
    P0_36  P0_37  -4.31180930716
    P0_37  P0_37  8.62361861432
    P0_37  P0_38  -4.31180930716
    P0_38  P0_38  8.62361861432
    P0_38  P0_39  -4.31180930716
    P0_39  P0_39  8.62361861432
    P0_39  P0_40  -4.31180930716
    P0_40  P0_40  8.62361861432
    P0_40  P0_41  -4.31180930716
    P0_41  P0_41  8.62361861432
    P0_41  P0_42  -4.31180930716
    P0_42  P0_42  8.62361861432
    P0_42  P0_43  -4.31180930716
    P0_43  P0_43  8.62361861432
    P0_43  P0_44  -4.31180930716
    P0_44  P0_44  8.62361861432
    P0_44  P0_45  -4.31180930716
    P0_45  P0_45  8.62361861432
    P0_45  P0_46  -4.31180930716
    P0_46  P0_46  8.62361861432
    P0_46  P0_47  -4.31180930716
    P0_47  P0_47  8.62361861432
    P0_47  P0_48  -4.31180930716
    P0_48  P0_48  8.62361861432
    P0_48  P0_49  -4.31180930716
    P0_49  P0_49  8.62361861432
    P0_49  P0_50  -4.31180930716
    P0_50  P0_50  8.62361861432
    P0_50  P0_51  -4.31180930716
    P0_51  P0_51  8.62361861432
    P0_51  P0_52  -4.31180930716
    P0_52  P0_52  8.62361861432
    P0_52  P0_53  -4.31180930716
    P0_53  P0_53  8.62361861432
    P0_53  P0_54  -4.31180930716
    P0_54  P0_54  8.62361861432
    P0_54  P0_55  -4.31180930716
    P0_55  P0_55  8.62361861432
    P0_55  P0_56  -4.31180930716
    P0_56  P0_56  8.62361861432
    P0_56  P0_57  -4.31180930716
    P0_57  P0_57  8.62361861432
    P0_57  P0_58  -4.31180930716
    P0_58  P0_58  8.62361861432
    P0_58  P0_59  -4.31180930716
    P0_59  P0_59  8.62361861432
    P0_59  P0_60  -4.31180930716
    P0_60  P0_60  8.62361861432
    P0_60  P0_61  -4.31180930716
    P0_61  P0_61  8.62361861432
    P0_61  P0_62  -4.31180930716
    P0_62  P0_62  8.62361861432
    P0_62  P0_63  -4.31180930716
    P0_63  P0_63  8.62361861432
    P0_63  P0_64  -4.31180930716
    P0_64  P0_64  8.62361861432
    P0_64  P0_65  -4.31180930716
    P0_65  P0_65  8.62361861432
    P0_65  P0_66  -4.31180930716
    P0_66  P0_66  8.62361861432
    P0_66  P0_67  -4.31180930716
    P0_67  P0_67  8.62361861432
    P0_67  P0_68  -4.31180930716
    P0_68  P0_68  8.62361861432
    P0_68  P0_69  -4.31180930716
    P0_69  P0_69  8.62361861432
    P0_69  P0_70  -4.31180930716
    P0_70  P0_70  8.62361861432
    P0_70  P0_71  -4.31180930716
    P0_71  P0_71  8.62361861432
    P0_71  P0_72  -4.31180930716
    P0_72  P0_72  8.62361861432
    P0_72  P0_73  -4.31180930716
    P0_73  P0_73  8.62361861432
    P0_73  P0_74  -4.31180930716
    P0_74  P0_74  8.62361861432
    P0_74  P0_75  -4.31180930716
    P0_75  P0_75  8.62361861432
    P0_75  P0_76  -4.31180930716
    P0_76  P0_76  8.62361861432
    P0_76  P0_77  -4.31180930716
    P0_77  P0_77  8.62361861432
    P0_77  P0_78  -4.31180930716
    P0_78  P0_78  8.62361861432
    P0_78  P0_79  -4.31180930716
    P0_79  P0_79  4.31180930716
    P1_0  P1_0  4.70736637135
    P1_0  P1_1  -4.70736637135
    P1_1  P1_1  9.4147327427
    P1_1  P1_2  -4.70736637135
    P1_2  P1_2  9.4147327427
    P1_2  P1_3  -4.70736637135
    P1_3  P1_3  9.4147327427
    P1_3  P1_4  -4.70736637135
    P1_4  P1_4  9.4147327427
    P1_4  P1_5  -4.70736637135
    P1_5  P1_5  9.4147327427
    P1_5  P1_6  -4.70736637135
    P1_6  P1_6  9.4147327427
    P1_6  P1_7  -4.70736637135
    P1_7  P1_7  9.4147327427
    P1_7  P1_8  -4.70736637135
    P1_8  P1_8  9.4147327427
    P1_8  P1_9  -4.70736637135
    P1_9  P1_9  9.4147327427
    P1_9  P1_10  -4.70736637135
    P1_10  P1_10  9.4147327427
    P1_10  P1_11  -4.70736637135
    P1_11  P1_11  9.4147327427
    P1_11  P1_12  -4.70736637135
    P1_12  P1_12  9.4147327427
    P1_12  P1_13  -4.70736637135
    P1_13  P1_13  9.4147327427
    P1_13  P1_14  -4.70736637135
    P1_14  P1_14  9.4147327427
    P1_14  P1_15  -4.70736637135
    P1_15  P1_15  9.4147327427
    P1_15  P1_16  -4.70736637135
    P1_16  P1_16  9.4147327427
    P1_16  P1_17  -4.70736637135
    P1_17  P1_17  9.4147327427
    P1_17  P1_18  -4.70736637135
    P1_18  P1_18  9.4147327427
    P1_18  P1_19  -4.70736637135
    P1_19  P1_19  9.4147327427
    P1_19  P1_20  -4.70736637135
    P1_20  P1_20  9.4147327427
    P1_20  P1_21  -4.70736637135
    P1_21  P1_21  9.4147327427
    P1_21  P1_22  -4.70736637135
    P1_22  P1_22  9.4147327427
    P1_22  P1_23  -4.70736637135
    P1_23  P1_23  9.4147327427
    P1_23  P1_24  -4.70736637135
    P1_24  P1_24  9.4147327427
    P1_24  P1_25  -4.70736637135
    P1_25  P1_25  9.4147327427
    P1_25  P1_26  -4.70736637135
    P1_26  P1_26  9.4147327427
    P1_26  P1_27  -4.70736637135
    P1_27  P1_27  9.4147327427
    P1_27  P1_28  -4.70736637135
    P1_28  P1_28  9.4147327427
    P1_28  P1_29  -4.70736637135
    P1_29  P1_29  9.4147327427
    P1_29  P1_30  -4.70736637135
    P1_30  P1_30  9.4147327427
    P1_30  P1_31  -4.70736637135
    P1_31  P1_31  9.4147327427
    P1_31  P1_32  -4.70736637135
    P1_32  P1_32  9.4147327427
    P1_32  P1_33  -4.70736637135
    P1_33  P1_33  9.4147327427
    P1_33  P1_34  -4.70736637135
    P1_34  P1_34  9.4147327427
    P1_34  P1_35  -4.70736637135
    P1_35  P1_35  9.4147327427
    P1_35  P1_36  -4.70736637135
    P1_36  P1_36  9.4147327427
    P1_36  P1_37  -4.70736637135
    P1_37  P1_37  9.4147327427
    P1_37  P1_38  -4.70736637135
    P1_38  P1_38  9.4147327427
    P1_38  P1_39  -4.70736637135
    P1_39  P1_39  9.4147327427
    P1_39  P1_40  -4.70736637135
    P1_40  P1_40  9.4147327427
    P1_40  P1_41  -4.70736637135
    P1_41  P1_41  9.4147327427
    P1_41  P1_42  -4.70736637135
    P1_42  P1_42  9.4147327427
    P1_42  P1_43  -4.70736637135
    P1_43  P1_43  9.4147327427
    P1_43  P1_44  -4.70736637135
    P1_44  P1_44  9.4147327427
    P1_44  P1_45  -4.70736637135
    P1_45  P1_45  9.4147327427
    P1_45  P1_46  -4.70736637135
    P1_46  P1_46  9.4147327427
    P1_46  P1_47  -4.70736637135
    P1_47  P1_47  9.4147327427
    P1_47  P1_48  -4.70736637135
    P1_48  P1_48  9.4147327427
    P1_48  P1_49  -4.70736637135
    P1_49  P1_49  9.4147327427
    P1_49  P1_50  -4.70736637135
    P1_50  P1_50  9.4147327427
    P1_50  P1_51  -4.70736637135
    P1_51  P1_51  9.4147327427
    P1_51  P1_52  -4.70736637135
    P1_52  P1_52  9.4147327427
    P1_52  P1_53  -4.70736637135
    P1_53  P1_53  9.4147327427
    P1_53  P1_54  -4.70736637135
    P1_54  P1_54  9.4147327427
    P1_54  P1_55  -4.70736637135
    P1_55  P1_55  9.4147327427
    P1_55  P1_56  -4.70736637135
    P1_56  P1_56  9.4147327427
    P1_56  P1_57  -4.70736637135
    P1_57  P1_57  9.4147327427
    P1_57  P1_58  -4.70736637135
    P1_58  P1_58  9.4147327427
    P1_58  P1_59  -4.70736637135
    P1_59  P1_59  9.4147327427
    P1_59  P1_60  -4.70736637135
    P1_60  P1_60  9.4147327427
    P1_60  P1_61  -4.70736637135
    P1_61  P1_61  9.4147327427
    P1_61  P1_62  -4.70736637135
    P1_62  P1_62  9.4147327427
    P1_62  P1_63  -4.70736637135
    P1_63  P1_63  9.4147327427
    P1_63  P1_64  -4.70736637135
    P1_64  P1_64  9.4147327427
    P1_64  P1_65  -4.70736637135
    P1_65  P1_65  9.4147327427
    P1_65  P1_66  -4.70736637135
    P1_66  P1_66  9.4147327427
    P1_66  P1_67  -4.70736637135
    P1_67  P1_67  9.4147327427
    P1_67  P1_68  -4.70736637135
    P1_68  P1_68  9.4147327427
    P1_68  P1_69  -4.70736637135
    P1_69  P1_69  9.4147327427
    P1_69  P1_70  -4.70736637135
    P1_70  P1_70  9.4147327427
    P1_70  P1_71  -4.70736637135
    P1_71  P1_71  9.4147327427
    P1_71  P1_72  -4.70736637135
    P1_72  P1_72  9.4147327427
    P1_72  P1_73  -4.70736637135
    P1_73  P1_73  9.4147327427
    P1_73  P1_74  -4.70736637135
    P1_74  P1_74  9.4147327427
    P1_74  P1_75  -4.70736637135
    P1_75  P1_75  9.4147327427
    P1_75  P1_76  -4.70736637135
    P1_76  P1_76  9.4147327427
    P1_76  P1_77  -4.70736637135
    P1_77  P1_77  9.4147327427
    P1_77  P1_78  -4.70736637135
    P1_78  P1_78  9.4147327427
    P1_78  P1_79  -4.70736637135
    P1_79  P1_79  4.70736637135
    P2_0  P2_0  4.36978360186
    P2_0  P2_1  -4.36978360186
    P2_1  P2_1  8.73956720372
    P2_1  P2_2  -4.36978360186
    P2_2  P2_2  8.73956720372
    P2_2  P2_3  -4.36978360186
    P2_3  P2_3  8.73956720372
    P2_3  P2_4  -4.36978360186
    P2_4  P2_4  8.73956720372
    P2_4  P2_5  -4.36978360186
    P2_5  P2_5  8.73956720372
    P2_5  P2_6  -4.36978360186
    P2_6  P2_6  8.73956720372
    P2_6  P2_7  -4.36978360186
    P2_7  P2_7  8.73956720372
    P2_7  P2_8  -4.36978360186
    P2_8  P2_8  8.73956720372
    P2_8  P2_9  -4.36978360186
    P2_9  P2_9  8.73956720372
    P2_9  P2_10  -4.36978360186
    P2_10  P2_10  8.73956720372
    P2_10  P2_11  -4.36978360186
    P2_11  P2_11  8.73956720372
    P2_11  P2_12  -4.36978360186
    P2_12  P2_12  8.73956720372
    P2_12  P2_13  -4.36978360186
    P2_13  P2_13  8.73956720372
    P2_13  P2_14  -4.36978360186
    P2_14  P2_14  8.73956720372
    P2_14  P2_15  -4.36978360186
    P2_15  P2_15  8.73956720372
    P2_15  P2_16  -4.36978360186
    P2_16  P2_16  8.73956720372
    P2_16  P2_17  -4.36978360186
    P2_17  P2_17  8.73956720372
    P2_17  P2_18  -4.36978360186
    P2_18  P2_18  8.73956720372
    P2_18  P2_19  -4.36978360186
    P2_19  P2_19  8.73956720372
    P2_19  P2_20  -4.36978360186
    P2_20  P2_20  8.73956720372
    P2_20  P2_21  -4.36978360186
    P2_21  P2_21  8.73956720372
    P2_21  P2_22  -4.36978360186
    P2_22  P2_22  8.73956720372
    P2_22  P2_23  -4.36978360186
    P2_23  P2_23  8.73956720372
    P2_23  P2_24  -4.36978360186
    P2_24  P2_24  8.73956720372
    P2_24  P2_25  -4.36978360186
    P2_25  P2_25  8.73956720372
    P2_25  P2_26  -4.36978360186
    P2_26  P2_26  8.73956720372
    P2_26  P2_27  -4.36978360186
    P2_27  P2_27  8.73956720372
    P2_27  P2_28  -4.36978360186
    P2_28  P2_28  8.73956720372
    P2_28  P2_29  -4.36978360186
    P2_29  P2_29  8.73956720372
    P2_29  P2_30  -4.36978360186
    P2_30  P2_30  8.73956720372
    P2_30  P2_31  -4.36978360186
    P2_31  P2_31  8.73956720372
    P2_31  P2_32  -4.36978360186
    P2_32  P2_32  8.73956720372
    P2_32  P2_33  -4.36978360186
    P2_33  P2_33  8.73956720372
    P2_33  P2_34  -4.36978360186
    P2_34  P2_34  8.73956720372
    P2_34  P2_35  -4.36978360186
    P2_35  P2_35  8.73956720372
    P2_35  P2_36  -4.36978360186
    P2_36  P2_36  8.73956720372
    P2_36  P2_37  -4.36978360186
    P2_37  P2_37  8.73956720372
    P2_37  P2_38  -4.36978360186
    P2_38  P2_38  8.73956720372
    P2_38  P2_39  -4.36978360186
    P2_39  P2_39  8.73956720372
    P2_39  P2_40  -4.36978360186
    P2_40  P2_40  8.73956720372
    P2_40  P2_41  -4.36978360186
    P2_41  P2_41  8.73956720372
    P2_41  P2_42  -4.36978360186
    P2_42  P2_42  8.73956720372
    P2_42  P2_43  -4.36978360186
    P2_43  P2_43  8.73956720372
    P2_43  P2_44  -4.36978360186
    P2_44  P2_44  8.73956720372
    P2_44  P2_45  -4.36978360186
    P2_45  P2_45  8.73956720372
    P2_45  P2_46  -4.36978360186
    P2_46  P2_46  8.73956720372
    P2_46  P2_47  -4.36978360186
    P2_47  P2_47  8.73956720372
    P2_47  P2_48  -4.36978360186
    P2_48  P2_48  8.73956720372
    P2_48  P2_49  -4.36978360186
    P2_49  P2_49  8.73956720372
    P2_49  P2_50  -4.36978360186
    P2_50  P2_50  8.73956720372
    P2_50  P2_51  -4.36978360186
    P2_51  P2_51  8.73956720372
    P2_51  P2_52  -4.36978360186
    P2_52  P2_52  8.73956720372
    P2_52  P2_53  -4.36978360186
    P2_53  P2_53  8.73956720372
    P2_53  P2_54  -4.36978360186
    P2_54  P2_54  8.73956720372
    P2_54  P2_55  -4.36978360186
    P2_55  P2_55  8.73956720372
    P2_55  P2_56  -4.36978360186
    P2_56  P2_56  8.73956720372
    P2_56  P2_57  -4.36978360186
    P2_57  P2_57  8.73956720372
    P2_57  P2_58  -4.36978360186
    P2_58  P2_58  8.73956720372
    P2_58  P2_59  -4.36978360186
    P2_59  P2_59  8.73956720372
    P2_59  P2_60  -4.36978360186
    P2_60  P2_60  8.73956720372
    P2_60  P2_61  -4.36978360186
    P2_61  P2_61  8.73956720372
    P2_61  P2_62  -4.36978360186
    P2_62  P2_62  8.73956720372
    P2_62  P2_63  -4.36978360186
    P2_63  P2_63  8.73956720372
    P2_63  P2_64  -4.36978360186
    P2_64  P2_64  8.73956720372
    P2_64  P2_65  -4.36978360186
    P2_65  P2_65  8.73956720372
    P2_65  P2_66  -4.36978360186
    P2_66  P2_66  8.73956720372
    P2_66  P2_67  -4.36978360186
    P2_67  P2_67  8.73956720372
    P2_67  P2_68  -4.36978360186
    P2_68  P2_68  8.73956720372
    P2_68  P2_69  -4.36978360186
    P2_69  P2_69  8.73956720372
    P2_69  P2_70  -4.36978360186
    P2_70  P2_70  8.73956720372
    P2_70  P2_71  -4.36978360186
    P2_71  P2_71  8.73956720372
    P2_71  P2_72  -4.36978360186
    P2_72  P2_72  8.73956720372
    P2_72  P2_73  -4.36978360186
    P2_73  P2_73  8.73956720372
    P2_73  P2_74  -4.36978360186
    P2_74  P2_74  8.73956720372
    P2_74  P2_75  -4.36978360186
    P2_75  P2_75  8.73956720372
    P2_75  P2_76  -4.36978360186
    P2_76  P2_76  8.73956720372
    P2_76  P2_77  -4.36978360186
    P2_77  P2_77  8.73956720372
    P2_77  P2_78  -4.36978360186
    P2_78  P2_78  8.73956720372
    P2_78  P2_79  -4.36978360186
    P2_79  P2_79  4.36978360186
    P3_0  P3_0  2.56436785384
    P3_0  P3_1  -2.56436785384
    P3_1  P3_1  5.12873570768
    P3_1  P3_2  -2.56436785384
    P3_2  P3_2  5.12873570768
    P3_2  P3_3  -2.56436785384
    P3_3  P3_3  5.12873570768
    P3_3  P3_4  -2.56436785384
    P3_4  P3_4  5.12873570768
    P3_4  P3_5  -2.56436785384
    P3_5  P3_5  5.12873570768
    P3_5  P3_6  -2.56436785384
    P3_6  P3_6  5.12873570768
    P3_6  P3_7  -2.56436785384
    P3_7  P3_7  5.12873570768
    P3_7  P3_8  -2.56436785384
    P3_8  P3_8  5.12873570768
    P3_8  P3_9  -2.56436785384
    P3_9  P3_9  5.12873570768
    P3_9  P3_10  -2.56436785384
    P3_10  P3_10  5.12873570768
    P3_10  P3_11  -2.56436785384
    P3_11  P3_11  5.12873570768
    P3_11  P3_12  -2.56436785384
    P3_12  P3_12  5.12873570768
    P3_12  P3_13  -2.56436785384
    P3_13  P3_13  5.12873570768
    P3_13  P3_14  -2.56436785384
    P3_14  P3_14  5.12873570768
    P3_14  P3_15  -2.56436785384
    P3_15  P3_15  5.12873570768
    P3_15  P3_16  -2.56436785384
    P3_16  P3_16  5.12873570768
    P3_16  P3_17  -2.56436785384
    P3_17  P3_17  5.12873570768
    P3_17  P3_18  -2.56436785384
    P3_18  P3_18  5.12873570768
    P3_18  P3_19  -2.56436785384
    P3_19  P3_19  5.12873570768
    P3_19  P3_20  -2.56436785384
    P3_20  P3_20  5.12873570768
    P3_20  P3_21  -2.56436785384
    P3_21  P3_21  5.12873570768
    P3_21  P3_22  -2.56436785384
    P3_22  P3_22  5.12873570768
    P3_22  P3_23  -2.56436785384
    P3_23  P3_23  5.12873570768
    P3_23  P3_24  -2.56436785384
    P3_24  P3_24  5.12873570768
    P3_24  P3_25  -2.56436785384
    P3_25  P3_25  5.12873570768
    P3_25  P3_26  -2.56436785384
    P3_26  P3_26  5.12873570768
    P3_26  P3_27  -2.56436785384
    P3_27  P3_27  5.12873570768
    P3_27  P3_28  -2.56436785384
    P3_28  P3_28  5.12873570768
    P3_28  P3_29  -2.56436785384
    P3_29  P3_29  5.12873570768
    P3_29  P3_30  -2.56436785384
    P3_30  P3_30  5.12873570768
    P3_30  P3_31  -2.56436785384
    P3_31  P3_31  5.12873570768
    P3_31  P3_32  -2.56436785384
    P3_32  P3_32  5.12873570768
    P3_32  P3_33  -2.56436785384
    P3_33  P3_33  5.12873570768
    P3_33  P3_34  -2.56436785384
    P3_34  P3_34  5.12873570768
    P3_34  P3_35  -2.56436785384
    P3_35  P3_35  5.12873570768
    P3_35  P3_36  -2.56436785384
    P3_36  P3_36  5.12873570768
    P3_36  P3_37  -2.56436785384
    P3_37  P3_37  5.12873570768
    P3_37  P3_38  -2.56436785384
    P3_38  P3_38  5.12873570768
    P3_38  P3_39  -2.56436785384
    P3_39  P3_39  5.12873570768
    P3_39  P3_40  -2.56436785384
    P3_40  P3_40  5.12873570768
    P3_40  P3_41  -2.56436785384
    P3_41  P3_41  5.12873570768
    P3_41  P3_42  -2.56436785384
    P3_42  P3_42  5.12873570768
    P3_42  P3_43  -2.56436785384
    P3_43  P3_43  5.12873570768
    P3_43  P3_44  -2.56436785384
    P3_44  P3_44  5.12873570768
    P3_44  P3_45  -2.56436785384
    P3_45  P3_45  5.12873570768
    P3_45  P3_46  -2.56436785384
    P3_46  P3_46  5.12873570768
    P3_46  P3_47  -2.56436785384
    P3_47  P3_47  5.12873570768
    P3_47  P3_48  -2.56436785384
    P3_48  P3_48  5.12873570768
    P3_48  P3_49  -2.56436785384
    P3_49  P3_49  5.12873570768
    P3_49  P3_50  -2.56436785384
    P3_50  P3_50  5.12873570768
    P3_50  P3_51  -2.56436785384
    P3_51  P3_51  5.12873570768
    P3_51  P3_52  -2.56436785384
    P3_52  P3_52  5.12873570768
    P3_52  P3_53  -2.56436785384
    P3_53  P3_53  5.12873570768
    P3_53  P3_54  -2.56436785384
    P3_54  P3_54  5.12873570768
    P3_54  P3_55  -2.56436785384
    P3_55  P3_55  5.12873570768
    P3_55  P3_56  -2.56436785384
    P3_56  P3_56  5.12873570768
    P3_56  P3_57  -2.56436785384
    P3_57  P3_57  5.12873570768
    P3_57  P3_58  -2.56436785384
    P3_58  P3_58  5.12873570768
    P3_58  P3_59  -2.56436785384
    P3_59  P3_59  5.12873570768
    P3_59  P3_60  -2.56436785384
    P3_60  P3_60  5.12873570768
    P3_60  P3_61  -2.56436785384
    P3_61  P3_61  5.12873570768
    P3_61  P3_62  -2.56436785384
    P3_62  P3_62  5.12873570768
    P3_62  P3_63  -2.56436785384
    P3_63  P3_63  5.12873570768
    P3_63  P3_64  -2.56436785384
    P3_64  P3_64  5.12873570768
    P3_64  P3_65  -2.56436785384
    P3_65  P3_65  5.12873570768
    P3_65  P3_66  -2.56436785384
    P3_66  P3_66  5.12873570768
    P3_66  P3_67  -2.56436785384
    P3_67  P3_67  5.12873570768
    P3_67  P3_68  -2.56436785384
    P3_68  P3_68  5.12873570768
    P3_68  P3_69  -2.56436785384
    P3_69  P3_69  5.12873570768
    P3_69  P3_70  -2.56436785384
    P3_70  P3_70  5.12873570768
    P3_70  P3_71  -2.56436785384
    P3_71  P3_71  5.12873570768
    P3_71  P3_72  -2.56436785384
    P3_72  P3_72  5.12873570768
    P3_72  P3_73  -2.56436785384
    P3_73  P3_73  5.12873570768
    P3_73  P3_74  -2.56436785384
    P3_74  P3_74  5.12873570768
    P3_74  P3_75  -2.56436785384
    P3_75  P3_75  5.12873570768
    P3_75  P3_76  -2.56436785384
    P3_76  P3_76  5.12873570768
    P3_76  P3_77  -2.56436785384
    P3_77  P3_77  5.12873570768
    P3_77  P3_78  -2.56436785384
    P3_78  P3_78  5.12873570768
    P3_78  P3_79  -2.56436785384
    P3_79  P3_79  2.56436785384
ENDATA
