NAME          RSCH0
ROWS
 N  COST
 E  ASG0_0
 E  ASG0_1
 E  ASG0_2
 E  ASG0_3
 E  ASG0_4
 E  ASG0_5
 E  ASG0_6
 E  ASG0_7
 E  ASG1_0
 E  ASG1_1
 E  ASG1_2
 E  ASG1_3
 E  ASG1_4
 E  ASG1_5
 E  ASG1_6
 E  ASG1_7
 E  ASG2_0
 E  ASG2_1
 E  ASG2_2
 E  ASG2_3
 E  ASG2_4
 E  ASG2_5
 E  ASG2_6
 E  ASG2_7
 E  ASG3_0
 E  ASG3_1
 E  ASG3_2
 E  ASG3_3
 E  ASG3_4
 E  ASG3_5
 E  ASG3_6
 E  ASG3_7
 L  UB0_0_0
 L  UB0_0_1
 L  UB0_0_2
 L  UB0_0_3
 L  UB0_0_4
 L  UB0_0_5
 L  UB0_0_6
 L  UB0_0_7
 L  UB0_1_0
 G  LB0_1_0
 L  UB0_1_1
 G  LB0_1_1
 L  UB0_1_2
 G  LB0_1_2
 L  UB0_1_3
 G  LB0_1_3
 L  UB0_1_4
 G  LB0_1_4
 L  UB0_1_5
 G  LB0_1_5
 L  UB0_1_6
 G  LB0_1_6
 L  UB0_1_7
 G  LB0_1_7
 L  UB0_2_0
 G  LB0_2_0
 L  UB0_2_1
 G  LB0_2_1
 L  UB0_2_2
 G  LB0_2_2
 L  UB0_2_3
 G  LB0_2_3
 L  UB0_2_4
 G  LB0_2_4
 L  UB0_2_5
 G  LB0_2_5
 L  UB0_2_6
 G  LB0_2_6
 L  UB0_2_7
 G  LB0_2_7
 L  UB1_0_0
 L  UB1_0_1
 L  UB1_0_2
 L  UB1_0_3
 L  UB1_0_4
 L  UB1_0_5
 L  UB1_0_6
 L  UB1_0_7
 L  UB1_1_0
 G  LB1_1_0
 L  UB1_1_1
 G  LB1_1_1
 L  UB1_1_2
 G  LB1_1_2
 L  UB1_1_3
 G  LB1_1_3
 L  UB1_1_4
 G  LB1_1_4
 L  UB1_1_5
 G  LB1_1_5
 L  UB1_1_6
 G  LB1_1_6
 L  UB1_1_7
 G  LB1_1_7
 L  UB1_2_0
 G  LB1_2_0
 L  UB1_2_1
 G  LB1_2_1
 L  UB1_2_2
 G  LB1_2_2
 L  UB1_2_3
 G  LB1_2_3
 L  UB1_2_4
 G  LB1_2_4
 L  UB1_2_5
 G  LB1_2_5
 L  UB1_2_6
 G  LB1_2_6
 L  UB1_2_7
 G  LB1_2_7
 L  UB2_0_0
 L  UB2_0_1
 L  UB2_0_2
 L  UB2_0_3
 L  UB2_0_4
 L  UB2_0_5
 L  UB2_0_6
 L  UB2_0_7
 L  UB2_1_0
 G  LB2_1_0
 L  UB2_1_1
 G  LB2_1_1
 L  UB2_1_2
 G  LB2_1_2
 L  UB2_1_3
 G  LB2_1_3
 L  UB2_1_4
 G  LB2_1_4
 L  UB2_1_5
 G  LB2_1_5
 L  UB2_1_6
 G  LB2_1_6
 L  UB2_1_7
 G  LB2_1_7
 L  UB2_2_0
 G  LB2_2_0
 L  UB2_2_1
 G  LB2_2_1
 L  UB2_2_2
 G  LB2_2_2
 L  UB2_2_3
 G  LB2_2_3
 L  UB2_2_4
 G  LB2_2_4
 L  UB2_2_5
 G  LB2_2_5
 L  UB2_2_6
 G  LB2_2_6
 L  UB2_2_7
 G  LB2_2_7
 L  UB3_0_0
 L  UB3_0_1
 L  UB3_0_2
 L  UB3_0_3
 L  UB3_0_4
 L  UB3_0_5
 L  UB3_0_6
 L  UB3_0_7
 L  UB3_1_0
 G  LB3_1_0
 L  UB3_1_1
 G  LB3_1_1
 L  UB3_1_2
 G  LB3_1_2
 L  UB3_1_3
 G  LB3_1_3
 L  UB3_1_4
 G  LB3_1_4
 L  UB3_1_5
 G  LB3_1_5
 L  UB3_1_6
 G  LB3_1_6
 L  UB3_1_7
 G  LB3_1_7
 L  UB3_2_0
 G  LB3_2_0
 L  UB3_2_1
 G  LB3_2_1
 L  UB3_2_2
 G  LB3_2_2
 L  UB3_2_3
 G  LB3_2_3
 L  UB3_2_4
 G  LB3_2_4
 L  UB3_2_5
 G  LB3_2_5
 L  UB3_2_6
 G  LB3_2_6
 L  UB3_2_7
 G  LB3_2_7
 L  CH0_0_0
 L  CH0_0_1
 L  CH0_0_2
 L  CH0_0_3
 L  CH0_0_4
 L  CH0_0_5
 L  CH0_0_6
 L  CH0_0_7
 L  CH0_1_0
 L  CH0_1_1
 L  CH0_1_2
 L  CH0_1_3
 L  CH0_1_4
 L  CH0_1_5
 L  CH0_1_6
 L  CH0_1_7
 L  CH0_2_0
 L  CH0_2_1
 L  CH0_2_2
 L  CH0_2_3
 L  CH0_2_4
 L  CH0_2_5
 L  CH0_2_6
 L  CH0_2_7
 L  CH1_0_0
 L  CH1_0_1
 L  CH1_0_2
 L  CH1_0_3
 L  CH1_0_4
 L  CH1_0_5
 L  CH1_0_6
 L  CH1_0_7
 L  CH1_1_0
 L  CH1_1_1
 L  CH1_1_2
 L  CH1_1_3
 L  CH1_1_4
 L  CH1_1_5
 L  CH1_1_6
 L  CH1_1_7
 L  CH1_2_0
 L  CH1_2_1
 L  CH1_2_2
 L  CH1_2_3
 L  CH1_2_4
 L  CH1_2_5
 L  CH1_2_6
 L  CH1_2_7
 L  CH2_0_0
 L  CH2_0_1
 L  CH2_0_2
 L  CH2_0_3
 L  CH2_0_4
 L  CH2_0_5
 L  CH2_0_6
 L  CH2_0_7
 L  CH2_1_0
 L  CH2_1_1
 L  CH2_1_2
 L  CH2_1_3
 L  CH2_1_4
 L  CH2_1_5
 L  CH2_1_6
 L  CH2_1_7
 L  CH2_2_0
 L  CH2_2_1
 L  CH2_2_2
 L  CH2_2_3
 L  CH2_2_4
 L  CH2_2_5
 L  CH2_2_6
 L  CH2_2_7
 L  CH3_0_0
 L  CH3_0_1
 L  CH3_0_2
 L  CH3_0_3
 L  CH3_0_4
 L  CH3_0_5
 L  CH3_0_6
 L  CH3_0_7
 L  CH3_1_0
 L  CH3_1_1
 L  CH3_1_2
 L  CH3_1_3
 L  CH3_1_4
 L  CH3_1_5
 L  CH3_1_6
 L  CH3_1_7
 L  CH3_2_0
 L  CH3_2_1
 L  CH3_2_2
 L  CH3_2_3
 L  CH3_2_4
 L  CH3_2_5
 L  CH3_2_6
 L  CH3_2_7
 G  MR0_1_0
 G  MR0_1_1
 G  MR0_1_2
 G  MR0_1_3
 G  MR0_1_4
 G  MR0_1_5
 G  MR0_1_6
 G  MR0_2_0
 G  MR0_2_1
 G  MR0_2_2
 G  MR0_2_3
 G  MR0_2_4
 G  MR0_2_5
 G  MR0_2_6
 G  MR1_1_0
 G  MR1_1_1
 G  MR1_1_2
 G  MR1_1_3
 G  MR1_1_4
 G  MR1_1_5
 G  MR1_1_6
 G  MR1_2_0
 G  MR1_2_1
 G  MR1_2_2
 G  MR1_2_3
 G  MR1_2_4
 G  MR1_2_5
 G  MR1_2_6
 G  MR2_1_0
 G  MR2_1_1
 G  MR2_1_2
 G  MR2_1_3
 G  MR2_1_4
 G  MR2_1_5
 G  MR2_1_6
 G  MR2_2_0
 G  MR2_2_1
 G  MR2_2_2
 G  MR2_2_3
 G  MR2_2_4
 G  MR2_2_5
 G  MR2_2_6
 G  MR3_1_0
 G  MR3_1_1
 G  MR3_1_2
 G  MR3_1_3
 G  MR3_1_4
 G  MR3_1_5
 G  MR3_1_6
 G  MR3_2_0
 G  MR3_2_1
 G  MR3_2_2
 G  MR3_2_3
 G  MR3_2_4
 G  MR3_2_5
 G  MR3_2_6
 E  BAL0_0
 E  BAL0_1
 E  BAL0_2
 E  BAL0_3
 E  BAL0_4
 E  BAL0_5
 E  BAL0_6
 E  BAL0_7
 E  BAL1_0
 E  BAL1_1
 E  BAL1_2
 E  BAL1_3
 E  BAL1_4
 E  BAL1_5
 E  BAL1_6
 E  BAL1_7
 E  BAL2_0
 E  BAL2_1
 E  BAL2_2
 E  BAL2_3
 E  BAL2_4
 E  BAL2_5
 E  BAL2_6
 E  BAL2_7
 E  BAL3_0
 E  BAL3_1
 E  BAL3_2
 E  BAL3_3
 E  BAL3_4
 E  BAL3_5
 E  BAL3_6
 E  BAL3_7
 E  BAL4_0
 E  BAL4_1
 E  BAL4_2
 E  BAL4_3
 E  BAL4_4
 E  BAL4_5
 E  BAL4_6
 E  BAL4_7
 E  BAL5_0
 E  BAL5_1
 E  BAL5_2
 E  BAL5_3
 E  BAL5_4
 E  BAL5_5
 E  BAL5_6
 E  BAL5_7
 E  BAL6_0
 E  BAL6_1
 E  BAL6_2
 E  BAL6_3
 E  BAL6_4
 E  BAL6_5
 E  BAL6_6
 E  BAL6_7
 E  BAL7_0
 E  BAL7_1
 E  BAL7_2
 E  BAL7_3
 E  BAL7_4
 E  BAL7_5
 E  BAL7_6
 E  BAL7_7
 E  BAL8_0
 E  BAL8_1
 E  BAL8_2
 E  BAL8_3
 E  BAL8_4
 E  BAL8_5
 E  BAL8_6
 E  BAL8_7
 E  DEM0_0
 E  DEM0_1
 E  DEM0_2
 E  DEM0_3
 E  DEM0_4
 E  DEM0_5
 E  DEM0_6
 E  DEM0_7
 E  DEM1_0
 E  DEM1_1
 E  DEM1_2
 E  DEM1_3
 E  DEM1_4
 E  DEM1_5
 E  DEM1_6
 E  DEM1_7
 E  DEM2_0
 E  DEM2_1
 E  DEM2_2
 E  DEM2_3
 E  DEM2_4
 E  DEM2_5
 E  DEM2_6
 E  DEM2_7
COLUMNS
    MARKER0  'MARKER'  'INTORG'
    Y0_0_0  ASG0_0  1
    Y0_0_0  CH0_0_0  1
    Y0_0_0  CH0_0_1  -1
    Z0_0_0  CH0_0_0  -1
    MARKER1  'MARKER'  'INTEND'
    F0_0_0  UB0_0_0  1
    MARKER2  'MARKER'  'INTORG'
    Y0_0_1  ASG0_1  1
    Y0_0_1  CH0_0_1  1
    Y0_0_1  CH0_0_2  -1
    Z0_0_1  CH0_0_1  -1
    MARKER3  'MARKER'  'INTEND'
    F0_0_1  UB0_0_1  1
    MARKER4  'MARKER'  'INTORG'
    Y0_0_2  ASG0_2  1
    Y0_0_2  CH0_0_2  1
    Y0_0_2  CH0_0_3  -1
    Z0_0_2  CH0_0_2  -1
    MARKER5  'MARKER'  'INTEND'
    F0_0_2  UB0_0_2  1
    MARKER6  'MARKER'  'INTORG'
    Y0_0_3  ASG0_3  1
    Y0_0_3  CH0_0_3  1
    Y0_0_3  CH0_0_4  -1
    Z0_0_3  CH0_0_3  -1
    MARKER7  'MARKER'  'INTEND'
    F0_0_3  UB0_0_3  1
    MARKER8  'MARKER'  'INTORG'
    Y0_0_4  ASG0_4  1
    Y0_0_4  CH0_0_4  1
    Y0_0_4  CH0_0_5  -1
    Z0_0_4  CH0_0_4  -1
    MARKER9  'MARKER'  'INTEND'
    F0_0_4  UB0_0_4  1
    MARKER10  'MARKER'  'INTORG'
    Y0_0_5  ASG0_5  1
    Y0_0_5  CH0_0_5  1
    Y0_0_5  CH0_0_6  -1
    Z0_0_5  CH0_0_5  -1
    MARKER11  'MARKER'  'INTEND'
    F0_0_5  UB0_0_5  1
    MARKER12  'MARKER'  'INTORG'
    Y0_0_6  ASG0_6  1
    Y0_0_6  CH0_0_6  1
    Y0_0_6  CH0_0_7  -1
    Z0_0_6  CH0_0_6  -1
    MARKER13  'MARKER'  'INTEND'
    F0_0_6  UB0_0_6  1
    MARKER14  'MARKER'  'INTORG'
    Y0_0_7  ASG0_7  1
    Y0_0_7  CH0_0_7  1
    Z0_0_7  CH0_0_7  -1
    MARKER15  'MARKER'  'INTEND'
    F0_0_7  UB0_0_7  1
    MARKER16  'MARKER'  'INTORG'
    Y0_1_0  ASG0_0  1
    Y0_1_0  UB0_1_0  -184.655438014
    Y0_1_0  LB0_1_0  -100.159220159
    Y0_1_0  CH0_1_0  1
    Y0_1_0  CH0_1_1  -1
    Y0_1_0  MR0_1_0  1
    Z0_1_0  COST  1698.92475933
    Z0_1_0  CH0_1_0  -1
    Z0_1_0  MR0_1_0  -2
    MARKER17  'MARKER'  'INTEND'
    F0_1_0  COST  7.11923934532
    F0_1_0  UB0_1_0  1
    F0_1_0  LB0_1_0  1
    F0_1_0  BAL1_0  -1
    F0_1_0  BAL2_0  0.0669456131735
    F0_1_0  BAL3_0  0.146384576334
    F0_1_0  BAL4_0  0.530521196346
    F0_1_0  BAL5_0  0.207219124775
    MARKER18  'MARKER'  'INTORG'
    Y0_1_1  ASG0_1  1
    Y0_1_1  UB0_1_1  -184.655438014
    Y0_1_1  LB0_1_1  -100.159220159
    Y0_1_1  CH0_1_1  1
    Y0_1_1  CH0_1_2  -1
    Y0_1_1  MR0_1_0  1
    Y0_1_1  MR0_1_1  1
    Z0_1_1  COST  1698.92475933
    Z0_1_1  CH0_1_1  -1
    Z0_1_1  MR0_1_1  -2
    MARKER19  'MARKER'  'INTEND'
    F0_1_1  COST  7.11923934532
    F0_1_1  UB0_1_1  1
    F0_1_1  LB0_1_1  1
    F0_1_1  BAL1_1  -1
    F0_1_1  BAL2_1  0.0669456131735
    F0_1_1  BAL3_1  0.146384576334
    F0_1_1  BAL4_1  0.530521196346
    F0_1_1  BAL5_1  0.207219124775
    MARKER20  'MARKER'  'INTORG'
    Y0_1_2  ASG0_2  1
    Y0_1_2  UB0_1_2  -184.655438014
    Y0_1_2  LB0_1_2  -100.159220159
    Y0_1_2  CH0_1_2  1
    Y0_1_2  CH0_1_3  -1
    Y0_1_2  MR0_1_1  1
    Y0_1_2  MR0_1_2  1
    Z0_1_2  COST  1698.92475933
    Z0_1_2  CH0_1_2  -1
    Z0_1_2  MR0_1_2  -2
    MARKER21  'MARKER'  'INTEND'
    F0_1_2  COST  7.11923934532
    F0_1_2  UB0_1_2  1
    F0_1_2  LB0_1_2  1
    F0_1_2  BAL1_2  -1
    F0_1_2  BAL2_2  0.0669456131735
    F0_1_2  BAL3_2  0.146384576334
    F0_1_2  BAL4_2  0.530521196346
    F0_1_2  BAL5_2  0.207219124775
    MARKER22  'MARKER'  'INTORG'
    Y0_1_3  ASG0_3  1
    Y0_1_3  UB0_1_3  -184.655438014
    Y0_1_3  LB0_1_3  -100.159220159
    Y0_1_3  CH0_1_3  1
    Y0_1_3  CH0_1_4  -1
    Y0_1_3  MR0_1_2  1
    Y0_1_3  MR0_1_3  1
    Z0_1_3  COST  1698.92475933
    Z0_1_3  CH0_1_3  -1
    Z0_1_3  MR0_1_3  -2
    MARKER23  'MARKER'  'INTEND'
    F0_1_3  COST  7.11923934532
    F0_1_3  UB0_1_3  1
    F0_1_3  LB0_1_3  1
    F0_1_3  BAL1_3  -1
    F0_1_3  BAL2_3  0.0669456131735
    F0_1_3  BAL3_3  0.146384576334
    F0_1_3  BAL4_3  0.530521196346
    F0_1_3  BAL5_3  0.207219124775
    MARKER24  'MARKER'  'INTORG'
    Y0_1_4  ASG0_4  1
    Y0_1_4  UB0_1_4  -184.655438014
    Y0_1_4  LB0_1_4  -100.159220159
    Y0_1_4  CH0_1_4  1
    Y0_1_4  CH0_1_5  -1
    Y0_1_4  MR0_1_3  1
    Y0_1_4  MR0_1_4  1
    Z0_1_4  COST  1698.92475933
    Z0_1_4  CH0_1_4  -1
    Z0_1_4  MR0_1_4  -2
    MARKER25  'MARKER'  'INTEND'
    F0_1_4  COST  7.11923934532
    F0_1_4  UB0_1_4  1
    F0_1_4  LB0_1_4  1
    F0_1_4  BAL1_4  -1
    F0_1_4  BAL2_4  0.0669456131735
    F0_1_4  BAL3_4  0.146384576334
    F0_1_4  BAL4_4  0.530521196346
    F0_1_4  BAL5_4  0.207219124775
    MARKER26  'MARKER'  'INTORG'
    Y0_1_5  ASG0_5  1
    Y0_1_5  UB0_1_5  -184.655438014
    Y0_1_5  LB0_1_5  -100.159220159
    Y0_1_5  CH0_1_5  1
    Y0_1_5  CH0_1_6  -1
    Y0_1_5  MR0_1_4  1
    Y0_1_5  MR0_1_5  1
    Z0_1_5  COST  1698.92475933
    Z0_1_5  CH0_1_5  -1
    Z0_1_5  MR0_1_5  -2
    MARKER27  'MARKER'  'INTEND'
    F0_1_5  COST  7.11923934532
    F0_1_5  UB0_1_5  1
    F0_1_5  LB0_1_5  1
    F0_1_5  BAL1_5  -1
    F0_1_5  BAL2_5  0.0669456131735
    F0_1_5  BAL3_5  0.146384576334
    F0_1_5  BAL4_5  0.530521196346
    F0_1_5  BAL5_5  0.207219124775
    MARKER28  'MARKER'  'INTORG'
    Y0_1_6  ASG0_6  1
    Y0_1_6  UB0_1_6  -184.655438014
    Y0_1_6  LB0_1_6  -100.159220159
    Y0_1_6  CH0_1_6  1
    Y0_1_6  CH0_1_7  -1
    Y0_1_6  MR0_1_5  1
    Y0_1_6  MR0_1_6  1
    Z0_1_6  COST  1698.92475933
    Z0_1_6  CH0_1_6  -1
    Z0_1_6  MR0_1_6  -2
    MARKER29  'MARKER'  'INTEND'
    F0_1_6  COST  7.11923934532
    F0_1_6  UB0_1_6  1
    F0_1_6  LB0_1_6  1
    F0_1_6  BAL1_6  -1
    F0_1_6  BAL2_6  0.0669456131735
    F0_1_6  BAL3_6  0.146384576334
    F0_1_6  BAL4_6  0.530521196346
    F0_1_6  BAL5_6  0.207219124775
    MARKER30  'MARKER'  'INTORG'
    Y0_1_7  ASG0_7  1
    Y0_1_7  UB0_1_7  -184.655438014
    Y0_1_7  LB0_1_7  -100.159220159
    Y0_1_7  CH0_1_7  1
    Y0_1_7  MR0_1_6  1
    Z0_1_7  COST  1698.92475933
    Z0_1_7  CH0_1_7  -1
    MARKER31  'MARKER'  'INTEND'
    F0_1_7  COST  7.11923934532
    F0_1_7  UB0_1_7  1
    F0_1_7  LB0_1_7  1
    F0_1_7  BAL1_7  -1
    F0_1_7  BAL2_7  0.0669456131735
    F0_1_7  BAL3_7  0.146384576334
    F0_1_7  BAL4_7  0.530521196346
    F0_1_7  BAL5_7  0.207219124775
    MARKER32  'MARKER'  'INTORG'
    Y0_2_0  ASG0_0  1
    Y0_2_0  UB0_2_0  -213.734224092
    Y0_2_0  LB0_2_0  -110.735118317
    Y0_2_0  CH0_2_0  1
    Y0_2_0  CH0_2_1  -1
    Y0_2_0  MR0_2_0  1
    Z0_2_0  COST  2084.04797083
    Z0_2_0  CH0_2_0  -1
    Z0_2_0  MR0_2_0  -2
    MARKER33  'MARKER'  'INTEND'
    F0_2_0  COST  4.96876357033
    F0_2_0  UB0_2_0  1
    F0_2_0  LB0_2_0  1
    F0_2_0  BAL1_0  -1
    F0_2_0  BAL2_0  0.0969943191269
    F0_2_0  BAL3_0  0.631815367486
    F0_2_0  BAL4_0  0.22092647982
    F0_2_0  BAL5_0  0.0021359283193
    MARKER34  'MARKER'  'INTORG'
    Y0_2_1  ASG0_1  1
    Y0_2_1  UB0_2_1  -213.734224092
    Y0_2_1  LB0_2_1  -110.735118317
    Y0_2_1  CH0_2_1  1
    Y0_2_1  CH0_2_2  -1
    Y0_2_1  MR0_2_0  1
    Y0_2_1  MR0_2_1  1
    Z0_2_1  COST  2084.04797083
    Z0_2_1  CH0_2_1  -1
    Z0_2_1  MR0_2_1  -2
    MARKER35  'MARKER'  'INTEND'
    F0_2_1  COST  4.96876357033
    F0_2_1  UB0_2_1  1
    F0_2_1  LB0_2_1  1
    F0_2_1  BAL1_1  -1
    F0_2_1  BAL2_1  0.0969943191269
    F0_2_1  BAL3_1  0.631815367486
    F0_2_1  BAL4_1  0.22092647982
    F0_2_1  BAL5_1  0.0021359283193
    MARKER36  'MARKER'  'INTORG'
    Y0_2_2  ASG0_2  1
    Y0_2_2  UB0_2_2  -213.734224092
    Y0_2_2  LB0_2_2  -110.735118317
    Y0_2_2  CH0_2_2  1
    Y0_2_2  CH0_2_3  -1
    Y0_2_2  MR0_2_1  1
    Y0_2_2  MR0_2_2  1
    Z0_2_2  COST  2084.04797083
    Z0_2_2  CH0_2_2  -1
    Z0_2_2  MR0_2_2  -2
    MARKER37  'MARKER'  'INTEND'
    F0_2_2  COST  4.96876357033
    F0_2_2  UB0_2_2  1
    F0_2_2  LB0_2_2  1
    F0_2_2  BAL1_2  -1
    F0_2_2  BAL2_2  0.0969943191269
    F0_2_2  BAL3_2  0.631815367486
    F0_2_2  BAL4_2  0.22092647982
    F0_2_2  BAL5_2  0.0021359283193
    MARKER38  'MARKER'  'INTORG'
    Y0_2_3  ASG0_3  1
    Y0_2_3  UB0_2_3  -213.734224092
    Y0_2_3  LB0_2_3  -110.735118317
    Y0_2_3  CH0_2_3  1
    Y0_2_3  CH0_2_4  -1
    Y0_2_3  MR0_2_2  1
    Y0_2_3  MR0_2_3  1
    Z0_2_3  COST  2084.04797083
    Z0_2_3  CH0_2_3  -1
    Z0_2_3  MR0_2_3  -2
    MARKER39  'MARKER'  'INTEND'
    F0_2_3  COST  4.96876357033
    F0_2_3  UB0_2_3  1
    F0_2_3  LB0_2_3  1
    F0_2_3  BAL1_3  -1
    F0_2_3  BAL2_3  0.0969943191269
    F0_2_3  BAL3_3  0.631815367486
    F0_2_3  BAL4_3  0.22092647982
    F0_2_3  BAL5_3  0.0021359283193
    MARKER40  'MARKER'  'INTORG'
    Y0_2_4  ASG0_4  1
    Y0_2_4  UB0_2_4  -213.734224092
    Y0_2_4  LB0_2_4  -110.735118317
    Y0_2_4  CH0_2_4  1
    Y0_2_4  CH0_2_5  -1
    Y0_2_4  MR0_2_3  1
    Y0_2_4  MR0_2_4  1
    Z0_2_4  COST  2084.04797083
    Z0_2_4  CH0_2_4  -1
    Z0_2_4  MR0_2_4  -2
    MARKER41  'MARKER'  'INTEND'
    F0_2_4  COST  4.96876357033
    F0_2_4  UB0_2_4  1
    F0_2_4  LB0_2_4  1
    F0_2_4  BAL1_4  -1
    F0_2_4  BAL2_4  0.0969943191269
    F0_2_4  BAL3_4  0.631815367486
    F0_2_4  BAL4_4  0.22092647982
    F0_2_4  BAL5_4  0.0021359283193
    MARKER42  'MARKER'  'INTORG'
    Y0_2_5  ASG0_5  1
    Y0_2_5  UB0_2_5  -213.734224092
    Y0_2_5  LB0_2_5  -110.735118317
    Y0_2_5  CH0_2_5  1
    Y0_2_5  CH0_2_6  -1
    Y0_2_5  MR0_2_4  1
    Y0_2_5  MR0_2_5  1
    Z0_2_5  COST  2084.04797083
    Z0_2_5  CH0_2_5  -1
    Z0_2_5  MR0_2_5  -2
    MARKER43  'MARKER'  'INTEND'
    F0_2_5  COST  4.96876357033
    F0_2_5  UB0_2_5  1
    F0_2_5  LB0_2_5  1
    F0_2_5  BAL1_5  -1
    F0_2_5  BAL2_5  0.0969943191269
    F0_2_5  BAL3_5  0.631815367486
    F0_2_5  BAL4_5  0.22092647982
    F0_2_5  BAL5_5  0.0021359283193
    MARKER44  'MARKER'  'INTORG'
    Y0_2_6  ASG0_6  1
    Y0_2_6  UB0_2_6  -213.734224092
    Y0_2_6  LB0_2_6  -110.735118317
    Y0_2_6  CH0_2_6  1
    Y0_2_6  CH0_2_7  -1
    Y0_2_6  MR0_2_5  1
    Y0_2_6  MR0_2_6  1
    Z0_2_6  COST  2084.04797083
    Z0_2_6  CH0_2_6  -1
    Z0_2_6  MR0_2_6  -2
    MARKER45  'MARKER'  'INTEND'
    F0_2_6  COST  4.96876357033
    F0_2_6  UB0_2_6  1
    F0_2_6  LB0_2_6  1
    F0_2_6  BAL1_6  -1
    F0_2_6  BAL2_6  0.0969943191269
    F0_2_6  BAL3_6  0.631815367486
    F0_2_6  BAL4_6  0.22092647982
    F0_2_6  BAL5_6  0.0021359283193
    MARKER46  'MARKER'  'INTORG'
    Y0_2_7  ASG0_7  1
    Y0_2_7  UB0_2_7  -213.734224092
    Y0_2_7  LB0_2_7  -110.735118317
    Y0_2_7  CH0_2_7  1
    Y0_2_7  MR0_2_6  1
    Z0_2_7  COST  2084.04797083
    Z0_2_7  CH0_2_7  -1
    MARKER47  'MARKER'  'INTEND'
    F0_2_7  COST  4.96876357033
    F0_2_7  UB0_2_7  1
    F0_2_7  LB0_2_7  1
    F0_2_7  BAL1_7  -1
    F0_2_7  BAL2_7  0.0969943191269
    F0_2_7  BAL3_7  0.631815367486
    F0_2_7  BAL4_7  0.22092647982
    F0_2_7  BAL5_7  0.0021359283193
    MARKER48  'MARKER'  'INTORG'
    Y1_0_0  ASG1_0  1
    Y1_0_0  CH1_0_0  1
    Y1_0_0  CH1_0_1  -1
    Z1_0_0  CH1_0_0  -1
    MARKER49  'MARKER'  'INTEND'
    F1_0_0  UB1_0_0  1
    MARKER50  'MARKER'  'INTORG'
    Y1_0_1  ASG1_1  1
    Y1_0_1  CH1_0_1  1
    Y1_0_1  CH1_0_2  -1
    Z1_0_1  CH1_0_1  -1
    MARKER51  'MARKER'  'INTEND'
    F1_0_1  UB1_0_1  1
    MARKER52  'MARKER'  'INTORG'
    Y1_0_2  ASG1_2  1
    Y1_0_2  CH1_0_2  1
    Y1_0_2  CH1_0_3  -1
    Z1_0_2  CH1_0_2  -1
    MARKER53  'MARKER'  'INTEND'
    F1_0_2  UB1_0_2  1
    MARKER54  'MARKER'  'INTORG'
    Y1_0_3  ASG1_3  1
    Y1_0_3  CH1_0_3  1
    Y1_0_3  CH1_0_4  -1
    Z1_0_3  CH1_0_3  -1
    MARKER55  'MARKER'  'INTEND'
    F1_0_3  UB1_0_3  1
    MARKER56  'MARKER'  'INTORG'
    Y1_0_4  ASG1_4  1
    Y1_0_4  CH1_0_4  1
    Y1_0_4  CH1_0_5  -1
    Z1_0_4  CH1_0_4  -1
    MARKER57  'MARKER'  'INTEND'
    F1_0_4  UB1_0_4  1
    MARKER58  'MARKER'  'INTORG'
    Y1_0_5  ASG1_5  1
    Y1_0_5  CH1_0_5  1
    Y1_0_5  CH1_0_6  -1
    Z1_0_5  CH1_0_5  -1
    MARKER59  'MARKER'  'INTEND'
    F1_0_5  UB1_0_5  1
    MARKER60  'MARKER'  'INTORG'
    Y1_0_6  ASG1_6  1
    Y1_0_6  CH1_0_6  1
    Y1_0_6  CH1_0_7  -1
    Z1_0_6  CH1_0_6  -1
    MARKER61  'MARKER'  'INTEND'
    F1_0_6  UB1_0_6  1
    MARKER62  'MARKER'  'INTORG'
    Y1_0_7  ASG1_7  1
    Y1_0_7  CH1_0_7  1
    Z1_0_7  CH1_0_7  -1
    MARKER63  'MARKER'  'INTEND'
    F1_0_7  UB1_0_7  1
    MARKER64  'MARKER'  'INTORG'
    Y1_1_0  ASG1_0  1
    Y1_1_0  UB1_1_0  -143.489329248
    Y1_1_0  LB1_1_0  -59.7506555531
    Y1_1_0  CH1_1_0  1
    Y1_1_0  CH1_1_1  -1
    Y1_1_0  MR1_1_0  1
    Z1_1_0  COST  765.081000548
    Z1_1_0  CH1_1_0  -1
    Z1_1_0  MR1_1_0  -2
    MARKER65  'MARKER'  'INTEND'
    F1_1_0  COST  6.17068682749
    F1_1_0  UB1_1_0  1
    F1_1_0  LB1_1_0  1
    F1_1_0  BAL1_0  -1
    F1_1_0  BAL2_0  0.344544421334
    F1_1_0  BAL3_0  0.172241469969
    F1_1_0  BAL4_0  0.234456604829
    F1_1_0  BAL5_0  0.207191029347
    MARKER66  'MARKER'  'INTORG'
    Y1_1_1  ASG1_1  1
    Y1_1_1  UB1_1_1  -143.489329248
    Y1_1_1  LB1_1_1  -59.7506555531
    Y1_1_1  CH1_1_1  1
    Y1_1_1  CH1_1_2  -1
    Y1_1_1  MR1_1_0  1
    Y1_1_1  MR1_1_1  1
    Z1_1_1  COST  765.081000548
    Z1_1_1  CH1_1_1  -1
    Z1_1_1  MR1_1_1  -2
    MARKER67  'MARKER'  'INTEND'
    F1_1_1  COST  6.17068682749
    F1_1_1  UB1_1_1  1
    F1_1_1  LB1_1_1  1
    F1_1_1  BAL1_1  -1
    F1_1_1  BAL2_1  0.344544421334
    F1_1_1  BAL3_1  0.172241469969
    F1_1_1  BAL4_1  0.234456604829
    F1_1_1  BAL5_1  0.207191029347
    MARKER68  'MARKER'  'INTORG'
    Y1_1_2  ASG1_2  1
    Y1_1_2  UB1_1_2  -143.489329248
    Y1_1_2  LB1_1_2  -59.7506555531
    Y1_1_2  CH1_1_2  1
    Y1_1_2  CH1_1_3  -1
    Y1_1_2  MR1_1_1  1
    Y1_1_2  MR1_1_2  1
    Z1_1_2  COST  765.081000548
    Z1_1_2  CH1_1_2  -1
    Z1_1_2  MR1_1_2  -2
    MARKER69  'MARKER'  'INTEND'
    F1_1_2  COST  6.17068682749
    F1_1_2  UB1_1_2  1
    F1_1_2  LB1_1_2  1
    F1_1_2  BAL1_2  -1
    F1_1_2  BAL2_2  0.344544421334
    F1_1_2  BAL3_2  0.172241469969
    F1_1_2  BAL4_2  0.234456604829
    F1_1_2  BAL5_2  0.207191029347
    MARKER70  'MARKER'  'INTORG'
    Y1_1_3  ASG1_3  1
    Y1_1_3  UB1_1_3  -143.489329248
    Y1_1_3  LB1_1_3  -59.7506555531
    Y1_1_3  CH1_1_3  1
    Y1_1_3  CH1_1_4  -1
    Y1_1_3  MR1_1_2  1
    Y1_1_3  MR1_1_3  1
    Z1_1_3  COST  765.081000548
    Z1_1_3  CH1_1_3  -1
    Z1_1_3  MR1_1_3  -2
    MARKER71  'MARKER'  'INTEND'
    F1_1_3  COST  6.17068682749
    F1_1_3  UB1_1_3  1
    F1_1_3  LB1_1_3  1
    F1_1_3  BAL1_3  -1
    F1_1_3  BAL2_3  0.344544421334
    F1_1_3  BAL3_3  0.172241469969
    F1_1_3  BAL4_3  0.234456604829
    F1_1_3  BAL5_3  0.207191029347
    MARKER72  'MARKER'  'INTORG'
    Y1_1_4  ASG1_4  1
    Y1_1_4  UB1_1_4  -143.489329248
    Y1_1_4  LB1_1_4  -59.7506555531
    Y1_1_4  CH1_1_4  1
    Y1_1_4  CH1_1_5  -1
    Y1_1_4  MR1_1_3  1
    Y1_1_4  MR1_1_4  1
    Z1_1_4  COST  765.081000548
    Z1_1_4  CH1_1_4  -1
    Z1_1_4  MR1_1_4  -2
    MARKER73  'MARKER'  'INTEND'
    F1_1_4  COST  6.17068682749
    F1_1_4  UB1_1_4  1
    F1_1_4  LB1_1_4  1
    F1_1_4  BAL1_4  -1
    F1_1_4  BAL2_4  0.344544421334
    F1_1_4  BAL3_4  0.172241469969
    F1_1_4  BAL4_4  0.234456604829
    F1_1_4  BAL5_4  0.207191029347
    MARKER74  'MARKER'  'INTORG'
    Y1_1_5  ASG1_5  1
    Y1_1_5  UB1_1_5  -143.489329248
    Y1_1_5  LB1_1_5  -59.7506555531
    Y1_1_5  CH1_1_5  1
    Y1_1_5  CH1_1_6  -1
    Y1_1_5  MR1_1_4  1
    Y1_1_5  MR1_1_5  1
    Z1_1_5  COST  765.081000548
    Z1_1_5  CH1_1_5  -1
    Z1_1_5  MR1_1_5  -2
    MARKER75  'MARKER'  'INTEND'
    F1_1_5  COST  6.17068682749
    F1_1_5  UB1_1_5  1
    F1_1_5  LB1_1_5  1
    F1_1_5  BAL1_5  -1
    F1_1_5  BAL2_5  0.344544421334
    F1_1_5  BAL3_5  0.172241469969
    F1_1_5  BAL4_5  0.234456604829
    F1_1_5  BAL5_5  0.207191029347
    MARKER76  'MARKER'  'INTORG'
    Y1_1_6  ASG1_6  1
    Y1_1_6  UB1_1_6  -143.489329248
    Y1_1_6  LB1_1_6  -59.7506555531
    Y1_1_6  CH1_1_6  1
    Y1_1_6  CH1_1_7  -1
    Y1_1_6  MR1_1_5  1
    Y1_1_6  MR1_1_6  1
    Z1_1_6  COST  765.081000548
    Z1_1_6  CH1_1_6  -1
    Z1_1_6  MR1_1_6  -2
    MARKER77  'MARKER'  'INTEND'
    F1_1_6  COST  6.17068682749
    F1_1_6  UB1_1_6  1
    F1_1_6  LB1_1_6  1
    F1_1_6  BAL1_6  -1
    F1_1_6  BAL2_6  0.344544421334
    F1_1_6  BAL3_6  0.172241469969
    F1_1_6  BAL4_6  0.234456604829
    F1_1_6  BAL5_6  0.207191029347
    MARKER78  'MARKER'  'INTORG'
    Y1_1_7  ASG1_7  1
    Y1_1_7  UB1_1_7  -143.489329248
    Y1_1_7  LB1_1_7  -59.7506555531
    Y1_1_7  CH1_1_7  1
    Y1_1_7  MR1_1_6  1
    Z1_1_7  COST  765.081000548
    Z1_1_7  CH1_1_7  -1
    MARKER79  'MARKER'  'INTEND'
    F1_1_7  COST  6.17068682749
    F1_1_7  UB1_1_7  1
    F1_1_7  LB1_1_7  1
    F1_1_7  BAL1_7  -1
    F1_1_7  BAL2_7  0.344544421334
    F1_1_7  BAL3_7  0.172241469969
    F1_1_7  BAL4_7  0.234456604829
    F1_1_7  BAL5_7  0.207191029347
    MARKER80  'MARKER'  'INTORG'
    Y1_2_0  ASG1_0  1
    Y1_2_0  UB1_2_0  -147.030879532
    Y1_2_0  LB1_2_0  -73.1389782584
    Y1_2_0  CH1_2_0  1
    Y1_2_0  CH1_2_1  -1
    Y1_2_0  MR1_2_0  1
    Z1_2_0  COST  653.608966322
    Z1_2_0  CH1_2_0  -1
    Z1_2_0  MR1_2_0  -2
    MARKER81  'MARKER'  'INTEND'
    F1_2_0  COST  4.02750260302
    F1_2_0  UB1_2_0  1
    F1_2_0  LB1_2_0  1
    F1_2_0  BAL1_0  -1
    F1_2_0  BAL2_0  0.692005773177
    F1_2_0  BAL3_0  0.166836499712
    F1_2_0  BAL4_0  0.0143898798762
    F1_2_0  BAL5_0  0.071367700209
    MARKER82  'MARKER'  'INTORG'
    Y1_2_1  ASG1_1  1
    Y1_2_1  UB1_2_1  -147.030879532
    Y1_2_1  LB1_2_1  -73.1389782584
    Y1_2_1  CH1_2_1  1
    Y1_2_1  CH1_2_2  -1
    Y1_2_1  MR1_2_0  1
    Y1_2_1  MR1_2_1  1
    Z1_2_1  COST  653.608966322
    Z1_2_1  CH1_2_1  -1
    Z1_2_1  MR1_2_1  -2
    MARKER83  'MARKER'  'INTEND'
    F1_2_1  COST  4.02750260302
    F1_2_1  UB1_2_1  1
    F1_2_1  LB1_2_1  1
    F1_2_1  BAL1_1  -1
    F1_2_1  BAL2_1  0.692005773177
    F1_2_1  BAL3_1  0.166836499712
    F1_2_1  BAL4_1  0.0143898798762
    F1_2_1  BAL5_1  0.071367700209
    MARKER84  'MARKER'  'INTORG'
    Y1_2_2  ASG1_2  1
    Y1_2_2  UB1_2_2  -147.030879532
    Y1_2_2  LB1_2_2  -73.1389782584
    Y1_2_2  CH1_2_2  1
    Y1_2_2  CH1_2_3  -1
    Y1_2_2  MR1_2_1  1
    Y1_2_2  MR1_2_2  1
    Z1_2_2  COST  653.608966322
    Z1_2_2  CH1_2_2  -1
    Z1_2_2  MR1_2_2  -2
    MARKER85  'MARKER'  'INTEND'
    F1_2_2  COST  4.02750260302
    F1_2_2  UB1_2_2  1
    F1_2_2  LB1_2_2  1
    F1_2_2  BAL1_2  -1
    F1_2_2  BAL2_2  0.692005773177
    F1_2_2  BAL3_2  0.166836499712
    F1_2_2  BAL4_2  0.0143898798762
    F1_2_2  BAL5_2  0.071367700209
    MARKER86  'MARKER'  'INTORG'
    Y1_2_3  ASG1_3  1
    Y1_2_3  UB1_2_3  -147.030879532
    Y1_2_3  LB1_2_3  -73.1389782584
    Y1_2_3  CH1_2_3  1
    Y1_2_3  CH1_2_4  -1
    Y1_2_3  MR1_2_2  1
    Y1_2_3  MR1_2_3  1
    Z1_2_3  COST  653.608966322
    Z1_2_3  CH1_2_3  -1
    Z1_2_3  MR1_2_3  -2
    MARKER87  'MARKER'  'INTEND'
    F1_2_3  COST  4.02750260302
    F1_2_3  UB1_2_3  1
    F1_2_3  LB1_2_3  1
    F1_2_3  BAL1_3  -1
    F1_2_3  BAL2_3  0.692005773177
    F1_2_3  BAL3_3  0.166836499712
    F1_2_3  BAL4_3  0.0143898798762
    F1_2_3  BAL5_3  0.071367700209
    MARKER88  'MARKER'  'INTORG'
    Y1_2_4  ASG1_4  1
    Y1_2_4  UB1_2_4  -147.030879532
    Y1_2_4  LB1_2_4  -73.1389782584
    Y1_2_4  CH1_2_4  1
    Y1_2_4  CH1_2_5  -1
    Y1_2_4  MR1_2_3  1
    Y1_2_4  MR1_2_4  1
    Z1_2_4  COST  653.608966322
    Z1_2_4  CH1_2_4  -1
    Z1_2_4  MR1_2_4  -2
    MARKER89  'MARKER'  'INTEND'
    F1_2_4  COST  4.02750260302
    F1_2_4  UB1_2_4  1
    F1_2_4  LB1_2_4  1
    F1_2_4  BAL1_4  -1
    F1_2_4  BAL2_4  0.692005773177
    F1_2_4  BAL3_4  0.166836499712
    F1_2_4  BAL4_4  0.0143898798762
    F1_2_4  BAL5_4  0.071367700209
    MARKER90  'MARKER'  'INTORG'
    Y1_2_5  ASG1_5  1
    Y1_2_5  UB1_2_5  -147.030879532
    Y1_2_5  LB1_2_5  -73.1389782584
    Y1_2_5  CH1_2_5  1
    Y1_2_5  CH1_2_6  -1
    Y1_2_5  MR1_2_4  1
    Y1_2_5  MR1_2_5  1
    Z1_2_5  COST  653.608966322
    Z1_2_5  CH1_2_5  -1
    Z1_2_5  MR1_2_5  -2
    MARKER91  'MARKER'  'INTEND'
    F1_2_5  COST  4.02750260302
    F1_2_5  UB1_2_5  1
    F1_2_5  LB1_2_5  1
    F1_2_5  BAL1_5  -1
    F1_2_5  BAL2_5  0.692005773177
    F1_2_5  BAL3_5  0.166836499712
    F1_2_5  BAL4_5  0.0143898798762
    F1_2_5  BAL5_5  0.071367700209
    MARKER92  'MARKER'  'INTORG'
    Y1_2_6  ASG1_6  1
    Y1_2_6  UB1_2_6  -147.030879532
    Y1_2_6  LB1_2_6  -73.1389782584
    Y1_2_6  CH1_2_6  1
    Y1_2_6  CH1_2_7  -1
    Y1_2_6  MR1_2_5  1
    Y1_2_6  MR1_2_6  1
    Z1_2_6  COST  653.608966322
    Z1_2_6  CH1_2_6  -1
    Z1_2_6  MR1_2_6  -2
    MARKER93  'MARKER'  'INTEND'
    F1_2_6  COST  4.02750260302
    F1_2_6  UB1_2_6  1
    F1_2_6  LB1_2_6  1
    F1_2_6  BAL1_6  -1
    F1_2_6  BAL2_6  0.692005773177
    F1_2_6  BAL3_6  0.166836499712
    F1_2_6  BAL4_6  0.0143898798762
    F1_2_6  BAL5_6  0.071367700209
    MARKER94  'MARKER'  'INTORG'
    Y1_2_7  ASG1_7  1
    Y1_2_7  UB1_2_7  -147.030879532
    Y1_2_7  LB1_2_7  -73.1389782584
    Y1_2_7  CH1_2_7  1
    Y1_2_7  MR1_2_6  1
    Z1_2_7  COST  653.608966322
    Z1_2_7  CH1_2_7  -1
    MARKER95  'MARKER'  'INTEND'
    F1_2_7  COST  4.02750260302
    F1_2_7  UB1_2_7  1
    F1_2_7  LB1_2_7  1
    F1_2_7  BAL1_7  -1
    F1_2_7  BAL2_7  0.692005773177
    F1_2_7  BAL3_7  0.166836499712
    F1_2_7  BAL4_7  0.0143898798762
    F1_2_7  BAL5_7  0.071367700209
    MARKER96  'MARKER'  'INTORG'
    Y2_0_0  ASG2_0  1
    Y2_0_0  CH2_0_0  1
    Y2_0_0  CH2_0_1  -1
    Z2_0_0  CH2_0_0  -1
    MARKER97  'MARKER'  'INTEND'
    F2_0_0  UB2_0_0  1
    MARKER98  'MARKER'  'INTORG'
    Y2_0_1  ASG2_1  1
    Y2_0_1  CH2_0_1  1
    Y2_0_1  CH2_0_2  -1
    Z2_0_1  CH2_0_1  -1
    MARKER99  'MARKER'  'INTEND'
    F2_0_1  UB2_0_1  1
    MARKER100  'MARKER'  'INTORG'
    Y2_0_2  ASG2_2  1
    Y2_0_2  CH2_0_2  1
    Y2_0_2  CH2_0_3  -1
    Z2_0_2  CH2_0_2  -1
    MARKER101  'MARKER'  'INTEND'
    F2_0_2  UB2_0_2  1
    MARKER102  'MARKER'  'INTORG'
    Y2_0_3  ASG2_3  1
    Y2_0_3  CH2_0_3  1
    Y2_0_3  CH2_0_4  -1
    Z2_0_3  CH2_0_3  -1
    MARKER103  'MARKER'  'INTEND'
    F2_0_3  UB2_0_3  1
    MARKER104  'MARKER'  'INTORG'
    Y2_0_4  ASG2_4  1
    Y2_0_4  CH2_0_4  1
    Y2_0_4  CH2_0_5  -1
    Z2_0_4  CH2_0_4  -1
    MARKER105  'MARKER'  'INTEND'
    F2_0_4  UB2_0_4  1
    MARKER106  'MARKER'  'INTORG'
    Y2_0_5  ASG2_5  1
    Y2_0_5  CH2_0_5  1
    Y2_0_5  CH2_0_6  -1
    Z2_0_5  CH2_0_5  -1
    MARKER107  'MARKER'  'INTEND'
    F2_0_5  UB2_0_5  1
    MARKER108  'MARKER'  'INTORG'
    Y2_0_6  ASG2_6  1
    Y2_0_6  CH2_0_6  1
    Y2_0_6  CH2_0_7  -1
    Z2_0_6  CH2_0_6  -1
    MARKER109  'MARKER'  'INTEND'
    F2_0_6  UB2_0_6  1
    MARKER110  'MARKER'  'INTORG'
    Y2_0_7  ASG2_7  1
    Y2_0_7  CH2_0_7  1
    Z2_0_7  CH2_0_7  -1
    MARKER111  'MARKER'  'INTEND'
    F2_0_7  UB2_0_7  1
    MARKER112  'MARKER'  'INTORG'
    Y2_1_0  ASG2_0  1
    Y2_1_0  UB2_1_0  -205.575668454
    Y2_1_0  LB2_1_0  -94.0523021974
    Y2_1_0  CH2_1_0  1
    Y2_1_0  CH2_1_1  -1
    Y2_1_0  MR2_1_0  1
    Z2_1_0  COST  434.713001293
    Z2_1_0  CH2_1_0  -1
    Z2_1_0  MR2_1_0  -2
    MARKER113  'MARKER'  'INTEND'
    F2_1_0  COST  6.56829846099
    F2_1_0  UB2_1_0  1
    F2_1_0  LB2_1_0  1
    F2_1_0  BAL5_0  -1
    F2_1_0  BAL6_0  0.550318380716
    F2_1_0  BAL7_0  0.370025468752
    F2_1_0  BAL8_0  0.0539407819568
    MARKER114  'MARKER'  'INTORG'
    Y2_1_1  ASG2_1  1
    Y2_1_1  UB2_1_1  -205.575668454
    Y2_1_1  LB2_1_1  -94.0523021974
    Y2_1_1  CH2_1_1  1
    Y2_1_1  CH2_1_2  -1
    Y2_1_1  MR2_1_0  1
    Y2_1_1  MR2_1_1  1
    Z2_1_1  COST  434.713001293
    Z2_1_1  CH2_1_1  -1
    Z2_1_1  MR2_1_1  -2
    MARKER115  'MARKER'  'INTEND'
    F2_1_1  COST  6.56829846099
    F2_1_1  UB2_1_1  1
    F2_1_1  LB2_1_1  1
    F2_1_1  BAL5_1  -1
    F2_1_1  BAL6_1  0.550318380716
    F2_1_1  BAL7_1  0.370025468752
    F2_1_1  BAL8_1  0.0539407819568
    MARKER116  'MARKER'  'INTORG'
    Y2_1_2  ASG2_2  1
    Y2_1_2  UB2_1_2  -205.575668454
    Y2_1_2  LB2_1_2  -94.0523021974
    Y2_1_2  CH2_1_2  1
    Y2_1_2  CH2_1_3  -1
    Y2_1_2  MR2_1_1  1
    Y2_1_2  MR2_1_2  1
    Z2_1_2  COST  434.713001293
    Z2_1_2  CH2_1_2  -1
    Z2_1_2  MR2_1_2  -2
    MARKER117  'MARKER'  'INTEND'
    F2_1_2  COST  6.56829846099
    F2_1_2  UB2_1_2  1
    F2_1_2  LB2_1_2  1
    F2_1_2  BAL5_2  -1
    F2_1_2  BAL6_2  0.550318380716
    F2_1_2  BAL7_2  0.370025468752
    F2_1_2  BAL8_2  0.0539407819568
    MARKER118  'MARKER'  'INTORG'
    Y2_1_3  ASG2_3  1
    Y2_1_3  UB2_1_3  -205.575668454
    Y2_1_3  LB2_1_3  -94.0523021974
    Y2_1_3  CH2_1_3  1
    Y2_1_3  CH2_1_4  -1
    Y2_1_3  MR2_1_2  1
    Y2_1_3  MR2_1_3  1
    Z2_1_3  COST  434.713001293
    Z2_1_3  CH2_1_3  -1
    Z2_1_3  MR2_1_3  -2
    MARKER119  'MARKER'  'INTEND'
    F2_1_3  COST  6.56829846099
    F2_1_3  UB2_1_3  1
    F2_1_3  LB2_1_3  1
    F2_1_3  BAL5_3  -1
    F2_1_3  BAL6_3  0.550318380716
    F2_1_3  BAL7_3  0.370025468752
    F2_1_3  BAL8_3  0.0539407819568
    MARKER120  'MARKER'  'INTORG'
    Y2_1_4  ASG2_4  1
    Y2_1_4  UB2_1_4  -205.575668454
    Y2_1_4  LB2_1_4  -94.0523021974
    Y2_1_4  CH2_1_4  1
    Y2_1_4  CH2_1_5  -1
    Y2_1_4  MR2_1_3  1
    Y2_1_4  MR2_1_4  1
    Z2_1_4  COST  434.713001293
    Z2_1_4  CH2_1_4  -1
    Z2_1_4  MR2_1_4  -2
    MARKER121  'MARKER'  'INTEND'
    F2_1_4  COST  6.56829846099
    F2_1_4  UB2_1_4  1
    F2_1_4  LB2_1_4  1
    F2_1_4  BAL5_4  -1
    F2_1_4  BAL6_4  0.550318380716
    F2_1_4  BAL7_4  0.370025468752
    F2_1_4  BAL8_4  0.0539407819568
    MARKER122  'MARKER'  'INTORG'
    Y2_1_5  ASG2_5  1
    Y2_1_5  UB2_1_5  -205.575668454
    Y2_1_5  LB2_1_5  -94.0523021974
    Y2_1_5  CH2_1_5  1
    Y2_1_5  CH2_1_6  -1
    Y2_1_5  MR2_1_4  1
    Y2_1_5  MR2_1_5  1
    Z2_1_5  COST  434.713001293
    Z2_1_5  CH2_1_5  -1
    Z2_1_5  MR2_1_5  -2
    MARKER123  'MARKER'  'INTEND'
    F2_1_5  COST  6.56829846099
    F2_1_5  UB2_1_5  1
    F2_1_5  LB2_1_5  1
    F2_1_5  BAL5_5  -1
    F2_1_5  BAL6_5  0.550318380716
    F2_1_5  BAL7_5  0.370025468752
    F2_1_5  BAL8_5  0.0539407819568
    MARKER124  'MARKER'  'INTORG'
    Y2_1_6  ASG2_6  1
    Y2_1_6  UB2_1_6  -205.575668454
    Y2_1_6  LB2_1_6  -94.0523021974
    Y2_1_6  CH2_1_6  1
    Y2_1_6  CH2_1_7  -1
    Y2_1_6  MR2_1_5  1
    Y2_1_6  MR2_1_6  1
    Z2_1_6  COST  434.713001293
    Z2_1_6  CH2_1_6  -1
    Z2_1_6  MR2_1_6  -2
    MARKER125  'MARKER'  'INTEND'
    F2_1_6  COST  6.56829846099
    F2_1_6  UB2_1_6  1
    F2_1_6  LB2_1_6  1
    F2_1_6  BAL5_6  -1
    F2_1_6  BAL6_6  0.550318380716
    F2_1_6  BAL7_6  0.370025468752
    F2_1_6  BAL8_6  0.0539407819568
    MARKER126  'MARKER'  'INTORG'
    Y2_1_7  ASG2_7  1
    Y2_1_7  UB2_1_7  -205.575668454
    Y2_1_7  LB2_1_7  -94.0523021974
    Y2_1_7  CH2_1_7  1
    Y2_1_7  MR2_1_6  1
    Z2_1_7  COST  434.713001293
    Z2_1_7  CH2_1_7  -1
    MARKER127  'MARKER'  'INTEND'
    F2_1_7  COST  6.56829846099
    F2_1_7  UB2_1_7  1
    F2_1_7  LB2_1_7  1
    F2_1_7  BAL5_7  -1
    F2_1_7  BAL6_7  0.550318380716
    F2_1_7  BAL7_7  0.370025468752
    F2_1_7  BAL8_7  0.0539407819568
    MARKER128  'MARKER'  'INTORG'
    Y2_2_0  ASG2_0  1
    Y2_2_0  UB2_2_0  -185.118731367
    Y2_2_0  LB2_2_0  -78.3692638477
    Y2_2_0  CH2_2_0  1
    Y2_2_0  CH2_2_1  -1
    Y2_2_0  MR2_2_0  1
    Z2_2_0  COST  2014.80089635
    Z2_2_0  CH2_2_0  -1
    Z2_2_0  MR2_2_0  -2
    MARKER129  'MARKER'  'INTEND'
    F2_2_0  COST  7.30884326773
    F2_2_0  UB2_2_0  1
    F2_2_0  LB2_2_0  1
    F2_2_0  BAL5_0  -1
    F2_2_0  BAL6_0  0.693597765426
    F2_2_0  BAL7_0  0.229503530585
    F2_2_0  BAL8_0  0.0634567908152
    MARKER130  'MARKER'  'INTORG'
    Y2_2_1  ASG2_1  1
    Y2_2_1  UB2_2_1  -185.118731367
    Y2_2_1  LB2_2_1  -78.3692638477
    Y2_2_1  CH2_2_1  1
    Y2_2_1  CH2_2_2  -1
    Y2_2_1  MR2_2_0  1
    Y2_2_1  MR2_2_1  1
    Z2_2_1  COST  2014.80089635
    Z2_2_1  CH2_2_1  -1
    Z2_2_1  MR2_2_1  -2
    MARKER131  'MARKER'  'INTEND'
    F2_2_1  COST  7.30884326773
    F2_2_1  UB2_2_1  1
    F2_2_1  LB2_2_1  1
    F2_2_1  BAL5_1  -1
    F2_2_1  BAL6_1  0.693597765426
    F2_2_1  BAL7_1  0.229503530585
    F2_2_1  BAL8_1  0.0634567908152
    MARKER132  'MARKER'  'INTORG'
    Y2_2_2  ASG2_2  1
    Y2_2_2  UB2_2_2  -185.118731367
    Y2_2_2  LB2_2_2  -78.3692638477
    Y2_2_2  CH2_2_2  1
    Y2_2_2  CH2_2_3  -1
    Y2_2_2  MR2_2_1  1
    Y2_2_2  MR2_2_2  1
    Z2_2_2  COST  2014.80089635
    Z2_2_2  CH2_2_2  -1
    Z2_2_2  MR2_2_2  -2
    MARKER133  'MARKER'  'INTEND'
    F2_2_2  COST  7.30884326773
    F2_2_2  UB2_2_2  1
    F2_2_2  LB2_2_2  1
    F2_2_2  BAL5_2  -1
    F2_2_2  BAL6_2  0.693597765426
    F2_2_2  BAL7_2  0.229503530585
    F2_2_2  BAL8_2  0.0634567908152
    MARKER134  'MARKER'  'INTORG'
    Y2_2_3  ASG2_3  1
    Y2_2_3  UB2_2_3  -185.118731367
    Y2_2_3  LB2_2_3  -78.3692638477
    Y2_2_3  CH2_2_3  1
    Y2_2_3  CH2_2_4  -1
    Y2_2_3  MR2_2_2  1
    Y2_2_3  MR2_2_3  1
    Z2_2_3  COST  2014.80089635
    Z2_2_3  CH2_2_3  -1
    Z2_2_3  MR2_2_3  -2
    MARKER135  'MARKER'  'INTEND'
    F2_2_3  COST  7.30884326773
    F2_2_3  UB2_2_3  1
    F2_2_3  LB2_2_3  1
    F2_2_3  BAL5_3  -1
    F2_2_3  BAL6_3  0.693597765426
    F2_2_3  BAL7_3  0.229503530585
    F2_2_3  BAL8_3  0.0634567908152
    MARKER136  'MARKER'  'INTORG'
    Y2_2_4  ASG2_4  1
    Y2_2_4  UB2_2_4  -185.118731367
    Y2_2_4  LB2_2_4  -78.3692638477
    Y2_2_4  CH2_2_4  1
    Y2_2_4  CH2_2_5  -1
    Y2_2_4  MR2_2_3  1
    Y2_2_4  MR2_2_4  1
    Z2_2_4  COST  2014.80089635
    Z2_2_4  CH2_2_4  -1
    Z2_2_4  MR2_2_4  -2
    MARKER137  'MARKER'  'INTEND'
    F2_2_4  COST  7.30884326773
    F2_2_4  UB2_2_4  1
    F2_2_4  LB2_2_4  1
    F2_2_4  BAL5_4  -1
    F2_2_4  BAL6_4  0.693597765426
    F2_2_4  BAL7_4  0.229503530585
    F2_2_4  BAL8_4  0.0634567908152
    MARKER138  'MARKER'  'INTORG'
    Y2_2_5  ASG2_5  1
    Y2_2_5  UB2_2_5  -185.118731367
    Y2_2_5  LB2_2_5  -78.3692638477
    Y2_2_5  CH2_2_5  1
    Y2_2_5  CH2_2_6  -1
    Y2_2_5  MR2_2_4  1
    Y2_2_5  MR2_2_5  1
    Z2_2_5  COST  2014.80089635
    Z2_2_5  CH2_2_5  -1
    Z2_2_5  MR2_2_5  -2
    MARKER139  'MARKER'  'INTEND'
    F2_2_5  COST  7.30884326773
    F2_2_5  UB2_2_5  1
    F2_2_5  LB2_2_5  1
    F2_2_5  BAL5_5  -1
    F2_2_5  BAL6_5  0.693597765426
    F2_2_5  BAL7_5  0.229503530585
    F2_2_5  BAL8_5  0.0634567908152
    MARKER140  'MARKER'  'INTORG'
    Y2_2_6  ASG2_6  1
    Y2_2_6  UB2_2_6  -185.118731367
    Y2_2_6  LB2_2_6  -78.3692638477
    Y2_2_6  CH2_2_6  1
    Y2_2_6  CH2_2_7  -1
    Y2_2_6  MR2_2_5  1
    Y2_2_6  MR2_2_6  1
    Z2_2_6  COST  2014.80089635
    Z2_2_6  CH2_2_6  -1
    Z2_2_6  MR2_2_6  -2
    MARKER141  'MARKER'  'INTEND'
    F2_2_6  COST  7.30884326773
    F2_2_6  UB2_2_6  1
    F2_2_6  LB2_2_6  1
    F2_2_6  BAL5_6  -1
    F2_2_6  BAL6_6  0.693597765426
    F2_2_6  BAL7_6  0.229503530585
    F2_2_6  BAL8_6  0.0634567908152
    MARKER142  'MARKER'  'INTORG'
    Y2_2_7  ASG2_7  1
    Y2_2_7  UB2_2_7  -185.118731367
    Y2_2_7  LB2_2_7  -78.3692638477
    Y2_2_7  CH2_2_7  1
    Y2_2_7  MR2_2_6  1
    Z2_2_7  COST  2014.80089635
    Z2_2_7  CH2_2_7  -1
    MARKER143  'MARKER'  'INTEND'
    F2_2_7  COST  7.30884326773
    F2_2_7  UB2_2_7  1
    F2_2_7  LB2_2_7  1
    F2_2_7  BAL5_7  -1
    F2_2_7  BAL6_7  0.693597765426
    F2_2_7  BAL7_7  0.229503530585
    F2_2_7  BAL8_7  0.0634567908152
    MARKER144  'MARKER'  'INTORG'
    Y3_0_0  ASG3_0  1
    Y3_0_0  CH3_0_0  1
    Y3_0_0  CH3_0_1  -1
    Z3_0_0  CH3_0_0  -1
    MARKER145  'MARKER'  'INTEND'
    F3_0_0  UB3_0_0  1
    MARKER146  'MARKER'  'INTORG'
    Y3_0_1  ASG3_1  1
    Y3_0_1  CH3_0_1  1
    Y3_0_1  CH3_0_2  -1
    Z3_0_1  CH3_0_1  -1
    MARKER147  'MARKER'  'INTEND'
    F3_0_1  UB3_0_1  1
    MARKER148  'MARKER'  'INTORG'
    Y3_0_2  ASG3_2  1
    Y3_0_2  CH3_0_2  1
    Y3_0_2  CH3_0_3  -1
    Z3_0_2  CH3_0_2  -1
    MARKER149  'MARKER'  'INTEND'
    F3_0_2  UB3_0_2  1
    MARKER150  'MARKER'  'INTORG'
    Y3_0_3  ASG3_3  1
    Y3_0_3  CH3_0_3  1
    Y3_0_3  CH3_0_4  -1
    Z3_0_3  CH3_0_3  -1
    MARKER151  'MARKER'  'INTEND'
    F3_0_3  UB3_0_3  1
    MARKER152  'MARKER'  'INTORG'
    Y3_0_4  ASG3_4  1
    Y3_0_4  CH3_0_4  1
    Y3_0_4  CH3_0_5  -1
    Z3_0_4  CH3_0_4  -1
    MARKER153  'MARKER'  'INTEND'
    F3_0_4  UB3_0_4  1
    MARKER154  'MARKER'  'INTORG'
    Y3_0_5  ASG3_5  1
    Y3_0_5  CH3_0_5  1
    Y3_0_5  CH3_0_6  -1
    Z3_0_5  CH3_0_5  -1
    MARKER155  'MARKER'  'INTEND'
    F3_0_5  UB3_0_5  1
    MARKER156  'MARKER'  'INTORG'
    Y3_0_6  ASG3_6  1
    Y3_0_6  CH3_0_6  1
    Y3_0_6  CH3_0_7  -1
    Z3_0_6  CH3_0_6  -1
    MARKER157  'MARKER'  'INTEND'
    F3_0_6  UB3_0_6  1
    MARKER158  'MARKER'  'INTORG'
    Y3_0_7  ASG3_7  1
    Y3_0_7  CH3_0_7  1
    Z3_0_7  CH3_0_7  -1
    MARKER159  'MARKER'  'INTEND'
    F3_0_7  UB3_0_7  1
    MARKER160  'MARKER'  'INTORG'
    Y3_1_0  ASG3_0  1
    Y3_1_0  UB3_1_0  -143.786082139
    Y3_1_0  LB3_1_0  -63.6508554396
    Y3_1_0  CH3_1_0  1
    Y3_1_0  CH3_1_1  -1
    Y3_1_0  MR3_1_0  1
    Z3_1_0  COST  807.818039456
    Z3_1_0  CH3_1_0  -1
    Z3_1_0  MR3_1_0  -2
    MARKER161  'MARKER'  'INTEND'
    F3_1_0  COST  8.92648231553
    F3_1_0  UB3_1_0  1
    F3_1_0  LB3_1_0  1
    F3_1_0  BAL5_0  -1
    F3_1_0  BAL6_0  0.0112860390636
    F3_1_0  BAL7_0  0.613068190977
    F3_1_0  BAL8_0  0.338781493715
    MARKER162  'MARKER'  'INTORG'
    Y3_1_1  ASG3_1  1
    Y3_1_1  UB3_1_1  -143.786082139
    Y3_1_1  LB3_1_1  -63.6508554396
    Y3_1_1  CH3_1_1  1
    Y3_1_1  CH3_1_2  -1
    Y3_1_1  MR3_1_0  1
    Y3_1_1  MR3_1_1  1
    Z3_1_1  COST  807.818039456
    Z3_1_1  CH3_1_1  -1
    Z3_1_1  MR3_1_1  -2
    MARKER163  'MARKER'  'INTEND'
    F3_1_1  COST  8.92648231553
    F3_1_1  UB3_1_1  1
    F3_1_1  LB3_1_1  1
    F3_1_1  BAL5_1  -1
    F3_1_1  BAL6_1  0.0112860390636
    F3_1_1  BAL7_1  0.613068190977
    F3_1_1  BAL8_1  0.338781493715
    MARKER164  'MARKER'  'INTORG'
    Y3_1_2  ASG3_2  1
    Y3_1_2  UB3_1_2  -143.786082139
    Y3_1_2  LB3_1_2  -63.6508554396
    Y3_1_2  CH3_1_2  1
    Y3_1_2  CH3_1_3  -1
    Y3_1_2  MR3_1_1  1
    Y3_1_2  MR3_1_2  1
    Z3_1_2  COST  807.818039456
    Z3_1_2  CH3_1_2  -1
    Z3_1_2  MR3_1_2  -2
    MARKER165  'MARKER'  'INTEND'
    F3_1_2  COST  8.92648231553
    F3_1_2  UB3_1_2  1
    F3_1_2  LB3_1_2  1
    F3_1_2  BAL5_2  -1
    F3_1_2  BAL6_2  0.0112860390636
    F3_1_2  BAL7_2  0.613068190977
    F3_1_2  BAL8_2  0.338781493715
    MARKER166  'MARKER'  'INTORG'
    Y3_1_3  ASG3_3  1
    Y3_1_3  UB3_1_3  -143.786082139
    Y3_1_3  LB3_1_3  -63.6508554396
    Y3_1_3  CH3_1_3  1
    Y3_1_3  CH3_1_4  -1
    Y3_1_3  MR3_1_2  1
    Y3_1_3  MR3_1_3  1
    Z3_1_3  COST  807.818039456
    Z3_1_3  CH3_1_3  -1
    Z3_1_3  MR3_1_3  -2
    MARKER167  'MARKER'  'INTEND'
    F3_1_3  COST  8.92648231553
    F3_1_3  UB3_1_3  1
    F3_1_3  LB3_1_3  1
    F3_1_3  BAL5_3  -1
    F3_1_3  BAL6_3  0.0112860390636
    F3_1_3  BAL7_3  0.613068190977
    F3_1_3  BAL8_3  0.338781493715
    MARKER168  'MARKER'  'INTORG'
    Y3_1_4  ASG3_4  1
    Y3_1_4  UB3_1_4  -143.786082139
    Y3_1_4  LB3_1_4  -63.6508554396
    Y3_1_4  CH3_1_4  1
    Y3_1_4  CH3_1_5  -1
    Y3_1_4  MR3_1_3  1
    Y3_1_4  MR3_1_4  1
    Z3_1_4  COST  807.818039456
    Z3_1_4  CH3_1_4  -1
    Z3_1_4  MR3_1_4  -2
    MARKER169  'MARKER'  'INTEND'
    F3_1_4  COST  8.92648231553
    F3_1_4  UB3_1_4  1
    F3_1_4  LB3_1_4  1
    F3_1_4  BAL5_4  -1
    F3_1_4  BAL6_4  0.0112860390636
    F3_1_4  BAL7_4  0.613068190977
    F3_1_4  BAL8_4  0.338781493715
    MARKER170  'MARKER'  'INTORG'
    Y3_1_5  ASG3_5  1
    Y3_1_5  UB3_1_5  -143.786082139
    Y3_1_5  LB3_1_5  -63.6508554396
    Y3_1_5  CH3_1_5  1
    Y3_1_5  CH3_1_6  -1
    Y3_1_5  MR3_1_4  1
    Y3_1_5  MR3_1_5  1
    Z3_1_5  COST  807.818039456
    Z3_1_5  CH3_1_5  -1
    Z3_1_5  MR3_1_5  -2
    MARKER171  'MARKER'  'INTEND'
    F3_1_5  COST  8.92648231553
    F3_1_5  UB3_1_5  1
    F3_1_5  LB3_1_5  1
    F3_1_5  BAL5_5  -1
    F3_1_5  BAL6_5  0.0112860390636
    F3_1_5  BAL7_5  0.613068190977
    F3_1_5  BAL8_5  0.338781493715
    MARKER172  'MARKER'  'INTORG'
    Y3_1_6  ASG3_6  1
    Y3_1_6  UB3_1_6  -143.786082139
    Y3_1_6  LB3_1_6  -63.6508554396
    Y3_1_6  CH3_1_6  1
    Y3_1_6  CH3_1_7  -1
    Y3_1_6  MR3_1_5  1
    Y3_1_6  MR3_1_6  1
    Z3_1_6  COST  807.818039456
    Z3_1_6  CH3_1_6  -1
    Z3_1_6  MR3_1_6  -2
    MARKER173  'MARKER'  'INTEND'
    F3_1_6  COST  8.92648231553
    F3_1_6  UB3_1_6  1
    F3_1_6  LB3_1_6  1
    F3_1_6  BAL5_6  -1
    F3_1_6  BAL6_6  0.0112860390636
    F3_1_6  BAL7_6  0.613068190977
    F3_1_6  BAL8_6  0.338781493715
    MARKER174  'MARKER'  'INTORG'
    Y3_1_7  ASG3_7  1
    Y3_1_7  UB3_1_7  -143.786082139
    Y3_1_7  LB3_1_7  -63.6508554396
    Y3_1_7  CH3_1_7  1
    Y3_1_7  MR3_1_6  1
    Z3_1_7  COST  807.818039456
    Z3_1_7  CH3_1_7  -1
    MARKER175  'MARKER'  'INTEND'
    F3_1_7  COST  8.92648231553
    F3_1_7  UB3_1_7  1
    F3_1_7  LB3_1_7  1
    F3_1_7  BAL5_7  -1
    F3_1_7  BAL6_7  0.0112860390636
    F3_1_7  BAL7_7  0.613068190977
    F3_1_7  BAL8_7  0.338781493715
    MARKER176  'MARKER'  'INTORG'
    Y3_2_0  ASG3_0  1
    Y3_2_0  UB3_2_0  -153.368463647
    Y3_2_0  LB3_2_0  -56.9901432052
    Y3_2_0  CH3_2_0  1
    Y3_2_0  CH3_2_1  -1
    Y3_2_0  MR3_2_0  1
    Z3_2_0  COST  2398.98941073
    Z3_2_0  CH3_2_0  -1
    Z3_2_0  MR3_2_0  -2
    MARKER177  'MARKER'  'INTEND'
    F3_2_0  COST  8.18324903507
    F3_2_0  UB3_2_0  1
    F3_2_0  LB3_2_0  1
    F3_2_0  BAL5_0  -1
    F3_2_0  BAL6_0  0.0626791249518
    F3_2_0  BAL7_0  0.68453604098
    F3_2_0  BAL8_0  0.199947421179
    MARKER178  'MARKER'  'INTORG'
    Y3_2_1  ASG3_1  1
    Y3_2_1  UB3_2_1  -153.368463647
    Y3_2_1  LB3_2_1  -56.9901432052
    Y3_2_1  CH3_2_1  1
    Y3_2_1  CH3_2_2  -1
    Y3_2_1  MR3_2_0  1
    Y3_2_1  MR3_2_1  1
    Z3_2_1  COST  2398.98941073
    Z3_2_1  CH3_2_1  -1
    Z3_2_1  MR3_2_1  -2
    MARKER179  'MARKER'  'INTEND'
    F3_2_1  COST  8.18324903507
    F3_2_1  UB3_2_1  1
    F3_2_1  LB3_2_1  1
    F3_2_1  BAL5_1  -1
    F3_2_1  BAL6_1  0.0626791249518
    F3_2_1  BAL7_1  0.68453604098
    F3_2_1  BAL8_1  0.199947421179
    MARKER180  'MARKER'  'INTORG'
    Y3_2_2  ASG3_2  1
    Y3_2_2  UB3_2_2  -153.368463647
    Y3_2_2  LB3_2_2  -56.9901432052
    Y3_2_2  CH3_2_2  1
    Y3_2_2  CH3_2_3  -1
    Y3_2_2  MR3_2_1  1
    Y3_2_2  MR3_2_2  1
    Z3_2_2  COST  2398.98941073
    Z3_2_2  CH3_2_2  -1
    Z3_2_2  MR3_2_2  -2
    MARKER181  'MARKER'  'INTEND'
    F3_2_2  COST  8.18324903507
    F3_2_2  UB3_2_2  1
    F3_2_2  LB3_2_2  1
    F3_2_2  BAL5_2  -1
    F3_2_2  BAL6_2  0.0626791249518
    F3_2_2  BAL7_2  0.68453604098
    F3_2_2  BAL8_2  0.199947421179
    MARKER182  'MARKER'  'INTORG'
    Y3_2_3  ASG3_3  1
    Y3_2_3  UB3_2_3  -153.368463647
    Y3_2_3  LB3_2_3  -56.9901432052
    Y3_2_3  CH3_2_3  1
    Y3_2_3  CH3_2_4  -1
    Y3_2_3  MR3_2_2  1
    Y3_2_3  MR3_2_3  1
    Z3_2_3  COST  2398.98941073
    Z3_2_3  CH3_2_3  -1
    Z3_2_3  MR3_2_3  -2
    MARKER183  'MARKER'  'INTEND'
    F3_2_3  COST  8.18324903507
    F3_2_3  UB3_2_3  1
    F3_2_3  LB3_2_3  1
    F3_2_3  BAL5_3  -1
    F3_2_3  BAL6_3  0.0626791249518
    F3_2_3  BAL7_3  0.68453604098
    F3_2_3  BAL8_3  0.199947421179
    MARKER184  'MARKER'  'INTORG'
    Y3_2_4  ASG3_4  1
    Y3_2_4  UB3_2_4  -153.368463647
    Y3_2_4  LB3_2_4  -56.9901432052
    Y3_2_4  CH3_2_4  1
    Y3_2_4  CH3_2_5  -1
    Y3_2_4  MR3_2_3  1
    Y3_2_4  MR3_2_4  1
    Z3_2_4  COST  2398.98941073
    Z3_2_4  CH3_2_4  -1
    Z3_2_4  MR3_2_4  -2
    MARKER185  'MARKER'  'INTEND'
    F3_2_4  COST  8.18324903507
    F3_2_4  UB3_2_4  1
    F3_2_4  LB3_2_4  1
    F3_2_4  BAL5_4  -1
    F3_2_4  BAL6_4  0.0626791249518
    F3_2_4  BAL7_4  0.68453604098
    F3_2_4  BAL8_4  0.199947421179
    MARKER186  'MARKER'  'INTORG'
    Y3_2_5  ASG3_5  1
    Y3_2_5  UB3_2_5  -153.368463647
    Y3_2_5  LB3_2_5  -56.9901432052
    Y3_2_5  CH3_2_5  1
    Y3_2_5  CH3_2_6  -1
    Y3_2_5  MR3_2_4  1
    Y3_2_5  MR3_2_5  1
    Z3_2_5  COST  2398.98941073
    Z3_2_5  CH3_2_5  -1
    Z3_2_5  MR3_2_5  -2
    MARKER187  'MARKER'  'INTEND'
    F3_2_5  COST  8.18324903507
    F3_2_5  UB3_2_5  1
    F3_2_5  LB3_2_5  1
    F3_2_5  BAL5_5  -1
    F3_2_5  BAL6_5  0.0626791249518
    F3_2_5  BAL7_5  0.68453604098
    F3_2_5  BAL8_5  0.199947421179
    MARKER188  'MARKER'  'INTORG'
    Y3_2_6  ASG3_6  1
    Y3_2_6  UB3_2_6  -153.368463647
    Y3_2_6  LB3_2_6  -56.9901432052
    Y3_2_6  CH3_2_6  1
    Y3_2_6  CH3_2_7  -1
    Y3_2_6  MR3_2_5  1
    Y3_2_6  MR3_2_6  1
    Z3_2_6  COST  2398.98941073
    Z3_2_6  CH3_2_6  -1
    Z3_2_6  MR3_2_6  -2
    MARKER189  'MARKER'  'INTEND'
    F3_2_6  COST  8.18324903507
    F3_2_6  UB3_2_6  1
    F3_2_6  LB3_2_6  1
    F3_2_6  BAL5_6  -1
    F3_2_6  BAL6_6  0.0626791249518
    F3_2_6  BAL7_6  0.68453604098
    F3_2_6  BAL8_6  0.199947421179
    MARKER190  'MARKER'  'INTORG'
    Y3_2_7  ASG3_7  1
    Y3_2_7  UB3_2_7  -153.368463647
    Y3_2_7  LB3_2_7  -56.9901432052
    Y3_2_7  CH3_2_7  1
    Y3_2_7  MR3_2_6  1
    Z3_2_7  COST  2398.98941073
    Z3_2_7  CH3_2_7  -1
    MARKER191  'MARKER'  'INTEND'
    F3_2_7  COST  8.18324903507
    F3_2_7  UB3_2_7  1
    F3_2_7  LB3_2_7  1
    F3_2_7  BAL5_7  -1
    F3_2_7  BAL6_7  0.0626791249518
    F3_2_7  BAL7_7  0.68453604098
    F3_2_7  BAL8_7  0.199947421179
    I0_0  COST  0.756281381264
    I0_0  BAL0_0  -1
    I0_0  BAL0_1  1
    I0_1  COST  0.756281381264
    I0_1  BAL0_1  -1
    I0_1  BAL0_2  1
    I0_2  COST  0.756281381264
    I0_2  BAL0_2  -1
    I0_2  BAL0_3  1
    I0_3  COST  0.756281381264
    I0_3  BAL0_3  -1
    I0_3  BAL0_4  1
    I0_4  COST  0.756281381264
    I0_4  BAL0_4  -1
    I0_4  BAL0_5  1
    I0_5  COST  0.756281381264
    I0_5  BAL0_5  -1
    I0_5  BAL0_6  1
    I0_6  COST  0.756281381264
    I0_6  BAL0_6  -1
    I0_6  BAL0_7  1
    I0_7  COST  0.756281381264
    I0_7  BAL0_7  -1
    I1_0  COST  0.267526348898
    I1_0  BAL1_0  -1
    I1_0  BAL1_1  1
    I1_1  COST  0.267526348898
    I1_1  BAL1_1  -1
    I1_1  BAL1_2  1
    I1_2  COST  0.267526348898
    I1_2  BAL1_2  -1
    I1_2  BAL1_3  1
    I1_3  COST  0.267526348898
    I1_3  BAL1_3  -1
    I1_3  BAL1_4  1
    I1_4  COST  0.267526348898
    I1_4  BAL1_4  -1
    I1_4  BAL1_5  1
    I1_5  COST  0.267526348898
    I1_5  BAL1_5  -1
    I1_5  BAL1_6  1
    I1_6  COST  0.267526348898
    I1_6  BAL1_6  -1
    I1_6  BAL1_7  1
    I1_7  COST  0.267526348898
    I1_7  BAL1_7  -1
    I2_0  COST  0.486985834301
    I2_0  BAL2_0  -1
    I2_0  BAL2_1  1
    I2_1  COST  0.486985834301
    I2_1  BAL2_1  -1
    I2_1  BAL2_2  1
    I2_2  COST  0.486985834301
    I2_2  BAL2_2  -1
    I2_2  BAL2_3  1
    I2_3  COST  0.486985834301
    I2_3  BAL2_3  -1
    I2_3  BAL2_4  1
    I2_4  COST  0.486985834301
    I2_4  BAL2_4  -1
    I2_4  BAL2_5  1
    I2_5  COST  0.486985834301
    I2_5  BAL2_5  -1
    I2_5  BAL2_6  1
    I2_6  COST  0.486985834301
    I2_6  BAL2_6  -1
    I2_6  BAL2_7  1
    I2_7  COST  0.486985834301
    I2_7  BAL2_7  -1
    I3_0  COST  0.681231035602
    I3_0  BAL3_0  -1
    I3_0  BAL3_1  1
    I3_1  COST  0.681231035602
    I3_1  BAL3_1  -1
    I3_1  BAL3_2  1
    I3_2  COST  0.681231035602
    I3_2  BAL3_2  -1
    I3_2  BAL3_3  1
    I3_3  COST  0.681231035602
    I3_3  BAL3_3  -1
    I3_3  BAL3_4  1
    I3_4  COST  0.681231035602
    I3_4  BAL3_4  -1
    I3_4  BAL3_5  1
    I3_5  COST  0.681231035602
    I3_5  BAL3_5  -1
    I3_5  BAL3_6  1
    I3_6  COST  0.681231035602
    I3_6  BAL3_6  -1
    I3_6  BAL3_7  1
    I3_7  COST  0.681231035602
    I3_7  BAL3_7  -1
    I4_0  COST  0.712768927949
    I4_0  BAL4_0  -1
    I4_0  BAL4_1  1
    I4_1  COST  0.712768927949
    I4_1  BAL4_1  -1
    I4_1  BAL4_2  1
    I4_2  COST  0.712768927949
    I4_2  BAL4_2  -1
    I4_2  BAL4_3  1
    I4_3  COST  0.712768927949
    I4_3  BAL4_3  -1
    I4_3  BAL4_4  1
    I4_4  COST  0.712768927949
    I4_4  BAL4_4  -1
    I4_4  BAL4_5  1
    I4_5  COST  0.712768927949
    I4_5  BAL4_5  -1
    I4_5  BAL4_6  1
    I4_6  COST  0.712768927949
    I4_6  BAL4_6  -1
    I4_6  BAL4_7  1
    I4_7  COST  0.712768927949
    I4_7  BAL4_7  -1
    I5_0  COST  0.435256437535
    I5_0  BAL5_0  -1
    I5_0  BAL5_1  1
    I5_1  COST  0.435256437535
    I5_1  BAL5_1  -1
    I5_1  BAL5_2  1
    I5_2  COST  0.435256437535
    I5_2  BAL5_2  -1
    I5_2  BAL5_3  1
    I5_3  COST  0.435256437535
    I5_3  BAL5_3  -1
    I5_3  BAL5_4  1
    I5_4  COST  0.435256437535
    I5_4  BAL5_4  -1
    I5_4  BAL5_5  1
    I5_5  COST  0.435256437535
    I5_5  BAL5_5  -1
    I5_5  BAL5_6  1
    I5_6  COST  0.435256437535
    I5_6  BAL5_6  -1
    I5_6  BAL5_7  1
    I5_7  COST  0.435256437535
    I5_7  BAL5_7  -1
    I6_0  COST  0.879848573505
    I6_0  BAL6_0  -1
    I6_0  BAL6_1  1
    I6_1  COST  0.879848573505
    I6_1  BAL6_1  -1
    I6_1  BAL6_2  1
    I6_2  COST  0.879848573505
    I6_2  BAL6_2  -1
    I6_2  BAL6_3  1
    I6_3  COST  0.879848573505
    I6_3  BAL6_3  -1
    I6_3  BAL6_4  1
    I6_4  COST  0.879848573505
    I6_4  BAL6_4  -1
    I6_4  BAL6_5  1
    I6_5  COST  0.879848573505
    I6_5  BAL6_5  -1
    I6_5  BAL6_6  1
    I6_6  COST  0.879848573505
    I6_6  BAL6_6  -1
    I6_6  BAL6_7  1
    I6_7  COST  0.879848573505
    I6_7  BAL6_7  -1
    I7_0  COST  0.818509638059
    I7_0  BAL7_0  -1
    I7_0  BAL7_1  1
    I7_1  COST  0.818509638059
    I7_1  BAL7_1  -1
    I7_1  BAL7_2  1
    I7_2  COST  0.818509638059
    I7_2  BAL7_2  -1
    I7_2  BAL7_3  1
    I7_3  COST  0.818509638059
    I7_3  BAL7_3  -1
    I7_3  BAL7_4  1
    I7_4  COST  0.818509638059
    I7_4  BAL7_4  -1
    I7_4  BAL7_5  1
    I7_5  COST  0.818509638059
    I7_5  BAL7_5  -1
    I7_5  BAL7_6  1
    I7_6  COST  0.818509638059
    I7_6  BAL7_6  -1
    I7_6  BAL7_7  1
    I7_7  COST  0.818509638059
    I7_7  BAL7_7  -1
    I8_0  COST  0.158874420905
    I8_0  BAL8_0  -1
    I8_0  BAL8_1  1
    I8_1  COST  0.158874420905
    I8_1  BAL8_1  -1
    I8_1  BAL8_2  1
    I8_2  COST  0.158874420905
    I8_2  BAL8_2  -1
    I8_2  BAL8_3  1
    I8_3  COST  0.158874420905
    I8_3  BAL8_3  -1
    I8_3  BAL8_4  1
    I8_4  COST  0.158874420905
    I8_4  BAL8_4  -1
    I8_4  BAL8_5  1
    I8_5  COST  0.158874420905
    I8_5  BAL8_5  -1
    I8_5  BAL8_6  1
    I8_6  COST  0.158874420905
    I8_6  BAL8_6  -1
    I8_6  BAL8_7  1
    I8_7  COST  0.158874420905
    I8_7  BAL8_7  -1
    B0_0  COST  56.5475468107
    B0_0  BAL0_0  1
    B0_1  COST  56.5475468107
    B0_1  BAL0_1  1
    B0_2  COST  56.5475468107
    B0_2  BAL0_2  1
    B0_3  COST  56.5475468107
    B0_3  BAL0_3  1
    B0_4  COST  56.5475468107
    B0_4  BAL0_4  1
    B0_5  COST  56.5475468107
    B0_5  BAL0_5  1
    B0_6  COST  56.5475468107
    B0_6  BAL0_6  1
    B0_7  COST  56.5475468107
    B0_7  BAL0_7  1
    B1_0  COST  69.3494924067
    B1_0  BAL1_0  1
    B1_1  COST  69.3494924067
    B1_1  BAL1_1  1
    B1_2  COST  69.3494924067
    B1_2  BAL1_2  1
    B1_3  COST  69.3494924067
    B1_3  BAL1_3  1
    B1_4  COST  69.3494924067
    B1_4  BAL1_4  1
    B1_5  COST  69.3494924067
    B1_5  BAL1_5  1
    B1_6  COST  69.3494924067
    B1_6  BAL1_6  1
    B1_7  COST  69.3494924067
    B1_7  BAL1_7  1
    S0_0  COST  -172.574573198
    S0_0  BAL6_0  -1
    S0_0  DEM0_0  1
    H0_0  COST  517.723719595
    H0_0  DEM0_0  1
    S0_1  COST  -172.574573198
    S0_1  BAL6_1  -1
    S0_1  DEM0_1  1
    H0_1  COST  517.723719595
    H0_1  DEM0_1  1
    S0_2  COST  -172.574573198
    S0_2  BAL6_2  -1
    S0_2  DEM0_2  1
    H0_2  COST  517.723719595
    H0_2  DEM0_2  1
    S0_3  COST  -172.574573198
    S0_3  BAL6_3  -1
    S0_3  DEM0_3  1
    H0_3  COST  517.723719595
    H0_3  DEM0_3  1
    S0_4  COST  -172.574573198
    S0_4  BAL6_4  -1
    S0_4  DEM0_4  1
    H0_4  COST  517.723719595
    H0_4  DEM0_4  1
    S0_5  COST  -172.574573198
    S0_5  BAL6_5  -1
    S0_5  DEM0_5  1
    H0_5  COST  517.723719595
    H0_5  DEM0_5  1
    S0_6  COST  -172.574573198
    S0_6  BAL6_6  -1
    S0_6  DEM0_6  1
    H0_6  COST  517.723719595
    H0_6  DEM0_6  1
    S0_7  COST  -172.574573198
    S0_7  BAL6_7  -1
    S0_7  DEM0_7  1
    H0_7  COST  517.723719595
    H0_7  DEM0_7  1
    S1_0  COST  -143.785097013
    S1_0  BAL7_0  -1
    S1_0  DEM1_0  1
    H1_0  COST  517.723719595
    H1_0  DEM1_0  1
    S1_1  COST  -143.785097013
    S1_1  BAL7_1  -1
    S1_1  DEM1_1  1
    H1_1  COST  517.723719595
    H1_1  DEM1_1  1
    S1_2  COST  -143.785097013
    S1_2  BAL7_2  -1
    S1_2  DEM1_2  1
    H1_2  COST  517.723719595
    H1_2  DEM1_2  1
    S1_3  COST  -143.785097013
    S1_3  BAL7_3  -1
    S1_3  DEM1_3  1
    H1_3  COST  517.723719595
    H1_3  DEM1_3  1
    S1_4  COST  -143.785097013
    S1_4  BAL7_4  -1
    S1_4  DEM1_4  1
    H1_4  COST  517.723719595
    H1_4  DEM1_4  1
    S1_5  COST  -143.785097013
    S1_5  BAL7_5  -1
    S1_5  DEM1_5  1
    H1_5  COST  517.723719595
    H1_5  DEM1_5  1
    S1_6  COST  -143.785097013
    S1_6  BAL7_6  -1
    S1_6  DEM1_6  1
    H1_6  COST  517.723719595
    H1_6  DEM1_6  1
    S1_7  COST  -143.785097013
    S1_7  BAL7_7  -1
    S1_7  DEM1_7  1
    H1_7  COST  517.723719595
    H1_7  DEM1_7  1
    S2_0  COST  -170.273615921
    S2_0  BAL8_0  -1
    S2_0  DEM2_0  1
    H2_0  COST  517.723719595
    H2_0  DEM2_0  1
    S2_1  COST  -170.273615921
    S2_1  BAL8_1  -1
    S2_1  DEM2_1  1
    H2_1  COST  517.723719595
    H2_1  DEM2_1  1
    S2_2  COST  -170.273615921
    S2_2  BAL8_2  -1
    S2_2  DEM2_2  1
    H2_2  COST  517.723719595
    H2_2  DEM2_2  1
    S2_3  COST  -170.273615921
    S2_3  BAL8_3  -1
    S2_3  DEM2_3  1
    H2_3  COST  517.723719595
    H2_3  DEM2_3  1
    S2_4  COST  -170.273615921
    S2_4  BAL8_4  -1
    S2_4  DEM2_4  1
    H2_4  COST  517.723719595
    H2_4  DEM2_4  1
    S2_5  COST  -170.273615921
    S2_5  BAL8_5  -1
    S2_5  DEM2_5  1
    H2_5  COST  517.723719595
    H2_5  DEM2_5  1
    S2_6  COST  -170.273615921
    S2_6  BAL8_6  -1
    S2_6  DEM2_6  1
    H2_6  COST  517.723719595
    H2_6  DEM2_6  1
    S2_7  COST  -170.273615921
    S2_7  BAL8_7  -1
    S2_7  DEM2_7  1
    H2_7  COST  517.723719595
    H2_7  DEM2_7  1
RHS
    RHS  ASG0_0  1
    RHS  ASG0_1  1
    RHS  ASG0_2  1
    RHS  ASG0_3  1
    RHS  ASG0_4  1
    RHS  ASG0_5  1
    RHS  ASG0_6  1
    RHS  ASG0_7  1
    RHS  ASG1_0  1
    RHS  ASG1_1  1
    RHS  ASG1_2  1
    RHS  ASG1_3  1
    RHS  ASG1_4  1
    RHS  ASG1_5  1
    RHS  ASG1_6  1
    RHS  ASG1_7  1
    RHS  ASG2_0  1
    RHS  ASG2_1  1
    RHS  ASG2_2  1
    RHS  ASG2_3  1
    RHS  ASG2_4  1
    RHS  ASG2_5  1
    RHS  ASG2_6  1
    RHS  ASG2_7  1
    RHS  ASG3_0  1
    RHS  ASG3_1  1
    RHS  ASG3_2  1
    RHS  ASG3_3  1
    RHS  ASG3_4  1
    RHS  ASG3_5  1
    RHS  ASG3_6  1
    RHS  ASG3_7  1
    RHS  UB0_0_0  0
    RHS  UB0_0_1  0
    RHS  UB0_0_2  0
    RHS  UB0_0_3  0
    RHS  UB0_0_4  0
    RHS  UB0_0_5  0
    RHS  UB0_0_6  0
    RHS  UB0_0_7  0
    RHS  UB0_1_0  0
    RHS  LB0_1_0  0
    RHS  UB0_1_1  0
    RHS  LB0_1_1  0
    RHS  UB0_1_2  0
    RHS  LB0_1_2  0
    RHS  UB0_1_3  0
    RHS  LB0_1_3  0
    RHS  UB0_1_4  0
    RHS  LB0_1_4  0
    RHS  UB0_1_5  0
    RHS  LB0_1_5  0
    RHS  UB0_1_6  0
    RHS  LB0_1_6  0
    RHS  UB0_1_7  0
    RHS  LB0_1_7  0
    RHS  UB0_2_0  0
    RHS  LB0_2_0  0
    RHS  UB0_2_1  0
    RHS  LB0_2_1  0
    RHS  UB0_2_2  0
    RHS  LB0_2_2  0
    RHS  UB0_2_3  0
    RHS  LB0_2_3  0
    RHS  UB0_2_4  0
    RHS  LB0_2_4  0
    RHS  UB0_2_5  0
    RHS  LB0_2_5  0
    RHS  UB0_2_6  0
    RHS  LB0_2_6  0
    RHS  UB0_2_7  0
    RHS  LB0_2_7  0
    RHS  UB1_0_0  0
    RHS  UB1_0_1  0
    RHS  UB1_0_2  0
    RHS  UB1_0_3  0
    RHS  UB1_0_4  0
    RHS  UB1_0_5  0
    RHS  UB1_0_6  0
    RHS  UB1_0_7  0
    RHS  UB1_1_0  0
    RHS  LB1_1_0  0
    RHS  UB1_1_1  0
    RHS  LB1_1_1  0
    RHS  UB1_1_2  0
    RHS  LB1_1_2  0
    RHS  UB1_1_3  0
    RHS  LB1_1_3  0
    RHS  UB1_1_4  0
    RHS  LB1_1_4  0
    RHS  UB1_1_5  0
    RHS  LB1_1_5  0
    RHS  UB1_1_6  0
    RHS  LB1_1_6  0
    RHS  UB1_1_7  0
    RHS  LB1_1_7  0
    RHS  UB1_2_0  0
    RHS  LB1_2_0  0
    RHS  UB1_2_1  0
    RHS  LB1_2_1  0
    RHS  UB1_2_2  0
    RHS  LB1_2_2  0
    RHS  UB1_2_3  0
    RHS  LB1_2_3  0
    RHS  UB1_2_4  0
    RHS  LB1_2_4  0
    RHS  UB1_2_5  0
    RHS  LB1_2_5  0
    RHS  UB1_2_6  0
    RHS  LB1_2_6  0
    RHS  UB1_2_7  0
    RHS  LB1_2_7  0
    RHS  UB2_0_0  0
    RHS  UB2_0_1  0
    RHS  UB2_0_2  0
    RHS  UB2_0_3  0
    RHS  UB2_0_4  0
    RHS  UB2_0_5  0
    RHS  UB2_0_6  0
    RHS  UB2_0_7  0
    RHS  UB2_1_0  0
    RHS  LB2_1_0  0
    RHS  UB2_1_1  0
    RHS  LB2_1_1  0
    RHS  UB2_1_2  0
    RHS  LB2_1_2  0
    RHS  UB2_1_3  0
    RHS  LB2_1_3  0
    RHS  UB2_1_4  0
    RHS  LB2_1_4  0
    RHS  UB2_1_5  0
    RHS  LB2_1_5  0
    RHS  UB2_1_6  0
    RHS  LB2_1_6  0
    RHS  UB2_1_7  0
    RHS  LB2_1_7  0
    RHS  UB2_2_0  0
    RHS  LB2_2_0  0
    RHS  UB2_2_1  0
    RHS  LB2_2_1  0
    RHS  UB2_2_2  0
    RHS  LB2_2_2  0
    RHS  UB2_2_3  0
    RHS  LB2_2_3  0
    RHS  UB2_2_4  0
    RHS  LB2_2_4  0
    RHS  UB2_2_5  0
    RHS  LB2_2_5  0
    RHS  UB2_2_6  0
    RHS  LB2_2_6  0
    RHS  UB2_2_7  0
    RHS  LB2_2_7  0
    RHS  UB3_0_0  0
    RHS  UB3_0_1  0
    RHS  UB3_0_2  0
    RHS  UB3_0_3  0
    RHS  UB3_0_4  0
    RHS  UB3_0_5  0
    RHS  UB3_0_6  0
    RHS  UB3_0_7  0
    RHS  UB3_1_0  0
    RHS  LB3_1_0  0
    RHS  UB3_1_1  0
    RHS  LB3_1_1  0
    RHS  UB3_1_2  0
    RHS  LB3_1_2  0
    RHS  UB3_1_3  0
    RHS  LB3_1_3  0
    RHS  UB3_1_4  0
    RHS  LB3_1_4  0
    RHS  UB3_1_5  0
    RHS  LB3_1_5  0
    RHS  UB3_1_6  0
    RHS  LB3_1_6  0
    RHS  UB3_1_7  0
    RHS  LB3_1_7  0
    RHS  UB3_2_0  0
    RHS  LB3_2_0  0
    RHS  UB3_2_1  0
    RHS  LB3_2_1  0
    RHS  UB3_2_2  0
    RHS  LB3_2_2  0
    RHS  UB3_2_3  0
    RHS  LB3_2_3  0
    RHS  UB3_2_4  0
    RHS  LB3_2_4  0
    RHS  UB3_2_5  0
    RHS  LB3_2_5  0
    RHS  UB3_2_6  0
    RHS  LB3_2_6  0
    RHS  UB3_2_7  0
    RHS  LB3_2_7  0
    RHS  CH0_0_0  1
    RHS  CH0_0_1  0
    RHS  CH0_0_2  0
    RHS  CH0_0_3  0
    RHS  CH0_0_4  0
    RHS  CH0_0_5  0
    RHS  CH0_0_6  0
    RHS  CH0_0_7  0
    RHS  CH0_1_0  0
    RHS  CH0_1_1  0
    RHS  CH0_1_2  0
    RHS  CH0_1_3  0
    RHS  CH0_1_4  0
    RHS  CH0_1_5  0
    RHS  CH0_1_6  0
    RHS  CH0_1_7  0
    RHS  CH0_2_0  0
    RHS  CH0_2_1  0
    RHS  CH0_2_2  0
    RHS  CH0_2_3  0
    RHS  CH0_2_4  0
    RHS  CH0_2_5  0
    RHS  CH0_2_6  0
    RHS  CH0_2_7  0
    RHS  CH1_0_0  1
    RHS  CH1_0_1  0
    RHS  CH1_0_2  0
    RHS  CH1_0_3  0
    RHS  CH1_0_4  0
    RHS  CH1_0_5  0
    RHS  CH1_0_6  0
    RHS  CH1_0_7  0
    RHS  CH1_1_0  0
    RHS  CH1_1_1  0
    RHS  CH1_1_2  0
    RHS  CH1_1_3  0
    RHS  CH1_1_4  0
    RHS  CH1_1_5  0
    RHS  CH1_1_6  0
    RHS  CH1_1_7  0
    RHS  CH1_2_0  0
    RHS  CH1_2_1  0
    RHS  CH1_2_2  0
    RHS  CH1_2_3  0
    RHS  CH1_2_4  0
    RHS  CH1_2_5  0
    RHS  CH1_2_6  0
    RHS  CH1_2_7  0
    RHS  CH2_0_0  1
    RHS  CH2_0_1  0
    RHS  CH2_0_2  0
    RHS  CH2_0_3  0
    RHS  CH2_0_4  0
    RHS  CH2_0_5  0
    RHS  CH2_0_6  0
    RHS  CH2_0_7  0
    RHS  CH2_1_0  0
    RHS  CH2_1_1  0
    RHS  CH2_1_2  0
    RHS  CH2_1_3  0
    RHS  CH2_1_4  0
    RHS  CH2_1_5  0
    RHS  CH2_1_6  0
    RHS  CH2_1_7  0
    RHS  CH2_2_0  0
    RHS  CH2_2_1  0
    RHS  CH2_2_2  0
    RHS  CH2_2_3  0
    RHS  CH2_2_4  0
    RHS  CH2_2_5  0
    RHS  CH2_2_6  0
    RHS  CH2_2_7  0
    RHS  CH3_0_0  1
    RHS  CH3_0_1  0
    RHS  CH3_0_2  0
    RHS  CH3_0_3  0
    RHS  CH3_0_4  0
    RHS  CH3_0_5  0
    RHS  CH3_0_6  0
    RHS  CH3_0_7  0
    RHS  CH3_1_0  0
    RHS  CH3_1_1  0
    RHS  CH3_1_2  0
    RHS  CH3_1_3  0
    RHS  CH3_1_4  0
    RHS  CH3_1_5  0
    RHS  CH3_1_6  0
    RHS  CH3_1_7  0
    RHS  CH3_2_0  0
    RHS  CH3_2_1  0
    RHS  CH3_2_2  0
    RHS  CH3_2_3  0
    RHS  CH3_2_4  0
    RHS  CH3_2_5  0
    RHS  CH3_2_6  0
    RHS  CH3_2_7  0
    RHS  MR0_1_0  0
    RHS  MR0_1_1  0
    RHS  MR0_1_2  0
    RHS  MR0_1_3  0
    RHS  MR0_1_4  0
    RHS  MR0_1_5  0
    RHS  MR0_1_6  0
    RHS  MR0_2_0  0
    RHS  MR0_2_1  0
    RHS  MR0_2_2  0
    RHS  MR0_2_3  0
    RHS  MR0_2_4  0
    RHS  MR0_2_5  0
    RHS  MR0_2_6  0
    RHS  MR1_1_0  0
    RHS  MR1_1_1  0
    RHS  MR1_1_2  0
    RHS  MR1_1_3  0
    RHS  MR1_1_4  0
    RHS  MR1_1_5  0
    RHS  MR1_1_6  0
    RHS  MR1_2_0  0
    RHS  MR1_2_1  0
    RHS  MR1_2_2  0
    RHS  MR1_2_3  0
    RHS  MR1_2_4  0
    RHS  MR1_2_5  0
    RHS  MR1_2_6  0
    RHS  MR2_1_0  0
    RHS  MR2_1_1  0
    RHS  MR2_1_2  0
    RHS  MR2_1_3  0
    RHS  MR2_1_4  0
    RHS  MR2_1_5  0
    RHS  MR2_1_6  0
    RHS  MR2_2_0  0
    RHS  MR2_2_1  0
    RHS  MR2_2_2  0
    RHS  MR2_2_3  0
    RHS  MR2_2_4  0
    RHS  MR2_2_5  0
    RHS  MR2_2_6  0
    RHS  MR3_1_0  0
    RHS  MR3_1_1  0
    RHS  MR3_1_2  0
    RHS  MR3_1_3  0
    RHS  MR3_1_4  0
    RHS  MR3_1_5  0
    RHS  MR3_1_6  0
    RHS  MR3_2_0  0
    RHS  MR3_2_1  0
    RHS  MR3_2_2  0
    RHS  MR3_2_3  0
    RHS  MR3_2_4  0
    RHS  MR3_2_5  0
    RHS  MR3_2_6  0
    RHS  BAL0_0  0
    RHS  BAL0_1  0
    RHS  BAL0_2  0
    RHS  BAL0_3  0
    RHS  BAL0_4  0
    RHS  BAL0_5  0
    RHS  BAL0_6  0
    RHS  BAL0_7  0
    RHS  BAL1_0  0
    RHS  BAL1_1  0
    RHS  BAL1_2  0
    RHS  BAL1_3  0
    RHS  BAL1_4  0
    RHS  BAL1_5  0
    RHS  BAL1_6  0
    RHS  BAL1_7  0
    RHS  BAL2_0  0
    RHS  BAL2_1  0
    RHS  BAL2_2  0
    RHS  BAL2_3  0
    RHS  BAL2_4  0
    RHS  BAL2_5  0
    RHS  BAL2_6  0
    RHS  BAL2_7  0
    RHS  BAL3_0  0
    RHS  BAL3_1  0
    RHS  BAL3_2  0
    RHS  BAL3_3  0
    RHS  BAL3_4  0
    RHS  BAL3_5  0
    RHS  BAL3_6  0
    RHS  BAL3_7  0
    RHS  BAL4_0  0
    RHS  BAL4_1  0
    RHS  BAL4_2  0
    RHS  BAL4_3  0
    RHS  BAL4_4  0
    RHS  BAL4_5  0
    RHS  BAL4_6  0
    RHS  BAL4_7  0
    RHS  BAL5_0  0
    RHS  BAL5_1  0
    RHS  BAL5_2  0
    RHS  BAL5_3  0
    RHS  BAL5_4  0
    RHS  BAL5_5  0
    RHS  BAL5_6  0
    RHS  BAL5_7  0
    RHS  BAL6_0  0
    RHS  BAL6_1  0
    RHS  BAL6_2  0
    RHS  BAL6_3  0
    RHS  BAL6_4  0
    RHS  BAL6_5  0
    RHS  BAL6_6  0
    RHS  BAL6_7  0
    RHS  BAL7_0  0
    RHS  BAL7_1  0
    RHS  BAL7_2  0
    RHS  BAL7_3  0
    RHS  BAL7_4  0
    RHS  BAL7_5  0
    RHS  BAL7_6  0
    RHS  BAL7_7  0
    RHS  BAL8_0  0
    RHS  BAL8_1  0
    RHS  BAL8_2  0
    RHS  BAL8_3  0
    RHS  BAL8_4  0
    RHS  BAL8_5  0
    RHS  BAL8_6  0
    RHS  BAL8_7  0
    RHS  DEM0_0  128.067112502
    RHS  DEM0_1  78.0857106071
    RHS  DEM0_2  61.3381089384
    RHS  DEM0_3  52.6953814093
    RHS  DEM0_4  119.150629209
    RHS  DEM0_5  150.970373689
    RHS  DEM0_6  80.4571104179
    RHS  DEM0_7  76.2194124427
    RHS  DEM1_0  80.8233655666
    RHS  DEM1_1  76.0898499333
    RHS  DEM1_2  89.1666896164
    RHS  DEM1_3  63.9088514282
    RHS  DEM1_4  72.5306434341
    RHS  DEM1_5  69.7094546832
    RHS  DEM1_6  101.854592098
    RHS  DEM1_7  168.988625382
    RHS  DEM2_0  167.112541797
    RHS  DEM2_1  144.866078051
    RHS  DEM2_2  81.9053256874
    RHS  DEM2_3  110.820947427
    RHS  DEM2_4  97.3040052201
    RHS  DEM2_5  41.3067337058
    RHS  DEM2_6  81.8939092262
    RHS  DEM2_7  75.2665462095
RANGES
BOUNDS
 UP BND  Y0_0_0  1
 UP BND  Z0_0_0  1
 FX BND  F0_0_0  0
 UP BND  Y0_0_1  1
 UP BND  Z0_0_1  1
 FX BND  F0_0_1  0
 UP BND  Y0_0_2  1
 UP BND  Z0_0_2  1
 FX BND  F0_0_2  0
 UP BND  Y0_0_3  1
 UP BND  Z0_0_3  1
 FX BND  F0_0_3  0
 UP BND  Y0_0_4  1
 UP BND  Z0_0_4  1
 FX BND  F0_0_4  0
 UP BND  Y0_0_5  1
 UP BND  Z0_0_5  1
 FX BND  F0_0_5  0
 UP BND  Y0_0_6  1
 UP BND  Z0_0_6  1
 FX BND  F0_0_6  0
 UP BND  Y0_0_7  1
 UP BND  Z0_0_7  1
 FX BND  F0_0_7  0
 UP BND  Y0_1_0  1
 UP BND  Z0_1_0  1
 UP BND  F0_1_0  184.655438014
 UP BND  Y0_1_1  1
 UP BND  Z0_1_1  1
 UP BND  F0_1_1  184.655438014
 UP BND  Y0_1_2  1
 UP BND  Z0_1_2  1
 UP BND  F0_1_2  184.655438014
 UP BND  Y0_1_3  1
 UP BND  Z0_1_3  1
 UP BND  F0_1_3  184.655438014
 UP BND  Y0_1_4  1
 UP BND  Z0_1_4  1
 UP BND  F0_1_4  184.655438014
 UP BND  Y0_1_5  1
 UP BND  Z0_1_5  1
 UP BND  F0_1_5  184.655438014
 UP BND  Y0_1_6  1
 UP BND  Z0_1_6  1
 UP BND  F0_1_6  184.655438014
 UP BND  Y0_1_7  1
 UP BND  Z0_1_7  1
 UP BND  F0_1_7  184.655438014
 UP BND  Y0_2_0  1
 UP BND  Z0_2_0  1
 UP BND  F0_2_0  213.734224092
 UP BND  Y0_2_1  1
 UP BND  Z0_2_1  1
 UP BND  F0_2_1  213.734224092
 UP BND  Y0_2_2  1
 UP BND  Z0_2_2  1
 UP BND  F0_2_2  213.734224092
 UP BND  Y0_2_3  1
 UP BND  Z0_2_3  1
 UP BND  F0_2_3  213.734224092
 UP BND  Y0_2_4  1
 UP BND  Z0_2_4  1
 UP BND  F0_2_4  213.734224092
 UP BND  Y0_2_5  1
 UP BND  Z0_2_5  1
 UP BND  F0_2_5  213.734224092
 UP BND  Y0_2_6  1
 UP BND  Z0_2_6  1
 UP BND  F0_2_6  213.734224092
 UP BND  Y0_2_7  1
 UP BND  Z0_2_7  1
 UP BND  F0_2_7  213.734224092
 UP BND  Y1_0_0  1
 UP BND  Z1_0_0  1
 FX BND  F1_0_0  0
 UP BND  Y1_0_1  1
 UP BND  Z1_0_1  1
 FX BND  F1_0_1  0
 UP BND  Y1_0_2  1
 UP BND  Z1_0_2  1
 FX BND  F1_0_2  0
 UP BND  Y1_0_3  1
 UP BND  Z1_0_3  1
 FX BND  F1_0_3  0
 UP BND  Y1_0_4  1
 UP BND  Z1_0_4  1
 FX BND  F1_0_4  0
 UP BND  Y1_0_5  1
 UP BND  Z1_0_5  1
 FX BND  F1_0_5  0
 UP BND  Y1_0_6  1
 UP BND  Z1_0_6  1
 FX BND  F1_0_6  0
 UP BND  Y1_0_7  1
 UP BND  Z1_0_7  1
 FX BND  F1_0_7  0
 UP BND  Y1_1_0  1
 UP BND  Z1_1_0  1
 UP BND  F1_1_0  143.489329248
 UP BND  Y1_1_1  1
 UP BND  Z1_1_1  1
 UP BND  F1_1_1  143.489329248
 UP BND  Y1_1_2  1
 UP BND  Z1_1_2  1
 UP BND  F1_1_2  143.489329248
 UP BND  Y1_1_3  1
 UP BND  Z1_1_3  1
 UP BND  F1_1_3  143.489329248
 UP BND  Y1_1_4  1
 UP BND  Z1_1_4  1
 UP BND  F1_1_4  143.489329248
 UP BND  Y1_1_5  1
 UP BND  Z1_1_5  1
 UP BND  F1_1_5  143.489329248
 UP BND  Y1_1_6  1
 UP BND  Z1_1_6  1
 UP BND  F1_1_6  143.489329248
 UP BND  Y1_1_7  1
 UP BND  Z1_1_7  1
 UP BND  F1_1_7  143.489329248
 UP BND  Y1_2_0  1
 UP BND  Z1_2_0  1
 UP BND  F1_2_0  147.030879532
 UP BND  Y1_2_1  1
 UP BND  Z1_2_1  1
 UP BND  F1_2_1  147.030879532
 UP BND  Y1_2_2  1
 UP BND  Z1_2_2  1
 UP BND  F1_2_2  147.030879532
 UP BND  Y1_2_3  1
 UP BND  Z1_2_3  1
 UP BND  F1_2_3  147.030879532
 UP BND  Y1_2_4  1
 UP BND  Z1_2_4  1
 UP BND  F1_2_4  147.030879532
 UP BND  Y1_2_5  1
 UP BND  Z1_2_5  1
 UP BND  F1_2_5  147.030879532
 UP BND  Y1_2_6  1
 UP BND  Z1_2_6  1
 UP BND  F1_2_6  147.030879532
 UP BND  Y1_2_7  1
 UP BND  Z1_2_7  1
 UP BND  F1_2_7  147.030879532
 UP BND  Y2_0_0  1
 UP BND  Z2_0_0  1
 FX BND  F2_0_0  0
 UP BND  Y2_0_1  1
 UP BND  Z2_0_1  1
 FX BND  F2_0_1  0
 UP BND  Y2_0_2  1
 UP BND  Z2_0_2  1
 FX BND  F2_0_2  0
 UP BND  Y2_0_3  1
 UP BND  Z2_0_3  1
 FX BND  F2_0_3  0
 UP BND  Y2_0_4  1
 UP BND  Z2_0_4  1
 FX BND  F2_0_4  0
 UP BND  Y2_0_5  1
 UP BND  Z2_0_5  1
 FX BND  F2_0_5  0
 UP BND  Y2_0_6  1
 UP BND  Z2_0_6  1
 FX BND  F2_0_6  0
 UP BND  Y2_0_7  1
 UP BND  Z2_0_7  1
 FX BND  F2_0_7  0
 UP BND  Y2_1_0  1
 UP BND  Z2_1_0  1
 UP BND  F2_1_0  205.575668454
 UP BND  Y2_1_1  1
 UP BND  Z2_1_1  1
 UP BND  F2_1_1  205.575668454
 UP BND  Y2_1_2  1
 UP BND  Z2_1_2  1
 UP BND  F2_1_2  205.575668454
 UP BND  Y2_1_3  1
 UP BND  Z2_1_3  1
 UP BND  F2_1_3  205.575668454
 UP BND  Y2_1_4  1
 UP BND  Z2_1_4  1
 UP BND  F2_1_4  205.575668454
 UP BND  Y2_1_5  1
 UP BND  Z2_1_5  1
 UP BND  F2_1_5  205.575668454
 UP BND  Y2_1_6  1
 UP BND  Z2_1_6  1
 UP BND  F2_1_6  205.575668454
 UP BND  Y2_1_7  1
 UP BND  Z2_1_7  1
 UP BND  F2_1_7  205.575668454
 UP BND  Y2_2_0  1
 UP BND  Z2_2_0  1
 UP BND  F2_2_0  185.118731367
 UP BND  Y2_2_1  1
 UP BND  Z2_2_1  1
 UP BND  F2_2_1  185.118731367
 UP BND  Y2_2_2  1
 UP BND  Z2_2_2  1
 UP BND  F2_2_2  185.118731367
 UP BND  Y2_2_3  1
 UP BND  Z2_2_3  1
 UP BND  F2_2_3  185.118731367
 UP BND  Y2_2_4  1
 UP BND  Z2_2_4  1
 UP BND  F2_2_4  185.118731367
 UP BND  Y2_2_5  1
 UP BND  Z2_2_5  1
 UP BND  F2_2_5  185.118731367
 UP BND  Y2_2_6  1
 UP BND  Z2_2_6  1
 UP BND  F2_2_6  185.118731367
 UP BND  Y2_2_7  1
 UP BND  Z2_2_7  1
 UP BND  F2_2_7  185.118731367
 UP BND  Y3_0_0  1
 UP BND  Z3_0_0  1
 FX BND  F3_0_0  0
 UP BND  Y3_0_1  1
 UP BND  Z3_0_1  1
 FX BND  F3_0_1  0
 UP BND  Y3_0_2  1
 UP BND  Z3_0_2  1
 FX BND  F3_0_2  0
 UP BND  Y3_0_3  1
 UP BND  Z3_0_3  1
 FX BND  F3_0_3  0
 UP BND  Y3_0_4  1
 UP BND  Z3_0_4  1
 FX BND  F3_0_4  0
 UP BND  Y3_0_5  1
 UP BND  Z3_0_5  1
 FX BND  F3_0_5  0
 UP BND  Y3_0_6  1
 UP BND  Z3_0_6  1
 FX BND  F3_0_6  0
 UP BND  Y3_0_7  1
 UP BND  Z3_0_7  1
 FX BND  F3_0_7  0
 UP BND  Y3_1_0  1
 UP BND  Z3_1_0  1
 UP BND  F3_1_0  143.786082139
 UP BND  Y3_1_1  1
 UP BND  Z3_1_1  1
 UP BND  F3_1_1  143.786082139
 UP BND  Y3_1_2  1
 UP BND  Z3_1_2  1
 UP BND  F3_1_2  143.786082139
 UP BND  Y3_1_3  1
 UP BND  Z3_1_3  1
 UP BND  F3_1_3  143.786082139
 UP BND  Y3_1_4  1
 UP BND  Z3_1_4  1
 UP BND  F3_1_4  143.786082139
 UP BND  Y3_1_5  1
 UP BND  Z3_1_5  1
 UP BND  F3_1_5  143.786082139
 UP BND  Y3_1_6  1
 UP BND  Z3_1_6  1
 UP BND  F3_1_6  143.786082139
 UP BND  Y3_1_7  1
 UP BND  Z3_1_7  1
 UP BND  F3_1_7  143.786082139
 UP BND  Y3_2_0  1
 UP BND  Z3_2_0  1
 UP BND  F3_2_0  153.368463647
 UP BND  Y3_2_1  1
 UP BND  Z3_2_1  1
 UP BND  F3_2_1  153.368463647
 UP BND  Y3_2_2  1
 UP BND  Z3_2_2  1
 UP BND  F3_2_2  153.368463647
 UP BND  Y3_2_3  1
 UP BND  Z3_2_3  1
 UP BND  F3_2_3  153.368463647
 UP BND  Y3_2_4  1
 UP BND  Z3_2_4  1
 UP BND  F3_2_4  153.368463647
 UP BND  Y3_2_5  1
 UP BND  Z3_2_5  1
 UP BND  F3_2_5  153.368463647
 UP BND  Y3_2_6  1
 UP BND  Z3_2_6  1
 UP BND  F3_2_6  153.368463647
 UP BND  Y3_2_7  1
 UP BND  Z3_2_7  1
 UP BND  F3_2_7  153.368463647
 UP BND  I0_0  303.891604983
 UP BND  I0_1  303.891604983
 UP BND  I0_2  303.891604983
 UP BND  I0_3  303.891604983
 UP BND  I0_4  303.891604983
 UP BND  I0_5  303.891604983
 UP BND  I0_6  303.891604983
 UP BND  I0_7  303.891604983
 UP BND  I1_0  1100.19080264
 UP BND  I1_1  1100.19080264
 UP BND  I1_2  1100.19080264
 UP BND  I1_3  1100.19080264
 UP BND  I1_4  1100.19080264
 UP BND  I1_5  1100.19080264
 UP BND  I1_6  1100.19080264
 UP BND  I1_7  1100.19080264
 UP BND  I2_0  770.277306855
 UP BND  I2_1  770.277306855
 UP BND  I2_2  770.277306855
 UP BND  I2_3  770.277306855
 UP BND  I2_4  770.277306855
 UP BND  I2_5  770.277306855
 UP BND  I2_6  770.277306855
 UP BND  I2_7  770.277306855
 UP BND  I3_0  1082.61103327
 UP BND  I3_1  1082.61103327
 UP BND  I3_2  1082.61103327
 UP BND  I3_3  1082.61103327
 UP BND  I3_4  1082.61103327
 UP BND  I3_5  1082.61103327
 UP BND  I3_6  1082.61103327
 UP BND  I3_7  1082.61103327
 UP BND  I4_0  1268.55826746
 UP BND  I4_1  1268.55826746
 UP BND  I4_2  1268.55826746
 UP BND  I4_3  1268.55826746
 UP BND  I4_4  1268.55826746
 UP BND  I4_5  1268.55826746
 UP BND  I4_6  1268.55826746
 UP BND  I4_7  1268.55826746
 UP BND  I5_0  1025.68998371
 UP BND  I5_1  1025.68998371
 UP BND  I5_2  1025.68998371
 UP BND  I5_3  1025.68998371
 UP BND  I5_4  1025.68998371
 UP BND  I5_5  1025.68998371
 UP BND  I5_6  1025.68998371
 UP BND  I5_7  1025.68998371
 UP BND  I6_0  495.108239699
 UP BND  I6_1  495.108239699
 UP BND  I6_2  495.108239699
 UP BND  I6_3  495.108239699
 UP BND  I6_4  495.108239699
 UP BND  I6_5  495.108239699
 UP BND  I6_6  495.108239699
 UP BND  I6_7  495.108239699
 UP BND  I7_0  320.196797673
 UP BND  I7_1  320.196797673
 UP BND  I7_2  320.196797673
 UP BND  I7_3  320.196797673
 UP BND  I7_4  320.196797673
 UP BND  I7_5  320.196797673
 UP BND  I7_6  320.196797673
 UP BND  I7_7  320.196797673
 UP BND  I8_0  333.358529409
 UP BND  I8_1  333.358529409
 UP BND  I8_2  333.358529409
 UP BND  I8_3  333.358529409
 UP BND  I8_4  333.358529409
 UP BND  I8_5  333.358529409
 UP BND  I8_6  333.358529409
 UP BND  I8_7  333.358529409
 UP BND  S0_0  128.067112502
 UP BND  H0_0  128.067112502
 UP BND  S0_1  78.0857106071
 UP BND  H0_1  78.0857106071
 UP BND  S0_2  61.3381089384
 UP BND  H0_2  61.3381089384
 UP BND  S0_3  52.6953814093
 UP BND  H0_3  52.6953814093
 UP BND  S0_4  119.150629209
 UP BND  H0_4  119.150629209
 UP BND  S0_5  150.970373689
 UP BND  H0_5  150.970373689
 UP BND  S0_6  80.4571104179
 UP BND  H0_6  80.4571104179
 UP BND  S0_7  76.2194124427
 UP BND  H0_7  76.2194124427
 UP BND  S1_0  80.8233655666
 UP BND  H1_0  80.8233655666
 UP BND  S1_1  76.0898499333
 UP BND  H1_1  76.0898499333
 UP BND  S1_2  89.1666896164
 UP BND  H1_2  89.1666896164
 UP BND  S1_3  63.9088514282
 UP BND  H1_3  63.9088514282
 UP BND  S1_4  72.5306434341
 UP BND  H1_4  72.5306434341
 UP BND  S1_5  69.7094546832
 UP BND  H1_5  69.7094546832
 UP BND  S1_6  101.854592098
 UP BND  H1_6  101.854592098
 UP BND  S1_7  168.988625382
 UP BND  H1_7  168.988625382
 UP BND  S2_0  167.112541797
 UP BND  H2_0  167.112541797
 UP BND  S2_1  144.866078051
 UP BND  H2_1  144.866078051
 UP BND  S2_2  81.9053256874
 UP BND  H2_2  81.9053256874
 UP BND  S2_3  110.820947427
 UP BND  H2_3  110.820947427
 UP BND  S2_4  97.3040052201
 UP BND  H2_4  97.3040052201
 UP BND  S2_5  41.3067337058
 UP BND  H2_5  41.3067337058
 UP BND  S2_6  81.8939092262
 UP BND  H2_6  81.8939092262
 UP BND  S2_7  75.2665462095
 UP BND  H2_7  75.2665462095
ENDATA
