NAME          RSCH0
ROWS
 N  COST
 E  ASG0_0
 E  ASG0_1
 E  ASG0_2
 E  ASG0_3
 E  ASG0_4
 E  ASG0_5
 E  ASG0_6
 E  ASG0_7
 E  ASG0_8
 E  ASG0_9
 E  ASG0_10
 E  ASG0_11
 E  ASG1_0
 E  ASG1_1
 E  ASG1_2
 E  ASG1_3
 E  ASG1_4
 E  ASG1_5
 E  ASG1_6
 E  ASG1_7
 E  ASG1_8
 E  ASG1_9
 E  ASG1_10
 E  ASG1_11
 E  ASG2_0
 E  ASG2_1
 E  ASG2_2
 E  ASG2_3
 E  ASG2_4
 E  ASG2_5
 E  ASG2_6
 E  ASG2_7
 E  ASG2_8
 E  ASG2_9
 E  ASG2_10
 E  ASG2_11
 E  ASG3_0
 E  ASG3_1
 E  ASG3_2
 E  ASG3_3
 E  ASG3_4
 E  ASG3_5
 E  ASG3_6
 E  ASG3_7
 E  ASG3_8
 E  ASG3_9
 E  ASG3_10
 E  ASG3_11
 E  ASG4_0
 E  ASG4_1
 E  ASG4_2
 E  ASG4_3
 E  ASG4_4
 E  ASG4_5
 E  ASG4_6
 E  ASG4_7
 E  ASG4_8
 E  ASG4_9
 E  ASG4_10
 E  ASG4_11
 E  ASG5_0
 E  ASG5_1
 E  ASG5_2
 E  ASG5_3
 E  ASG5_4
 E  ASG5_5
 E  ASG5_6
 E  ASG5_7
 E  ASG5_8
 E  ASG5_9
 E  ASG5_10
 E  ASG5_11
 L  UB0_0_0
 L  UB0_0_1
 L  UB0_0_2
 L  UB0_0_3
 L  UB0_0_4
 L  UB0_0_5
 L  UB0_0_6
 L  UB0_0_7
 L  UB0_0_8
 L  UB0_0_9
 L  UB0_0_10
 L  UB0_0_11
 L  UB0_1_0
 G  LB0_1_0
 L  UB0_1_1
 G  LB0_1_1
 L  UB0_1_2
 G  LB0_1_2
 L  UB0_1_3
 G  LB0_1_3
 L  UB0_1_4
 G  LB0_1_4
 L  UB0_1_5
 G  LB0_1_5
 L  UB0_1_6
 G  LB0_1_6
 L  UB0_1_7
 G  LB0_1_7
 L  UB0_1_8
 G  LB0_1_8
 L  UB0_1_9
 G  LB0_1_9
 L  UB0_1_10
 G  LB0_1_10
 L  UB0_1_11
 G  LB0_1_11
 L  UB0_2_0
 G  LB0_2_0
 L  UB0_2_1
 G  LB0_2_1
 L  UB0_2_2
 G  LB0_2_2
 L  UB0_2_3
 G  LB0_2_3
 L  UB0_2_4
 G  LB0_2_4
 L  UB0_2_5
 G  LB0_2_5
 L  UB0_2_6
 G  LB0_2_6
 L  UB0_2_7
 G  LB0_2_7
 L  UB0_2_8
 G  LB0_2_8
 L  UB0_2_9
 G  LB0_2_9
 L  UB0_2_10
 G  LB0_2_10
 L  UB0_2_11
 G  LB0_2_11
 L  UB1_0_0
 L  UB1_0_1
 L  UB1_0_2
 L  UB1_0_3
 L  UB1_0_4
 L  UB1_0_5
 L  UB1_0_6
 L  UB1_0_7
 L  UB1_0_8
 L  UB1_0_9
 L  UB1_0_10
 L  UB1_0_11
 L  UB1_1_0
 G  LB1_1_0
 L  UB1_1_1
 G  LB1_1_1
 L  UB1_1_2
 G  LB1_1_2
 L  UB1_1_3
 G  LB1_1_3
 L  UB1_1_4
 G  LB1_1_4
 L  UB1_1_5
 G  LB1_1_5
 L  UB1_1_6
 G  LB1_1_6
 L  UB1_1_7
 G  LB1_1_7
 L  UB1_1_8
 G  LB1_1_8
 L  UB1_1_9
 G  LB1_1_9
 L  UB1_1_10
 G  LB1_1_10
 L  UB1_1_11
 G  LB1_1_11
 L  UB1_2_0
 G  LB1_2_0
 L  UB1_2_1
 G  LB1_2_1
 L  UB1_2_2
 G  LB1_2_2
 L  UB1_2_3
 G  LB1_2_3
 L  UB1_2_4
 G  LB1_2_4
 L  UB1_2_5
 G  LB1_2_5
 L  UB1_2_6
 G  LB1_2_6
 L  UB1_2_7
 G  LB1_2_7
 L  UB1_2_8
 G  LB1_2_8
 L  UB1_2_9
 G  LB1_2_9
 L  UB1_2_10
 G  LB1_2_10
 L  UB1_2_11
 G  LB1_2_11
 L  UB2_0_0
 L  UB2_0_1
 L  UB2_0_2
 L  UB2_0_3
 L  UB2_0_4
 L  UB2_0_5
 L  UB2_0_6
 L  UB2_0_7
 L  UB2_0_8
 L  UB2_0_9
 L  UB2_0_10
 L  UB2_0_11
 L  UB2_1_0
 G  LB2_1_0
 L  UB2_1_1
 G  LB2_1_1
 L  UB2_1_2
 G  LB2_1_2
 L  UB2_1_3
 G  LB2_1_3
 L  UB2_1_4
 G  LB2_1_4
 L  UB2_1_5
 G  LB2_1_5
 L  UB2_1_6
 G  LB2_1_6
 L  UB2_1_7
 G  LB2_1_7
 L  UB2_1_8
 G  LB2_1_8
 L  UB2_1_9
 G  LB2_1_9
 L  UB2_1_10
 G  LB2_1_10
 L  UB2_1_11
 G  LB2_1_11
 L  UB2_2_0
 G  LB2_2_0
 L  UB2_2_1
 G  LB2_2_1
 L  UB2_2_2
 G  LB2_2_2
 L  UB2_2_3
 G  LB2_2_3
 L  UB2_2_4
 G  LB2_2_4
 L  UB2_2_5
 G  LB2_2_5
 L  UB2_2_6
 G  LB2_2_6
 L  UB2_2_7
 G  LB2_2_7
 L  UB2_2_8
 G  LB2_2_8
 L  UB2_2_9
 G  LB2_2_9
 L  UB2_2_10
 G  LB2_2_10
 L  UB2_2_11
 G  LB2_2_11
 L  UB3_0_0
 L  UB3_0_1
 L  UB3_0_2
 L  UB3_0_3
 L  UB3_0_4
 L  UB3_0_5
 L  UB3_0_6
 L  UB3_0_7
 L  UB3_0_8
 L  UB3_0_9
 L  UB3_0_10
 L  UB3_0_11
 L  UB3_1_0
 G  LB3_1_0
 L  UB3_1_1
 G  LB3_1_1
 L  UB3_1_2
 G  LB3_1_2
 L  UB3_1_3
 G  LB3_1_3
 L  UB3_1_4
 G  LB3_1_4
 L  UB3_1_5
 G  LB3_1_5
 L  UB3_1_6
 G  LB3_1_6
 L  UB3_1_7
 G  LB3_1_7
 L  UB3_1_8
 G  LB3_1_8
 L  UB3_1_9
 G  LB3_1_9
 L  UB3_1_10
 G  LB3_1_10
 L  UB3_1_11
 G  LB3_1_11
 L  UB3_2_0
 G  LB3_2_0
 L  UB3_2_1
 G  LB3_2_1
 L  UB3_2_2
 G  LB3_2_2
 L  UB3_2_3
 G  LB3_2_3
 L  UB3_2_4
 G  LB3_2_4
 L  UB3_2_5
 G  LB3_2_5
 L  UB3_2_6
 G  LB3_2_6
 L  UB3_2_7
 G  LB3_2_7
 L  UB3_2_8
 G  LB3_2_8
 L  UB3_2_9
 G  LB3_2_9
 L  UB3_2_10
 G  LB3_2_10
 L  UB3_2_11
 G  LB3_2_11
 L  UB4_0_0
 L  UB4_0_1
 L  UB4_0_2
 L  UB4_0_3
 L  UB4_0_4
 L  UB4_0_5
 L  UB4_0_6
 L  UB4_0_7
 L  UB4_0_8
 L  UB4_0_9
 L  UB4_0_10
 L  UB4_0_11
 L  UB4_1_0
 G  LB4_1_0
 L  UB4_1_1
 G  LB4_1_1
 L  UB4_1_2
 G  LB4_1_2
 L  UB4_1_3
 G  LB4_1_3
 L  UB4_1_4
 G  LB4_1_4
 L  UB4_1_5
 G  LB4_1_5
 L  UB4_1_6
 G  LB4_1_6
 L  UB4_1_7
 G  LB4_1_7
 L  UB4_1_8
 G  LB4_1_8
 L  UB4_1_9
 G  LB4_1_9
 L  UB4_1_10
 G  LB4_1_10
 L  UB4_1_11
 G  LB4_1_11
 L  UB4_2_0
 G  LB4_2_0
 L  UB4_2_1
 G  LB4_2_1
 L  UB4_2_2
 G  LB4_2_2
 L  UB4_2_3
 G  LB4_2_3
 L  UB4_2_4
 G  LB4_2_4
 L  UB4_2_5
 G  LB4_2_5
 L  UB4_2_6
 G  LB4_2_6
 L  UB4_2_7
 G  LB4_2_7
 L  UB4_2_8
 G  LB4_2_8
 L  UB4_2_9
 G  LB4_2_9
 L  UB4_2_10
 G  LB4_2_10
 L  UB4_2_11
 G  LB4_2_11
 L  UB5_0_0
 L  UB5_0_1
 L  UB5_0_2
 L  UB5_0_3
 L  UB5_0_4
 L  UB5_0_5
 L  UB5_0_6
 L  UB5_0_7
 L  UB5_0_8
 L  UB5_0_9
 L  UB5_0_10
 L  UB5_0_11
 L  UB5_1_0
 G  LB5_1_0
 L  UB5_1_1
 G  LB5_1_1
 L  UB5_1_2
 G  LB5_1_2
 L  UB5_1_3
 G  LB5_1_3
 L  UB5_1_4
 G  LB5_1_4
 L  UB5_1_5
 G  LB5_1_5
 L  UB5_1_6
 G  LB5_1_6
 L  UB5_1_7
 G  LB5_1_7
 L  UB5_1_8
 G  LB5_1_8
 L  UB5_1_9
 G  LB5_1_9
 L  UB5_1_10
 G  LB5_1_10
 L  UB5_1_11
 G  LB5_1_11
 L  UB5_2_0
 G  LB5_2_0
 L  UB5_2_1
 G  LB5_2_1
 L  UB5_2_2
 G  LB5_2_2
 L  UB5_2_3
 G  LB5_2_3
 L  UB5_2_4
 G  LB5_2_4
 L  UB5_2_5
 G  LB5_2_5
 L  UB5_2_6
 G  LB5_2_6
 L  UB5_2_7
 G  LB5_2_7
 L  UB5_2_8
 G  LB5_2_8
 L  UB5_2_9
 G  LB5_2_9
 L  UB5_2_10
 G  LB5_2_10
 L  UB5_2_11
 G  LB5_2_11
 L  CH0_0_0
 L  CH0_0_1
 L  CH0_0_2
 L  CH0_0_3
 L  CH0_0_4
 L  CH0_0_5
 L  CH0_0_6
 L  CH0_0_7
 L  CH0_0_8
 L  CH0_0_9
 L  CH0_0_10
 L  CH0_0_11
 L  CH0_1_0
 L  CH0_1_1
 L  CH0_1_2
 L  CH0_1_3
 L  CH0_1_4
 L  CH0_1_5
 L  CH0_1_6
 L  CH0_1_7
 L  CH0_1_8
 L  CH0_1_9
 L  CH0_1_10
 L  CH0_1_11
 L  CH0_2_0
 L  CH0_2_1
 L  CH0_2_2
 L  CH0_2_3
 L  CH0_2_4
 L  CH0_2_5
 L  CH0_2_6
 L  CH0_2_7
 L  CH0_2_8
 L  CH0_2_9
 L  CH0_2_10
 L  CH0_2_11
 L  CH1_0_0
 L  CH1_0_1
 L  CH1_0_2
 L  CH1_0_3
 L  CH1_0_4
 L  CH1_0_5
 L  CH1_0_6
 L  CH1_0_7
 L  CH1_0_8
 L  CH1_0_9
 L  CH1_0_10
 L  CH1_0_11
 L  CH1_1_0
 L  CH1_1_1
 L  CH1_1_2
 L  CH1_1_3
 L  CH1_1_4
 L  CH1_1_5
 L  CH1_1_6
 L  CH1_1_7
 L  CH1_1_8
 L  CH1_1_9
 L  CH1_1_10
 L  CH1_1_11
 L  CH1_2_0
 L  CH1_2_1
 L  CH1_2_2
 L  CH1_2_3
 L  CH1_2_4
 L  CH1_2_5
 L  CH1_2_6
 L  CH1_2_7
 L  CH1_2_8
 L  CH1_2_9
 L  CH1_2_10
 L  CH1_2_11
 L  CH2_0_0
 L  CH2_0_1
 L  CH2_0_2
 L  CH2_0_3
 L  CH2_0_4
 L  CH2_0_5
 L  CH2_0_6
 L  CH2_0_7
 L  CH2_0_8
 L  CH2_0_9
 L  CH2_0_10
 L  CH2_0_11
 L  CH2_1_0
 L  CH2_1_1
 L  CH2_1_2
 L  CH2_1_3
 L  CH2_1_4
 L  CH2_1_5
 L  CH2_1_6
 L  CH2_1_7
 L  CH2_1_8
 L  CH2_1_9
 L  CH2_1_10
 L  CH2_1_11
 L  CH2_2_0
 L  CH2_2_1
 L  CH2_2_2
 L  CH2_2_3
 L  CH2_2_4
 L  CH2_2_5
 L  CH2_2_6
 L  CH2_2_7
 L  CH2_2_8
 L  CH2_2_9
 L  CH2_2_10
 L  CH2_2_11
 L  CH3_0_0
 L  CH3_0_1
 L  CH3_0_2
 L  CH3_0_3
 L  CH3_0_4
 L  CH3_0_5
 L  CH3_0_6
 L  CH3_0_7
 L  CH3_0_8
 L  CH3_0_9
 L  CH3_0_10
 L  CH3_0_11
 L  CH3_1_0
 L  CH3_1_1
 L  CH3_1_2
 L  CH3_1_3
 L  CH3_1_4
 L  CH3_1_5
 L  CH3_1_6
 L  CH3_1_7
 L  CH3_1_8
 L  CH3_1_9
 L  CH3_1_10
 L  CH3_1_11
 L  CH3_2_0
 L  CH3_2_1
 L  CH3_2_2
 L  CH3_2_3
 L  CH3_2_4
 L  CH3_2_5
 L  CH3_2_6
 L  CH3_2_7
 L  CH3_2_8
 L  CH3_2_9
 L  CH3_2_10
 L  CH3_2_11
 L  CH4_0_0
 L  CH4_0_1
 L  CH4_0_2
 L  CH4_0_3
 L  CH4_0_4
 L  CH4_0_5
 L  CH4_0_6
 L  CH4_0_7
 L  CH4_0_8
 L  CH4_0_9
 L  CH4_0_10
 L  CH4_0_11
 L  CH4_1_0
 L  CH4_1_1
 L  CH4_1_2
 L  CH4_1_3
 L  CH4_1_4
 L  CH4_1_5
 L  CH4_1_6
 L  CH4_1_7
 L  CH4_1_8
 L  CH4_1_9
 L  CH4_1_10
 L  CH4_1_11
 L  CH4_2_0
 L  CH4_2_1
 L  CH4_2_2
 L  CH4_2_3
 L  CH4_2_4
 L  CH4_2_5
 L  CH4_2_6
 L  CH4_2_7
 L  CH4_2_8
 L  CH4_2_9
 L  CH4_2_10
 L  CH4_2_11
 L  CH5_0_0
 L  CH5_0_1
 L  CH5_0_2
 L  CH5_0_3
 L  CH5_0_4
 L  CH5_0_5
 L  CH5_0_6
 L  CH5_0_7
 L  CH5_0_8
 L  CH5_0_9
 L  CH5_0_10
 L  CH5_0_11
 L  CH5_1_0
 L  CH5_1_1
 L  CH5_1_2
 L  CH5_1_3
 L  CH5_1_4
 L  CH5_1_5
 L  CH5_1_6
 L  CH5_1_7
 L  CH5_1_8
 L  CH5_1_9
 L  CH5_1_10
 L  CH5_1_11
 L  CH5_2_0
 L  CH5_2_1
 L  CH5_2_2
 L  CH5_2_3
 L  CH5_2_4
 L  CH5_2_5
 L  CH5_2_6
 L  CH5_2_7
 L  CH5_2_8
 L  CH5_2_9
 L  CH5_2_10
 L  CH5_2_11
 G  MR0_1_0
 G  MR0_1_1
 G  MR0_1_2
 G  MR0_1_3
 G  MR0_1_4
 G  MR0_1_5
 G  MR0_1_6
 G  MR0_1_7
 G  MR0_1_8
 G  MR0_1_9
 G  MR0_1_10
 G  MR0_2_0
 G  MR0_2_1
 G  MR0_2_2
 G  MR0_2_3
 G  MR0_2_4
 G  MR0_2_5
 G  MR0_2_6
 G  MR0_2_7
 G  MR0_2_8
 G  MR0_2_9
 G  MR0_2_10
 G  MR1_1_0
 G  MR1_1_1
 G  MR1_1_2
 G  MR1_1_3
 G  MR1_1_4
 G  MR1_1_5
 G  MR1_1_6
 G  MR1_1_7
 G  MR1_1_8
 G  MR1_1_9
 G  MR1_1_10
 G  MR1_2_0
 G  MR1_2_1
 G  MR1_2_2
 G  MR1_2_3
 G  MR1_2_4
 G  MR1_2_5
 G  MR1_2_6
 G  MR1_2_7
 G  MR1_2_8
 G  MR1_2_9
 G  MR1_2_10
 G  MR2_1_0
 G  MR2_1_1
 G  MR2_1_2
 G  MR2_1_3
 G  MR2_1_4
 G  MR2_1_5
 G  MR2_1_6
 G  MR2_1_7
 G  MR2_1_8
 G  MR2_1_9
 G  MR2_1_10
 G  MR2_2_0
 G  MR2_2_1
 G  MR2_2_2
 G  MR2_2_3
 G  MR2_2_4
 G  MR2_2_5
 G  MR2_2_6
 G  MR2_2_7
 G  MR2_2_8
 G  MR2_2_9
 G  MR2_2_10
 G  MR3_1_0
 G  MR3_1_1
 G  MR3_1_2
 G  MR3_1_3
 G  MR3_1_4
 G  MR3_1_5
 G  MR3_1_6
 G  MR3_1_7
 G  MR3_1_8
 G  MR3_1_9
 G  MR3_1_10
 G  MR3_2_0
 G  MR3_2_1
 G  MR3_2_2
 G  MR3_2_3
 G  MR3_2_4
 G  MR3_2_5
 G  MR3_2_6
 G  MR3_2_7
 G  MR3_2_8
 G  MR3_2_9
 G  MR3_2_10
 G  MR4_1_0
 G  MR4_1_1
 G  MR4_1_2
 G  MR4_1_3
 G  MR4_1_4
 G  MR4_1_5
 G  MR4_1_6
 G  MR4_1_7
 G  MR4_1_8
 G  MR4_1_9
 G  MR4_1_10
 G  MR4_2_0
 G  MR4_2_1
 G  MR4_2_2
 G  MR4_2_3
 G  MR4_2_4
 G  MR4_2_5
 G  MR4_2_6
 G  MR4_2_7
 G  MR4_2_8
 G  MR4_2_9
 G  MR4_2_10
 G  MR5_1_0
 G  MR5_1_1
 G  MR5_1_2
 G  MR5_1_3
 G  MR5_1_4
 G  MR5_1_5
 G  MR5_1_6
 G  MR5_1_7
 G  MR5_1_8
 G  MR5_1_9
 G  MR5_1_10
 G  MR5_2_0
 G  MR5_2_1
 G  MR5_2_2
 G  MR5_2_3
 G  MR5_2_4
 G  MR5_2_5
 G  MR5_2_6
 G  MR5_2_7
 G  MR5_2_8
 G  MR5_2_9
 G  MR5_2_10
 E  BAL0_0
 E  BAL0_1
 E  BAL0_2
 E  BAL0_3
 E  BAL0_4
 E  BAL0_5
 E  BAL0_6
 E  BAL0_7
 E  BAL0_8
 E  BAL0_9
 E  BAL0_10
 E  BAL0_11
 E  BAL1_0
 E  BAL1_1
 E  BAL1_2
 E  BAL1_3
 E  BAL1_4
 E  BAL1_5
 E  BAL1_6
 E  BAL1_7
 E  BAL1_8
 E  BAL1_9
 E  BAL1_10
 E  BAL1_11
 E  BAL2_0
 E  BAL2_1
 E  BAL2_2
 E  BAL2_3
 E  BAL2_4
 E  BAL2_5
 E  BAL2_6
 E  BAL2_7
 E  BAL2_8
 E  BAL2_9
 E  BAL2_10
 E  BAL2_11
 E  BAL3_0
 E  BAL3_1
 E  BAL3_2
 E  BAL3_3
 E  BAL3_4
 E  BAL3_5
 E  BAL3_6
 E  BAL3_7
 E  BAL3_8
 E  BAL3_9
 E  BAL3_10
 E  BAL3_11
 E  BAL4_0
 E  BAL4_1
 E  BAL4_2
 E  BAL4_3
 E  BAL4_4
 E  BAL4_5
 E  BAL4_6
 E  BAL4_7
 E  BAL4_8
 E  BAL4_9
 E  BAL4_10
 E  BAL4_11
 E  BAL5_0
 E  BAL5_1
 E  BAL5_2
 E  BAL5_3
 E  BAL5_4
 E  BAL5_5
 E  BAL5_6
 E  BAL5_7
 E  BAL5_8
 E  BAL5_9
 E  BAL5_10
 E  BAL5_11
 E  BAL6_0
 E  BAL6_1
 E  BAL6_2
 E  BAL6_3
 E  BAL6_4
 E  BAL6_5
 E  BAL6_6
 E  BAL6_7
 E  BAL6_8
 E  BAL6_9
 E  BAL6_10
 E  BAL6_11
 E  BAL7_0
 E  BAL7_1
 E  BAL7_2
 E  BAL7_3
 E  BAL7_4
 E  BAL7_5
 E  BAL7_6
 E  BAL7_7
 E  BAL7_8
 E  BAL7_9
 E  BAL7_10
 E  BAL7_11
 E  BAL8_0
 E  BAL8_1
 E  BAL8_2
 E  BAL8_3
 E  BAL8_4
 E  BAL8_5
 E  BAL8_6
 E  BAL8_7
 E  BAL8_8
 E  BAL8_9
 E  BAL8_10
 E  BAL8_11
 E  BAL9_0
 E  BAL9_1
 E  BAL9_2
 E  BAL9_3
 E  BAL9_4
 E  BAL9_5
 E  BAL9_6
 E  BAL9_7
 E  BAL9_8
 E  BAL9_9
 E  BAL9_10
 E  BAL9_11
 E  BAL10_0
 E  BAL10_1
 E  BAL10_2
 E  BAL10_3
 E  BAL10_4
 E  BAL10_5
 E  BAL10_6
 E  BAL10_7
 E  BAL10_8
 E  BAL10_9
 E  BAL10_10
 E  BAL10_11
 E  BAL11_0
 E  BAL11_1
 E  BAL11_2
 E  BAL11_3
 E  BAL11_4
 E  BAL11_5
 E  BAL11_6
 E  BAL11_7
 E  BAL11_8
 E  BAL11_9
 E  BAL11_10
 E  BAL11_11
 E  DEM0_0
 E  DEM0_1
 E  DEM0_2
 E  DEM0_3
 E  DEM0_4
 E  DEM0_5
 E  DEM0_6
 E  DEM0_7
 E  DEM0_8
 E  DEM0_9
 E  DEM0_10
 E  DEM0_11
 E  DEM1_0
 E  DEM1_1
 E  DEM1_2
 E  DEM1_3
 E  DEM1_4
 E  DEM1_5
 E  DEM1_6
 E  DEM1_7
 E  DEM1_8
 E  DEM1_9
 E  DEM1_10
 E  DEM1_11
 E  DEM2_0
 E  DEM2_1
 E  DEM2_2
 E  DEM2_3
 E  DEM2_4
 E  DEM2_5
 E  DEM2_6
 E  DEM2_7
 E  DEM2_8
 E  DEM2_9
 E  DEM2_10
 E  DEM2_11
 E  DEM3_0
 E  DEM3_1
 E  DEM3_2
 E  DEM3_3
 E  DEM3_4
 E  DEM3_5
 E  DEM3_6
 E  DEM3_7
 E  DEM3_8
 E  DEM3_9
 E  DEM3_10
 E  DEM3_11
COLUMNS
    MARKER0  'MARKER'  'INTORG'
    Y0_0_0  ASG0_0  1
    Y0_0_0  CH0_0_0  1
    Y0_0_0  CH0_0_1  -1
    Z0_0_0  CH0_0_0  -1
    MARKER1  'MARKER'  'INTEND'
    F0_0_0  UB0_0_0  1
    MARKER2  'MARKER'  'INTORG'
    Y0_0_1  ASG0_1  1
    Y0_0_1  CH0_0_1  1
    Y0_0_1  CH0_0_2  -1
    Z0_0_1  CH0_0_1  -1
    MARKER3  'MARKER'  'INTEND'
    F0_0_1  UB0_0_1  1
    MARKER4  'MARKER'  'INTORG'
    Y0_0_2  ASG0_2  1
    Y0_0_2  CH0_0_2  1
    Y0_0_2  CH0_0_3  -1
    Z0_0_2  CH0_0_2  -1
    MARKER5  'MARKER'  'INTEND'
    F0_0_2  UB0_0_2  1
    MARKER6  'MARKER'  'INTORG'
    Y0_0_3  ASG0_3  1
    Y0_0_3  CH0_0_3  1
    Y0_0_3  CH0_0_4  -1
    Z0_0_3  CH0_0_3  -1
    MARKER7  'MARKER'  'INTEND'
    F0_0_3  UB0_0_3  1
    MARKER8  'MARKER'  'INTORG'
    Y0_0_4  ASG0_4  1
    Y0_0_4  CH0_0_4  1
    Y0_0_4  CH0_0_5  -1
    Z0_0_4  CH0_0_4  -1
    MARKER9  'MARKER'  'INTEND'
    F0_0_4  UB0_0_4  1
    MARKER10  'MARKER'  'INTORG'
    Y0_0_5  ASG0_5  1
    Y0_0_5  CH0_0_5  1
    Y0_0_5  CH0_0_6  -1
    Z0_0_5  CH0_0_5  -1
    MARKER11  'MARKER'  'INTEND'
    F0_0_5  UB0_0_5  1
    MARKER12  'MARKER'  'INTORG'
    Y0_0_6  ASG0_6  1
    Y0_0_6  CH0_0_6  1
    Y0_0_6  CH0_0_7  -1
    Z0_0_6  CH0_0_6  -1
    MARKER13  'MARKER'  'INTEND'
    F0_0_6  UB0_0_6  1
    MARKER14  'MARKER'  'INTORG'
    Y0_0_7  ASG0_7  1
    Y0_0_7  CH0_0_7  1
    Y0_0_7  CH0_0_8  -1
    Z0_0_7  CH0_0_7  -1
    MARKER15  'MARKER'  'INTEND'
    F0_0_7  UB0_0_7  1
    MARKER16  'MARKER'  'INTORG'
    Y0_0_8  ASG0_8  1
    Y0_0_8  CH0_0_8  1
    Y0_0_8  CH0_0_9  -1
    Z0_0_8  CH0_0_8  -1
    MARKER17  'MARKER'  'INTEND'
    F0_0_8  UB0_0_8  1
    MARKER18  'MARKER'  'INTORG'
    Y0_0_9  ASG0_9  1
    Y0_0_9  CH0_0_9  1
    Y0_0_9  CH0_0_10  -1
    Z0_0_9  CH0_0_9  -1
    MARKER19  'MARKER'  'INTEND'
    F0_0_9  UB0_0_9  1
    MARKER20  'MARKER'  'INTORG'
    Y0_0_10  ASG0_10  1
    Y0_0_10  CH0_0_10  1
    Y0_0_10  CH0_0_11  -1
    Z0_0_10  CH0_0_10  -1
    MARKER21  'MARKER'  'INTEND'
    F0_0_10  UB0_0_10  1
    MARKER22  'MARKER'  'INTORG'
    Y0_0_11  ASG0_11  1
    Y0_0_11  CH0_0_11  1
    Z0_0_11  CH0_0_11  -1
    MARKER23  'MARKER'  'INTEND'
    F0_0_11  UB0_0_11  1
    MARKER24  'MARKER'  'INTORG'
    Y0_1_0  ASG0_0  1
    Y0_1_0  UB0_1_0  -118.389466251
    Y0_1_0  LB0_1_0  -53.6281768742
    Y0_1_0  CH0_1_0  1
    Y0_1_0  CH0_1_1  -1
    Y0_1_0  MR0_1_0  1
    Z0_1_0  COST  761.6576654
    Z0_1_0  CH0_1_0  -1
    Z0_1_0  MR0_1_0  -2
    MARKER25  'MARKER'  'INTEND'
    F0_1_0  COST  7.72336276122
    F0_1_0  UB0_1_0  1
    F0_1_0  LB0_1_0  1
    F0_1_0  BAL2_0  -1
    F0_1_0  BAL3_0  0.00469417281868
    F0_1_0  BAL4_0  0.340130498392
    F0_1_0  BAL5_0  0.0321203014117
    F0_1_0  BAL6_0  0.347572530096
    F0_1_0  BAL7_0  0.260121471295
    MARKER26  'MARKER'  'INTORG'
    Y0_1_1  ASG0_1  1
    Y0_1_1  UB0_1_1  -118.389466251
    Y0_1_1  LB0_1_1  -53.6281768742
    Y0_1_1  CH0_1_1  1
    Y0_1_1  CH0_1_2  -1
    Y0_1_1  MR0_1_0  1
    Y0_1_1  MR0_1_1  1
    Z0_1_1  COST  761.6576654
    Z0_1_1  CH0_1_1  -1
    Z0_1_1  MR0_1_1  -2
    MARKER27  'MARKER'  'INTEND'
    F0_1_1  COST  7.72336276122
    F0_1_1  UB0_1_1  1
    F0_1_1  LB0_1_1  1
    F0_1_1  BAL2_1  -1
    F0_1_1  BAL3_1  0.00469417281868
    F0_1_1  BAL4_1  0.340130498392
    F0_1_1  BAL5_1  0.0321203014117
    F0_1_1  BAL6_1  0.347572530096
    F0_1_1  BAL7_1  0.260121471295
    MARKER28  'MARKER'  'INTORG'
    Y0_1_2  ASG0_2  1
    Y0_1_2  UB0_1_2  -118.389466251
    Y0_1_2  LB0_1_2  -53.6281768742
    Y0_1_2  CH0_1_2  1
    Y0_1_2  CH0_1_3  -1
    Y0_1_2  MR0_1_1  1
    Y0_1_2  MR0_1_2  1
    Z0_1_2  COST  761.6576654
    Z0_1_2  CH0_1_2  -1
    Z0_1_2  MR0_1_2  -2
    MARKER29  'MARKER'  'INTEND'
    F0_1_2  COST  7.72336276122
    F0_1_2  UB0_1_2  1
    F0_1_2  LB0_1_2  1
    F0_1_2  BAL2_2  -1
    F0_1_2  BAL3_2  0.00469417281868
    F0_1_2  BAL4_2  0.340130498392
    F0_1_2  BAL5_2  0.0321203014117
    F0_1_2  BAL6_2  0.347572530096
    F0_1_2  BAL7_2  0.260121471295
    MARKER30  'MARKER'  'INTORG'
    Y0_1_3  ASG0_3  1
    Y0_1_3  UB0_1_3  -118.389466251
    Y0_1_3  LB0_1_3  -53.6281768742
    Y0_1_3  CH0_1_3  1
    Y0_1_3  CH0_1_4  -1
    Y0_1_3  MR0_1_2  1
    Y0_1_3  MR0_1_3  1
    Z0_1_3  COST  761.6576654
    Z0_1_3  CH0_1_3  -1
    Z0_1_3  MR0_1_3  -2
    MARKER31  'MARKER'  'INTEND'
    F0_1_3  COST  7.72336276122
    F0_1_3  UB0_1_3  1
    F0_1_3  LB0_1_3  1
    F0_1_3  BAL2_3  -1
    F0_1_3  BAL3_3  0.00469417281868
    F0_1_3  BAL4_3  0.340130498392
    F0_1_3  BAL5_3  0.0321203014117
    F0_1_3  BAL6_3  0.347572530096
    F0_1_3  BAL7_3  0.260121471295
    MARKER32  'MARKER'  'INTORG'
    Y0_1_4  ASG0_4  1
    Y0_1_4  UB0_1_4  -118.389466251
    Y0_1_4  LB0_1_4  -53.6281768742
    Y0_1_4  CH0_1_4  1
    Y0_1_4  CH0_1_5  -1
    Y0_1_4  MR0_1_3  1
    Y0_1_4  MR0_1_4  1
    Z0_1_4  COST  761.6576654
    Z0_1_4  CH0_1_4  -1
    Z0_1_4  MR0_1_4  -2
    MARKER33  'MARKER'  'INTEND'
    F0_1_4  COST  7.72336276122
    F0_1_4  UB0_1_4  1
    F0_1_4  LB0_1_4  1
    F0_1_4  BAL2_4  -1
    F0_1_4  BAL3_4  0.00469417281868
    F0_1_4  BAL4_4  0.340130498392
    F0_1_4  BAL5_4  0.0321203014117
    F0_1_4  BAL6_4  0.347572530096
    F0_1_4  BAL7_4  0.260121471295
    MARKER34  'MARKER'  'INTORG'
    Y0_1_5  ASG0_5  1
    Y0_1_5  UB0_1_5  -118.389466251
    Y0_1_5  LB0_1_5  -53.6281768742
    Y0_1_5  CH0_1_5  1
    Y0_1_5  CH0_1_6  -1
    Y0_1_5  MR0_1_4  1
    Y0_1_5  MR0_1_5  1
    Z0_1_5  COST  761.6576654
    Z0_1_5  CH0_1_5  -1
    Z0_1_5  MR0_1_5  -2
    MARKER35  'MARKER'  'INTEND'
    F0_1_5  COST  7.72336276122
    F0_1_5  UB0_1_5  1
    F0_1_5  LB0_1_5  1
    F0_1_5  BAL2_5  -1
    F0_1_5  BAL3_5  0.00469417281868
    F0_1_5  BAL4_5  0.340130498392
    F0_1_5  BAL5_5  0.0321203014117
    F0_1_5  BAL6_5  0.347572530096
    F0_1_5  BAL7_5  0.260121471295
    MARKER36  'MARKER'  'INTORG'
    Y0_1_6  ASG0_6  1
    Y0_1_6  UB0_1_6  -118.389466251
    Y0_1_6  LB0_1_6  -53.6281768742
    Y0_1_6  CH0_1_6  1
    Y0_1_6  CH0_1_7  -1
    Y0_1_6  MR0_1_5  1
    Y0_1_6  MR0_1_6  1
    Z0_1_6  COST  761.6576654
    Z0_1_6  CH0_1_6  -1
    Z0_1_6  MR0_1_6  -2
    MARKER37  'MARKER'  'INTEND'
    F0_1_6  COST  7.72336276122
    F0_1_6  UB0_1_6  1
    F0_1_6  LB0_1_6  1
    F0_1_6  BAL2_6  -1
    F0_1_6  BAL3_6  0.00469417281868
    F0_1_6  BAL4_6  0.340130498392
    F0_1_6  BAL5_6  0.0321203014117
    F0_1_6  BAL6_6  0.347572530096
    F0_1_6  BAL7_6  0.260121471295
    MARKER38  'MARKER'  'INTORG'
    Y0_1_7  ASG0_7  1
    Y0_1_7  UB0_1_7  -118.389466251
    Y0_1_7  LB0_1_7  -53.6281768742
    Y0_1_7  CH0_1_7  1
    Y0_1_7  CH0_1_8  -1
    Y0_1_7  MR0_1_6  1
    Y0_1_7  MR0_1_7  1
    Z0_1_7  COST  761.6576654
    Z0_1_7  CH0_1_7  -1
    Z0_1_7  MR0_1_7  -2
    MARKER39  'MARKER'  'INTEND'
    F0_1_7  COST  7.72336276122
    F0_1_7  UB0_1_7  1
    F0_1_7  LB0_1_7  1
    F0_1_7  BAL2_7  -1
    F0_1_7  BAL3_7  0.00469417281868
    F0_1_7  BAL4_7  0.340130498392
    F0_1_7  BAL5_7  0.0321203014117
    F0_1_7  BAL6_7  0.347572530096
    F0_1_7  BAL7_7  0.260121471295
    MARKER40  'MARKER'  'INTORG'
    Y0_1_8  ASG0_8  1
    Y0_1_8  UB0_1_8  -118.389466251
    Y0_1_8  LB0_1_8  -53.6281768742
    Y0_1_8  CH0_1_8  1
    Y0_1_8  CH0_1_9  -1
    Y0_1_8  MR0_1_7  1
    Y0_1_8  MR0_1_8  1
    Z0_1_8  COST  761.6576654
    Z0_1_8  CH0_1_8  -1
    Z0_1_8  MR0_1_8  -2
    MARKER41  'MARKER'  'INTEND'
    F0_1_8  COST  7.72336276122
    F0_1_8  UB0_1_8  1
    F0_1_8  LB0_1_8  1
    F0_1_8  BAL2_8  -1
    F0_1_8  BAL3_8  0.00469417281868
    F0_1_8  BAL4_8  0.340130498392
    F0_1_8  BAL5_8  0.0321203014117
    F0_1_8  BAL6_8  0.347572530096
    F0_1_8  BAL7_8  0.260121471295
    MARKER42  'MARKER'  'INTORG'
    Y0_1_9  ASG0_9  1
    Y0_1_9  UB0_1_9  -118.389466251
    Y0_1_9  LB0_1_9  -53.6281768742
    Y0_1_9  CH0_1_9  1
    Y0_1_9  CH0_1_10  -1
    Y0_1_9  MR0_1_8  1
    Y0_1_9  MR0_1_9  1
    Z0_1_9  COST  761.6576654
    Z0_1_9  CH0_1_9  -1
    Z0_1_9  MR0_1_9  -2
    MARKER43  'MARKER'  'INTEND'
    F0_1_9  COST  7.72336276122
    F0_1_9  UB0_1_9  1
    F0_1_9  LB0_1_9  1
    F0_1_9  BAL2_9  -1
    F0_1_9  BAL3_9  0.00469417281868
    F0_1_9  BAL4_9  0.340130498392
    F0_1_9  BAL5_9  0.0321203014117
    F0_1_9  BAL6_9  0.347572530096
    F0_1_9  BAL7_9  0.260121471295
    MARKER44  'MARKER'  'INTORG'
    Y0_1_10  ASG0_10  1
    Y0_1_10  UB0_1_10  -118.389466251
    Y0_1_10  LB0_1_10  -53.6281768742
    Y0_1_10  CH0_1_10  1
    Y0_1_10  CH0_1_11  -1
    Y0_1_10  MR0_1_9  1
    Y0_1_10  MR0_1_10  1
    Z0_1_10  COST  761.6576654
    Z0_1_10  CH0_1_10  -1
    Z0_1_10  MR0_1_10  -2
    MARKER45  'MARKER'  'INTEND'
    F0_1_10  COST  7.72336276122
    F0_1_10  UB0_1_10  1
    F0_1_10  LB0_1_10  1
    F0_1_10  BAL2_10  -1
    F0_1_10  BAL3_10  0.00469417281868
    F0_1_10  BAL4_10  0.340130498392
    F0_1_10  BAL5_10  0.0321203014117
    F0_1_10  BAL6_10  0.347572530096
    F0_1_10  BAL7_10  0.260121471295
    MARKER46  'MARKER'  'INTORG'
    Y0_1_11  ASG0_11  1
    Y0_1_11  UB0_1_11  -118.389466251
    Y0_1_11  LB0_1_11  -53.6281768742
    Y0_1_11  CH0_1_11  1
    Y0_1_11  MR0_1_10  1
    Z0_1_11  COST  761.6576654
    Z0_1_11  CH0_1_11  -1
    MARKER47  'MARKER'  'INTEND'
    F0_1_11  COST  7.72336276122
    F0_1_11  UB0_1_11  1
    F0_1_11  LB0_1_11  1
    F0_1_11  BAL2_11  -1
    F0_1_11  BAL3_11  0.00469417281868
    F0_1_11  BAL4_11  0.340130498392
    F0_1_11  BAL5_11  0.0321203014117
    F0_1_11  BAL6_11  0.347572530096
    F0_1_11  BAL7_11  0.260121471295
    MARKER48  'MARKER'  'INTORG'
    Y0_2_0  ASG0_0  1
    Y0_2_0  UB0_2_0  -111.657538082
    Y0_2_0  LB0_2_0  -42.1290088134
    Y0_2_0  CH0_2_0  1
    Y0_2_0  CH0_2_1  -1
    Y0_2_0  MR0_2_0  1
    Z0_2_0  COST  901.810901734
    Z0_2_0  CH0_2_0  -1
    Z0_2_0  MR0_2_0  -2
    MARKER49  'MARKER'  'INTEND'
    F0_2_0  COST  6.43299402311
    F0_2_0  UB0_2_0  1
    F0_2_0  LB0_2_0  1
    F0_2_0  BAL2_0  -1
    F0_2_0  BAL3_0  0.00136604913348
    F0_2_0  BAL4_0  0.0604743466753
    F0_2_0  BAL5_0  0.555959205436
    F0_2_0  BAL6_0  0.124708973434
    F0_2_0  BAL7_0  0.215481334009
    MARKER50  'MARKER'  'INTORG'
    Y0_2_1  ASG0_1  1
    Y0_2_1  UB0_2_1  -111.657538082
    Y0_2_1  LB0_2_1  -42.1290088134
    Y0_2_1  CH0_2_1  1
    Y0_2_1  CH0_2_2  -1
    Y0_2_1  MR0_2_0  1
    Y0_2_1  MR0_2_1  1
    Z0_2_1  COST  901.810901734
    Z0_2_1  CH0_2_1  -1
    Z0_2_1  MR0_2_1  -2
    MARKER51  'MARKER'  'INTEND'
    F0_2_1  COST  6.43299402311
    F0_2_1  UB0_2_1  1
    F0_2_1  LB0_2_1  1
    F0_2_1  BAL2_1  -1
    F0_2_1  BAL3_1  0.00136604913348
    F0_2_1  BAL4_1  0.0604743466753
    F0_2_1  BAL5_1  0.555959205436
    F0_2_1  BAL6_1  0.124708973434
    F0_2_1  BAL7_1  0.215481334009
    MARKER52  'MARKER'  'INTORG'
    Y0_2_2  ASG0_2  1
    Y0_2_2  UB0_2_2  -111.657538082
    Y0_2_2  LB0_2_2  -42.1290088134
    Y0_2_2  CH0_2_2  1
    Y0_2_2  CH0_2_3  -1
    Y0_2_2  MR0_2_1  1
    Y0_2_2  MR0_2_2  1
    Z0_2_2  COST  901.810901734
    Z0_2_2  CH0_2_2  -1
    Z0_2_2  MR0_2_2  -2
    MARKER53  'MARKER'  'INTEND'
    F0_2_2  COST  6.43299402311
    F0_2_2  UB0_2_2  1
    F0_2_2  LB0_2_2  1
    F0_2_2  BAL2_2  -1
    F0_2_2  BAL3_2  0.00136604913348
    F0_2_2  BAL4_2  0.0604743466753
    F0_2_2  BAL5_2  0.555959205436
    F0_2_2  BAL6_2  0.124708973434
    F0_2_2  BAL7_2  0.215481334009
    MARKER54  'MARKER'  'INTORG'
    Y0_2_3  ASG0_3  1
    Y0_2_3  UB0_2_3  -111.657538082
    Y0_2_3  LB0_2_3  -42.1290088134
    Y0_2_3  CH0_2_3  1
    Y0_2_3  CH0_2_4  -1
    Y0_2_3  MR0_2_2  1
    Y0_2_3  MR0_2_3  1
    Z0_2_3  COST  901.810901734
    Z0_2_3  CH0_2_3  -1
    Z0_2_3  MR0_2_3  -2
    MARKER55  'MARKER'  'INTEND'
    F0_2_3  COST  6.43299402311
    F0_2_3  UB0_2_3  1
    F0_2_3  LB0_2_3  1
    F0_2_3  BAL2_3  -1
    F0_2_3  BAL3_3  0.00136604913348
    F0_2_3  BAL4_3  0.0604743466753
    F0_2_3  BAL5_3  0.555959205436
    F0_2_3  BAL6_3  0.124708973434
    F0_2_3  BAL7_3  0.215481334009
    MARKER56  'MARKER'  'INTORG'
    Y0_2_4  ASG0_4  1
    Y0_2_4  UB0_2_4  -111.657538082
    Y0_2_4  LB0_2_4  -42.1290088134
    Y0_2_4  CH0_2_4  1
    Y0_2_4  CH0_2_5  -1
    Y0_2_4  MR0_2_3  1
    Y0_2_4  MR0_2_4  1
    Z0_2_4  COST  901.810901734
    Z0_2_4  CH0_2_4  -1
    Z0_2_4  MR0_2_4  -2
    MARKER57  'MARKER'  'INTEND'
    F0_2_4  COST  6.43299402311
    F0_2_4  UB0_2_4  1
    F0_2_4  LB0_2_4  1
    F0_2_4  BAL2_4  -1
    F0_2_4  BAL3_4  0.00136604913348
    F0_2_4  BAL4_4  0.0604743466753
    F0_2_4  BAL5_4  0.555959205436
    F0_2_4  BAL6_4  0.124708973434
    F0_2_4  BAL7_4  0.215481334009
    MARKER58  'MARKER'  'INTORG'
    Y0_2_5  ASG0_5  1
    Y0_2_5  UB0_2_5  -111.657538082
    Y0_2_5  LB0_2_5  -42.1290088134
    Y0_2_5  CH0_2_5  1
    Y0_2_5  CH0_2_6  -1
    Y0_2_5  MR0_2_4  1
    Y0_2_5  MR0_2_5  1
    Z0_2_5  COST  901.810901734
    Z0_2_5  CH0_2_5  -1
    Z0_2_5  MR0_2_5  -2
    MARKER59  'MARKER'  'INTEND'
    F0_2_5  COST  6.43299402311
    F0_2_5  UB0_2_5  1
    F0_2_5  LB0_2_5  1
    F0_2_5  BAL2_5  -1
    F0_2_5  BAL3_5  0.00136604913348
    F0_2_5  BAL4_5  0.0604743466753
    F0_2_5  BAL5_5  0.555959205436
    F0_2_5  BAL6_5  0.124708973434
    F0_2_5  BAL7_5  0.215481334009
    MARKER60  'MARKER'  'INTORG'
    Y0_2_6  ASG0_6  1
    Y0_2_6  UB0_2_6  -111.657538082
    Y0_2_6  LB0_2_6  -42.1290088134
    Y0_2_6  CH0_2_6  1
    Y0_2_6  CH0_2_7  -1
    Y0_2_6  MR0_2_5  1
    Y0_2_6  MR0_2_6  1
    Z0_2_6  COST  901.810901734
    Z0_2_6  CH0_2_6  -1
    Z0_2_6  MR0_2_6  -2
    MARKER61  'MARKER'  'INTEND'
    F0_2_6  COST  6.43299402311
    F0_2_6  UB0_2_6  1
    F0_2_6  LB0_2_6  1
    F0_2_6  BAL2_6  -1
    F0_2_6  BAL3_6  0.00136604913348
    F0_2_6  BAL4_6  0.0604743466753
    F0_2_6  BAL5_6  0.555959205436
    F0_2_6  BAL6_6  0.124708973434
    F0_2_6  BAL7_6  0.215481334009
    MARKER62  'MARKER'  'INTORG'
    Y0_2_7  ASG0_7  1
    Y0_2_7  UB0_2_7  -111.657538082
    Y0_2_7  LB0_2_7  -42.1290088134
    Y0_2_7  CH0_2_7  1
    Y0_2_7  CH0_2_8  -1
    Y0_2_7  MR0_2_6  1
    Y0_2_7  MR0_2_7  1
    Z0_2_7  COST  901.810901734
    Z0_2_7  CH0_2_7  -1
    Z0_2_7  MR0_2_7  -2
    MARKER63  'MARKER'  'INTEND'
    F0_2_7  COST  6.43299402311
    F0_2_7  UB0_2_7  1
    F0_2_7  LB0_2_7  1
    F0_2_7  BAL2_7  -1
    F0_2_7  BAL3_7  0.00136604913348
    F0_2_7  BAL4_7  0.0604743466753
    F0_2_7  BAL5_7  0.555959205436
    F0_2_7  BAL6_7  0.124708973434
    F0_2_7  BAL7_7  0.215481334009
    MARKER64  'MARKER'  'INTORG'
    Y0_2_8  ASG0_8  1
    Y0_2_8  UB0_2_8  -111.657538082
    Y0_2_8  LB0_2_8  -42.1290088134
    Y0_2_8  CH0_2_8  1
    Y0_2_8  CH0_2_9  -1
    Y0_2_8  MR0_2_7  1
    Y0_2_8  MR0_2_8  1
    Z0_2_8  COST  901.810901734
    Z0_2_8  CH0_2_8  -1
    Z0_2_8  MR0_2_8  -2
    MARKER65  'MARKER'  'INTEND'
    F0_2_8  COST  6.43299402311
    F0_2_8  UB0_2_8  1
    F0_2_8  LB0_2_8  1
    F0_2_8  BAL2_8  -1
    F0_2_8  BAL3_8  0.00136604913348
    F0_2_8  BAL4_8  0.0604743466753
    F0_2_8  BAL5_8  0.555959205436
    F0_2_8  BAL6_8  0.124708973434
    F0_2_8  BAL7_8  0.215481334009
    MARKER66  'MARKER'  'INTORG'
    Y0_2_9  ASG0_9  1
    Y0_2_9  UB0_2_9  -111.657538082
    Y0_2_9  LB0_2_9  -42.1290088134
    Y0_2_9  CH0_2_9  1
    Y0_2_9  CH0_2_10  -1
    Y0_2_9  MR0_2_8  1
    Y0_2_9  MR0_2_9  1
    Z0_2_9  COST  901.810901734
    Z0_2_9  CH0_2_9  -1
    Z0_2_9  MR0_2_9  -2
    MARKER67  'MARKER'  'INTEND'
    F0_2_9  COST  6.43299402311
    F0_2_9  UB0_2_9  1
    F0_2_9  LB0_2_9  1
    F0_2_9  BAL2_9  -1
    F0_2_9  BAL3_9  0.00136604913348
    F0_2_9  BAL4_9  0.0604743466753
    F0_2_9  BAL5_9  0.555959205436
    F0_2_9  BAL6_9  0.124708973434
    F0_2_9  BAL7_9  0.215481334009
    MARKER68  'MARKER'  'INTORG'
    Y0_2_10  ASG0_10  1
    Y0_2_10  UB0_2_10  -111.657538082
    Y0_2_10  LB0_2_10  -42.1290088134
    Y0_2_10  CH0_2_10  1
    Y0_2_10  CH0_2_11  -1
    Y0_2_10  MR0_2_9  1
    Y0_2_10  MR0_2_10  1
    Z0_2_10  COST  901.810901734
    Z0_2_10  CH0_2_10  -1
    Z0_2_10  MR0_2_10  -2
    MARKER69  'MARKER'  'INTEND'
    F0_2_10  COST  6.43299402311
    F0_2_10  UB0_2_10  1
    F0_2_10  LB0_2_10  1
    F0_2_10  BAL2_10  -1
    F0_2_10  BAL3_10  0.00136604913348
    F0_2_10  BAL4_10  0.0604743466753
    F0_2_10  BAL5_10  0.555959205436
    F0_2_10  BAL6_10  0.124708973434
    F0_2_10  BAL7_10  0.215481334009
    MARKER70  'MARKER'  'INTORG'
    Y0_2_11  ASG0_11  1
    Y0_2_11  UB0_2_11  -111.657538082
    Y0_2_11  LB0_2_11  -42.1290088134
    Y0_2_11  CH0_2_11  1
    Y0_2_11  MR0_2_10  1
    Z0_2_11  COST  901.810901734
    Z0_2_11  CH0_2_11  -1
    MARKER71  'MARKER'  'INTEND'
    F0_2_11  COST  6.43299402311
    F0_2_11  UB0_2_11  1
    F0_2_11  LB0_2_11  1
    F0_2_11  BAL2_11  -1
    F0_2_11  BAL3_11  0.00136604913348
    F0_2_11  BAL4_11  0.0604743466753
    F0_2_11  BAL5_11  0.555959205436
    F0_2_11  BAL6_11  0.124708973434
    F0_2_11  BAL7_11  0.215481334009
    MARKER72  'MARKER'  'INTORG'
    Y1_0_0  ASG1_0  1
    Y1_0_0  CH1_0_0  1
    Y1_0_0  CH1_0_1  -1
    Z1_0_0  CH1_0_0  -1
    MARKER73  'MARKER'  'INTEND'
    F1_0_0  UB1_0_0  1
    MARKER74  'MARKER'  'INTORG'
    Y1_0_1  ASG1_1  1
    Y1_0_1  CH1_0_1  1
    Y1_0_1  CH1_0_2  -1
    Z1_0_1  CH1_0_1  -1
    MARKER75  'MARKER'  'INTEND'
    F1_0_1  UB1_0_1  1
    MARKER76  'MARKER'  'INTORG'
    Y1_0_2  ASG1_2  1
    Y1_0_2  CH1_0_2  1
    Y1_0_2  CH1_0_3  -1
    Z1_0_2  CH1_0_2  -1
    MARKER77  'MARKER'  'INTEND'
    F1_0_2  UB1_0_2  1
    MARKER78  'MARKER'  'INTORG'
    Y1_0_3  ASG1_3  1
    Y1_0_3  CH1_0_3  1
    Y1_0_3  CH1_0_4  -1
    Z1_0_3  CH1_0_3  -1
    MARKER79  'MARKER'  'INTEND'
    F1_0_3  UB1_0_3  1
    MARKER80  'MARKER'  'INTORG'
    Y1_0_4  ASG1_4  1
    Y1_0_4  CH1_0_4  1
    Y1_0_4  CH1_0_5  -1
    Z1_0_4  CH1_0_4  -1
    MARKER81  'MARKER'  'INTEND'
    F1_0_4  UB1_0_4  1
    MARKER82  'MARKER'  'INTORG'
    Y1_0_5  ASG1_5  1
    Y1_0_5  CH1_0_5  1
    Y1_0_5  CH1_0_6  -1
    Z1_0_5  CH1_0_5  -1
    MARKER83  'MARKER'  'INTEND'
    F1_0_5  UB1_0_5  1
    MARKER84  'MARKER'  'INTORG'
    Y1_0_6  ASG1_6  1
    Y1_0_6  CH1_0_6  1
    Y1_0_6  CH1_0_7  -1
    Z1_0_6  CH1_0_6  -1
    MARKER85  'MARKER'  'INTEND'
    F1_0_6  UB1_0_6  1
    MARKER86  'MARKER'  'INTORG'
    Y1_0_7  ASG1_7  1
    Y1_0_7  CH1_0_7  1
    Y1_0_7  CH1_0_8  -1
    Z1_0_7  CH1_0_7  -1
    MARKER87  'MARKER'  'INTEND'
    F1_0_7  UB1_0_7  1
    MARKER88  'MARKER'  'INTORG'
    Y1_0_8  ASG1_8  1
    Y1_0_8  CH1_0_8  1
    Y1_0_8  CH1_0_9  -1
    Z1_0_8  CH1_0_8  -1
    MARKER89  'MARKER'  'INTEND'
    F1_0_8  UB1_0_8  1
    MARKER90  'MARKER'  'INTORG'
    Y1_0_9  ASG1_9  1
    Y1_0_9  CH1_0_9  1
    Y1_0_9  CH1_0_10  -1
    Z1_0_9  CH1_0_9  -1
    MARKER91  'MARKER'  'INTEND'
    F1_0_9  UB1_0_9  1
    MARKER92  'MARKER'  'INTORG'
    Y1_0_10  ASG1_10  1
    Y1_0_10  CH1_0_10  1
    Y1_0_10  CH1_0_11  -1
    Z1_0_10  CH1_0_10  -1
    MARKER93  'MARKER'  'INTEND'
    F1_0_10  UB1_0_10  1
    MARKER94  'MARKER'  'INTORG'
    Y1_0_11  ASG1_11  1
    Y1_0_11  CH1_0_11  1
    Z1_0_11  CH1_0_11  -1
    MARKER95  'MARKER'  'INTEND'
    F1_0_11  UB1_0_11  1
    MARKER96  'MARKER'  'INTORG'
    Y1_1_0  ASG1_0  1
    Y1_1_0  UB1_1_0  -214.209928107
    Y1_1_0  LB1_1_0  -113.29154857
    Y1_1_0  CH1_1_0  1
    Y1_1_0  CH1_1_1  -1
    Y1_1_0  MR1_1_0  1
    Z1_1_0  COST  1784.46803909
    Z1_1_0  CH1_1_0  -1
    Z1_1_0  MR1_1_0  -2
    MARKER97  'MARKER'  'INTEND'
    F1_1_0  COST  6.2499274791
    F1_1_0  UB1_1_0  1
    F1_1_0  LB1_1_0  1
    F1_1_0  BAL2_0  -1
    F1_1_0  BAL3_0  0.121642612948
    F1_1_0  BAL4_0  0.440675756599
    F1_1_0  BAL5_0  0.0265601474572
    F1_1_0  BAL6_0  0.136946305628
    F1_1_0  BAL7_0  0.224309747539
    MARKER98  'MARKER'  'INTORG'
    Y1_1_1  ASG1_1  1
    Y1_1_1  UB1_1_1  -214.209928107
    Y1_1_1  LB1_1_1  -113.29154857
    Y1_1_1  CH1_1_1  1
    Y1_1_1  CH1_1_2  -1
    Y1_1_1  MR1_1_0  1
    Y1_1_1  MR1_1_1  1
    Z1_1_1  COST  1784.46803909
    Z1_1_1  CH1_1_1  -1
    Z1_1_1  MR1_1_1  -2
    MARKER99  'MARKER'  'INTEND'
    F1_1_1  COST  6.2499274791
    F1_1_1  UB1_1_1  1
    F1_1_1  LB1_1_1  1
    F1_1_1  BAL2_1  -1
    F1_1_1  BAL3_1  0.121642612948
    F1_1_1  BAL4_1  0.440675756599
    F1_1_1  BAL5_1  0.0265601474572
    F1_1_1  BAL6_1  0.136946305628
    F1_1_1  BAL7_1  0.224309747539
    MARKER100  'MARKER'  'INTORG'
    Y1_1_2  ASG1_2  1
    Y1_1_2  UB1_1_2  -214.209928107
    Y1_1_2  LB1_1_2  -113.29154857
    Y1_1_2  CH1_1_2  1
    Y1_1_2  CH1_1_3  -1
    Y1_1_2  MR1_1_1  1
    Y1_1_2  MR1_1_2  1
    Z1_1_2  COST  1784.46803909
    Z1_1_2  CH1_1_2  -1
    Z1_1_2  MR1_1_2  -2
    MARKER101  'MARKER'  'INTEND'
    F1_1_2  COST  6.2499274791
    F1_1_2  UB1_1_2  1
    F1_1_2  LB1_1_2  1
    F1_1_2  BAL2_2  -1
    F1_1_2  BAL3_2  0.121642612948
    F1_1_2  BAL4_2  0.440675756599
    F1_1_2  BAL5_2  0.0265601474572
    F1_1_2  BAL6_2  0.136946305628
    F1_1_2  BAL7_2  0.224309747539
    MARKER102  'MARKER'  'INTORG'
    Y1_1_3  ASG1_3  1
    Y1_1_3  UB1_1_3  -214.209928107
    Y1_1_3  LB1_1_3  -113.29154857
    Y1_1_3  CH1_1_3  1
    Y1_1_3  CH1_1_4  -1
    Y1_1_3  MR1_1_2  1
    Y1_1_3  MR1_1_3  1
    Z1_1_3  COST  1784.46803909
    Z1_1_3  CH1_1_3  -1
    Z1_1_3  MR1_1_3  -2
    MARKER103  'MARKER'  'INTEND'
    F1_1_3  COST  6.2499274791
    F1_1_3  UB1_1_3  1
    F1_1_3  LB1_1_3  1
    F1_1_3  BAL2_3  -1
    F1_1_3  BAL3_3  0.121642612948
    F1_1_3  BAL4_3  0.440675756599
    F1_1_3  BAL5_3  0.0265601474572
    F1_1_3  BAL6_3  0.136946305628
    F1_1_3  BAL7_3  0.224309747539
    MARKER104  'MARKER'  'INTORG'
    Y1_1_4  ASG1_4  1
    Y1_1_4  UB1_1_4  -214.209928107
    Y1_1_4  LB1_1_4  -113.29154857
    Y1_1_4  CH1_1_4  1
    Y1_1_4  CH1_1_5  -1
    Y1_1_4  MR1_1_3  1
    Y1_1_4  MR1_1_4  1
    Z1_1_4  COST  1784.46803909
    Z1_1_4  CH1_1_4  -1
    Z1_1_4  MR1_1_4  -2
    MARKER105  'MARKER'  'INTEND'
    F1_1_4  COST  6.2499274791
    F1_1_4  UB1_1_4  1
    F1_1_4  LB1_1_4  1
    F1_1_4  BAL2_4  -1
    F1_1_4  BAL3_4  0.121642612948
    F1_1_4  BAL4_4  0.440675756599
    F1_1_4  BAL5_4  0.0265601474572
    F1_1_4  BAL6_4  0.136946305628
    F1_1_4  BAL7_4  0.224309747539
    MARKER106  'MARKER'  'INTORG'
    Y1_1_5  ASG1_5  1
    Y1_1_5  UB1_1_5  -214.209928107
    Y1_1_5  LB1_1_5  -113.29154857
    Y1_1_5  CH1_1_5  1
    Y1_1_5  CH1_1_6  -1
    Y1_1_5  MR1_1_4  1
    Y1_1_5  MR1_1_5  1
    Z1_1_5  COST  1784.46803909
    Z1_1_5  CH1_1_5  -1
    Z1_1_5  MR1_1_5  -2
    MARKER107  'MARKER'  'INTEND'
    F1_1_5  COST  6.2499274791
    F1_1_5  UB1_1_5  1
    F1_1_5  LB1_1_5  1
    F1_1_5  BAL2_5  -1
    F1_1_5  BAL3_5  0.121642612948
    F1_1_5  BAL4_5  0.440675756599
    F1_1_5  BAL5_5  0.0265601474572
    F1_1_5  BAL6_5  0.136946305628
    F1_1_5  BAL7_5  0.224309747539
    MARKER108  'MARKER'  'INTORG'
    Y1_1_6  ASG1_6  1
    Y1_1_6  UB1_1_6  -214.209928107
    Y1_1_6  LB1_1_6  -113.29154857
    Y1_1_6  CH1_1_6  1
    Y1_1_6  CH1_1_7  -1
    Y1_1_6  MR1_1_5  1
    Y1_1_6  MR1_1_6  1
    Z1_1_6  COST  1784.46803909
    Z1_1_6  CH1_1_6  -1
    Z1_1_6  MR1_1_6  -2
    MARKER109  'MARKER'  'INTEND'
    F1_1_6  COST  6.2499274791
    F1_1_6  UB1_1_6  1
    F1_1_6  LB1_1_6  1
    F1_1_6  BAL2_6  -1
    F1_1_6  BAL3_6  0.121642612948
    F1_1_6  BAL4_6  0.440675756599
    F1_1_6  BAL5_6  0.0265601474572
    F1_1_6  BAL6_6  0.136946305628
    F1_1_6  BAL7_6  0.224309747539
    MARKER110  'MARKER'  'INTORG'
    Y1_1_7  ASG1_7  1
    Y1_1_7  UB1_1_7  -214.209928107
    Y1_1_7  LB1_1_7  -113.29154857
    Y1_1_7  CH1_1_7  1
    Y1_1_7  CH1_1_8  -1
    Y1_1_7  MR1_1_6  1
    Y1_1_7  MR1_1_7  1
    Z1_1_7  COST  1784.46803909
    Z1_1_7  CH1_1_7  -1
    Z1_1_7  MR1_1_7  -2
    MARKER111  'MARKER'  'INTEND'
    F1_1_7  COST  6.2499274791
    F1_1_7  UB1_1_7  1
    F1_1_7  LB1_1_7  1
    F1_1_7  BAL2_7  -1
    F1_1_7  BAL3_7  0.121642612948
    F1_1_7  BAL4_7  0.440675756599
    F1_1_7  BAL5_7  0.0265601474572
    F1_1_7  BAL6_7  0.136946305628
    F1_1_7  BAL7_7  0.224309747539
    MARKER112  'MARKER'  'INTORG'
    Y1_1_8  ASG1_8  1
    Y1_1_8  UB1_1_8  -214.209928107
    Y1_1_8  LB1_1_8  -113.29154857
    Y1_1_8  CH1_1_8  1
    Y1_1_8  CH1_1_9  -1
    Y1_1_8  MR1_1_7  1
    Y1_1_8  MR1_1_8  1
    Z1_1_8  COST  1784.46803909
    Z1_1_8  CH1_1_8  -1
    Z1_1_8  MR1_1_8  -2
    MARKER113  'MARKER'  'INTEND'
    F1_1_8  COST  6.2499274791
    F1_1_8  UB1_1_8  1
    F1_1_8  LB1_1_8  1
    F1_1_8  BAL2_8  -1
    F1_1_8  BAL3_8  0.121642612948
    F1_1_8  BAL4_8  0.440675756599
    F1_1_8  BAL5_8  0.0265601474572
    F1_1_8  BAL6_8  0.136946305628
    F1_1_8  BAL7_8  0.224309747539
    MARKER114  'MARKER'  'INTORG'
    Y1_1_9  ASG1_9  1
    Y1_1_9  UB1_1_9  -214.209928107
    Y1_1_9  LB1_1_9  -113.29154857
    Y1_1_9  CH1_1_9  1
    Y1_1_9  CH1_1_10  -1
    Y1_1_9  MR1_1_8  1
    Y1_1_9  MR1_1_9  1
    Z1_1_9  COST  1784.46803909
    Z1_1_9  CH1_1_9  -1
    Z1_1_9  MR1_1_9  -2
    MARKER115  'MARKER'  'INTEND'
    F1_1_9  COST  6.2499274791
    F1_1_9  UB1_1_9  1
    F1_1_9  LB1_1_9  1
    F1_1_9  BAL2_9  -1
    F1_1_9  BAL3_9  0.121642612948
    F1_1_9  BAL4_9  0.440675756599
    F1_1_9  BAL5_9  0.0265601474572
    F1_1_9  BAL6_9  0.136946305628
    F1_1_9  BAL7_9  0.224309747539
    MARKER116  'MARKER'  'INTORG'
    Y1_1_10  ASG1_10  1
    Y1_1_10  UB1_1_10  -214.209928107
    Y1_1_10  LB1_1_10  -113.29154857
    Y1_1_10  CH1_1_10  1
    Y1_1_10  CH1_1_11  -1
    Y1_1_10  MR1_1_9  1
    Y1_1_10  MR1_1_10  1
    Z1_1_10  COST  1784.46803909
    Z1_1_10  CH1_1_10  -1
    Z1_1_10  MR1_1_10  -2
    MARKER117  'MARKER'  'INTEND'
    F1_1_10  COST  6.2499274791
    F1_1_10  UB1_1_10  1
    F1_1_10  LB1_1_10  1
    F1_1_10  BAL2_10  -1
    F1_1_10  BAL3_10  0.121642612948
    F1_1_10  BAL4_10  0.440675756599
    F1_1_10  BAL5_10  0.0265601474572
    F1_1_10  BAL6_10  0.136946305628
    F1_1_10  BAL7_10  0.224309747539
    MARKER118  'MARKER'  'INTORG'
    Y1_1_11  ASG1_11  1
    Y1_1_11  UB1_1_11  -214.209928107
    Y1_1_11  LB1_1_11  -113.29154857
    Y1_1_11  CH1_1_11  1
    Y1_1_11  MR1_1_10  1
    Z1_1_11  COST  1784.46803909
    Z1_1_11  CH1_1_11  -1
    MARKER119  'MARKER'  'INTEND'
    F1_1_11  COST  6.2499274791
    F1_1_11  UB1_1_11  1
    F1_1_11  LB1_1_11  1
    F1_1_11  BAL2_11  -1
    F1_1_11  BAL3_11  0.121642612948
    F1_1_11  BAL4_11  0.440675756599
    F1_1_11  BAL5_11  0.0265601474572
    F1_1_11  BAL6_11  0.136946305628
    F1_1_11  BAL7_11  0.224309747539
    MARKER120  'MARKER'  'INTORG'
    Y1_2_0  ASG1_0  1
    Y1_2_0  UB1_2_0  -197.598040773
    Y1_2_0  LB1_2_0  -105.928121094
    Y1_2_0  CH1_2_0  1
    Y1_2_0  CH1_2_1  -1
    Y1_2_0  MR1_2_0  1
    Z1_2_0  COST  602.39353088
    Z1_2_0  CH1_2_0  -1
    Z1_2_0  MR1_2_0  -2
    MARKER121  'MARKER'  'INTEND'
    F1_2_0  COST  8.16568094292
    F1_2_0  UB1_2_0  1
    F1_2_0  LB1_2_0  1
    F1_2_0  BAL2_0  -1
    F1_2_0  BAL3_0  0.470782041653
    F1_2_0  BAL4_0  0.00285494728729
    F1_2_0  BAL5_0  0.22293854299
    F1_2_0  BAL6_0  0.0332171397566
    F1_2_0  BAL7_0  0.250639212705
    MARKER122  'MARKER'  'INTORG'
    Y1_2_1  ASG1_1  1
    Y1_2_1  UB1_2_1  -197.598040773
    Y1_2_1  LB1_2_1  -105.928121094
    Y1_2_1  CH1_2_1  1
    Y1_2_1  CH1_2_2  -1
    Y1_2_1  MR1_2_0  1
    Y1_2_1  MR1_2_1  1
    Z1_2_1  COST  602.39353088
    Z1_2_1  CH1_2_1  -1
    Z1_2_1  MR1_2_1  -2
    MARKER123  'MARKER'  'INTEND'
    F1_2_1  COST  8.16568094292
    F1_2_1  UB1_2_1  1
    F1_2_1  LB1_2_1  1
    F1_2_1  BAL2_1  -1
    F1_2_1  BAL3_1  0.470782041653
    F1_2_1  BAL4_1  0.00285494728729
    F1_2_1  BAL5_1  0.22293854299
    F1_2_1  BAL6_1  0.0332171397566
    F1_2_1  BAL7_1  0.250639212705
    MARKER124  'MARKER'  'INTORG'
    Y1_2_2  ASG1_2  1
    Y1_2_2  UB1_2_2  -197.598040773
    Y1_2_2  LB1_2_2  -105.928121094
    Y1_2_2  CH1_2_2  1
    Y1_2_2  CH1_2_3  -1
    Y1_2_2  MR1_2_1  1
    Y1_2_2  MR1_2_2  1
    Z1_2_2  COST  602.39353088
    Z1_2_2  CH1_2_2  -1
    Z1_2_2  MR1_2_2  -2
    MARKER125  'MARKER'  'INTEND'
    F1_2_2  COST  8.16568094292
    F1_2_2  UB1_2_2  1
    F1_2_2  LB1_2_2  1
    F1_2_2  BAL2_2  -1
    F1_2_2  BAL3_2  0.470782041653
    F1_2_2  BAL4_2  0.00285494728729
    F1_2_2  BAL5_2  0.22293854299
    F1_2_2  BAL6_2  0.0332171397566
    F1_2_2  BAL7_2  0.250639212705
    MARKER126  'MARKER'  'INTORG'
    Y1_2_3  ASG1_3  1
    Y1_2_3  UB1_2_3  -197.598040773
    Y1_2_3  LB1_2_3  -105.928121094
    Y1_2_3  CH1_2_3  1
    Y1_2_3  CH1_2_4  -1
    Y1_2_3  MR1_2_2  1
    Y1_2_3  MR1_2_3  1
    Z1_2_3  COST  602.39353088
    Z1_2_3  CH1_2_3  -1
    Z1_2_3  MR1_2_3  -2
    MARKER127  'MARKER'  'INTEND'
    F1_2_3  COST  8.16568094292
    F1_2_3  UB1_2_3  1
    F1_2_3  LB1_2_3  1
    F1_2_3  BAL2_3  -1
    F1_2_3  BAL3_3  0.470782041653
    F1_2_3  BAL4_3  0.00285494728729
    F1_2_3  BAL5_3  0.22293854299
    F1_2_3  BAL6_3  0.0332171397566
    F1_2_3  BAL7_3  0.250639212705
    MARKER128  'MARKER'  'INTORG'
    Y1_2_4  ASG1_4  1
    Y1_2_4  UB1_2_4  -197.598040773
    Y1_2_4  LB1_2_4  -105.928121094
    Y1_2_4  CH1_2_4  1
    Y1_2_4  CH1_2_5  -1
    Y1_2_4  MR1_2_3  1
    Y1_2_4  MR1_2_4  1
    Z1_2_4  COST  602.39353088
    Z1_2_4  CH1_2_4  -1
    Z1_2_4  MR1_2_4  -2
    MARKER129  'MARKER'  'INTEND'
    F1_2_4  COST  8.16568094292
    F1_2_4  UB1_2_4  1
    F1_2_4  LB1_2_4  1
    F1_2_4  BAL2_4  -1
    F1_2_4  BAL3_4  0.470782041653
    F1_2_4  BAL4_4  0.00285494728729
    F1_2_4  BAL5_4  0.22293854299
    F1_2_4  BAL6_4  0.0332171397566
    F1_2_4  BAL7_4  0.250639212705
    MARKER130  'MARKER'  'INTORG'
    Y1_2_5  ASG1_5  1
    Y1_2_5  UB1_2_5  -197.598040773
    Y1_2_5  LB1_2_5  -105.928121094
    Y1_2_5  CH1_2_5  1
    Y1_2_5  CH1_2_6  -1
    Y1_2_5  MR1_2_4  1
    Y1_2_5  MR1_2_5  1
    Z1_2_5  COST  602.39353088
    Z1_2_5  CH1_2_5  -1
    Z1_2_5  MR1_2_5  -2
    MARKER131  'MARKER'  'INTEND'
    F1_2_5  COST  8.16568094292
    F1_2_5  UB1_2_5  1
    F1_2_5  LB1_2_5  1
    F1_2_5  BAL2_5  -1
    F1_2_5  BAL3_5  0.470782041653
    F1_2_5  BAL4_5  0.00285494728729
    F1_2_5  BAL5_5  0.22293854299
    F1_2_5  BAL6_5  0.0332171397566
    F1_2_5  BAL7_5  0.250639212705
    MARKER132  'MARKER'  'INTORG'
    Y1_2_6  ASG1_6  1
    Y1_2_6  UB1_2_6  -197.598040773
    Y1_2_6  LB1_2_6  -105.928121094
    Y1_2_6  CH1_2_6  1
    Y1_2_6  CH1_2_7  -1
    Y1_2_6  MR1_2_5  1
    Y1_2_6  MR1_2_6  1
    Z1_2_6  COST  602.39353088
    Z1_2_6  CH1_2_6  -1
    Z1_2_6  MR1_2_6  -2
    MARKER133  'MARKER'  'INTEND'
    F1_2_6  COST  8.16568094292
    F1_2_6  UB1_2_6  1
    F1_2_6  LB1_2_6  1
    F1_2_6  BAL2_6  -1
    F1_2_6  BAL3_6  0.470782041653
    F1_2_6  BAL4_6  0.00285494728729
    F1_2_6  BAL5_6  0.22293854299
    F1_2_6  BAL6_6  0.0332171397566
    F1_2_6  BAL7_6  0.250639212705
    MARKER134  'MARKER'  'INTORG'
    Y1_2_7  ASG1_7  1
    Y1_2_7  UB1_2_7  -197.598040773
    Y1_2_7  LB1_2_7  -105.928121094
    Y1_2_7  CH1_2_7  1
    Y1_2_7  CH1_2_8  -1
    Y1_2_7  MR1_2_6  1
    Y1_2_7  MR1_2_7  1
    Z1_2_7  COST  602.39353088
    Z1_2_7  CH1_2_7  -1
    Z1_2_7  MR1_2_7  -2
    MARKER135  'MARKER'  'INTEND'
    F1_2_7  COST  8.16568094292
    F1_2_7  UB1_2_7  1
    F1_2_7  LB1_2_7  1
    F1_2_7  BAL2_7  -1
    F1_2_7  BAL3_7  0.470782041653
    F1_2_7  BAL4_7  0.00285494728729
    F1_2_7  BAL5_7  0.22293854299
    F1_2_7  BAL6_7  0.0332171397566
    F1_2_7  BAL7_7  0.250639212705
    MARKER136  'MARKER'  'INTORG'
    Y1_2_8  ASG1_8  1
    Y1_2_8  UB1_2_8  -197.598040773
    Y1_2_8  LB1_2_8  -105.928121094
    Y1_2_8  CH1_2_8  1
    Y1_2_8  CH1_2_9  -1
    Y1_2_8  MR1_2_7  1
    Y1_2_8  MR1_2_8  1
    Z1_2_8  COST  602.39353088
    Z1_2_8  CH1_2_8  -1
    Z1_2_8  MR1_2_8  -2
    MARKER137  'MARKER'  'INTEND'
    F1_2_8  COST  8.16568094292
    F1_2_8  UB1_2_8  1
    F1_2_8  LB1_2_8  1
    F1_2_8  BAL2_8  -1
    F1_2_8  BAL3_8  0.470782041653
    F1_2_8  BAL4_8  0.00285494728729
    F1_2_8  BAL5_8  0.22293854299
    F1_2_8  BAL6_8  0.0332171397566
    F1_2_8  BAL7_8  0.250639212705
    MARKER138  'MARKER'  'INTORG'
    Y1_2_9  ASG1_9  1
    Y1_2_9  UB1_2_9  -197.598040773
    Y1_2_9  LB1_2_9  -105.928121094
    Y1_2_9  CH1_2_9  1
    Y1_2_9  CH1_2_10  -1
    Y1_2_9  MR1_2_8  1
    Y1_2_9  MR1_2_9  1
    Z1_2_9  COST  602.39353088
    Z1_2_9  CH1_2_9  -1
    Z1_2_9  MR1_2_9  -2
    MARKER139  'MARKER'  'INTEND'
    F1_2_9  COST  8.16568094292
    F1_2_9  UB1_2_9  1
    F1_2_9  LB1_2_9  1
    F1_2_9  BAL2_9  -1
    F1_2_9  BAL3_9  0.470782041653
    F1_2_9  BAL4_9  0.00285494728729
    F1_2_9  BAL5_9  0.22293854299
    F1_2_9  BAL6_9  0.0332171397566
    F1_2_9  BAL7_9  0.250639212705
    MARKER140  'MARKER'  'INTORG'
    Y1_2_10  ASG1_10  1
    Y1_2_10  UB1_2_10  -197.598040773
    Y1_2_10  LB1_2_10  -105.928121094
    Y1_2_10  CH1_2_10  1
    Y1_2_10  CH1_2_11  -1
    Y1_2_10  MR1_2_9  1
    Y1_2_10  MR1_2_10  1
    Z1_2_10  COST  602.39353088
    Z1_2_10  CH1_2_10  -1
    Z1_2_10  MR1_2_10  -2
    MARKER141  'MARKER'  'INTEND'
    F1_2_10  COST  8.16568094292
    F1_2_10  UB1_2_10  1
    F1_2_10  LB1_2_10  1
    F1_2_10  BAL2_10  -1
    F1_2_10  BAL3_10  0.470782041653
    F1_2_10  BAL4_10  0.00285494728729
    F1_2_10  BAL5_10  0.22293854299
    F1_2_10  BAL6_10  0.0332171397566
    F1_2_10  BAL7_10  0.250639212705
    MARKER142  'MARKER'  'INTORG'
    Y1_2_11  ASG1_11  1
    Y1_2_11  UB1_2_11  -197.598040773
    Y1_2_11  LB1_2_11  -105.928121094
    Y1_2_11  CH1_2_11  1
    Y1_2_11  MR1_2_10  1
    Z1_2_11  COST  602.39353088
    Z1_2_11  CH1_2_11  -1
    MARKER143  'MARKER'  'INTEND'
    F1_2_11  COST  8.16568094292
    F1_2_11  UB1_2_11  1
    F1_2_11  LB1_2_11  1
    F1_2_11  BAL2_11  -1
    F1_2_11  BAL3_11  0.470782041653
    F1_2_11  BAL4_11  0.00285494728729
    F1_2_11  BAL5_11  0.22293854299
    F1_2_11  BAL6_11  0.0332171397566
    F1_2_11  BAL7_11  0.250639212705
    MARKER144  'MARKER'  'INTORG'
    Y2_0_0  ASG2_0  1
    Y2_0_0  CH2_0_0  1
    Y2_0_0  CH2_0_1  -1
    Z2_0_0  CH2_0_0  -1
    MARKER145  'MARKER'  'INTEND'
    F2_0_0  UB2_0_0  1
    MARKER146  'MARKER'  'INTORG'
    Y2_0_1  ASG2_1  1
    Y2_0_1  CH2_0_1  1
    Y2_0_1  CH2_0_2  -1
    Z2_0_1  CH2_0_1  -1
    MARKER147  'MARKER'  'INTEND'
    F2_0_1  UB2_0_1  1
    MARKER148  'MARKER'  'INTORG'
    Y2_0_2  ASG2_2  1
    Y2_0_2  CH2_0_2  1
    Y2_0_2  CH2_0_3  -1
    Z2_0_2  CH2_0_2  -1
    MARKER149  'MARKER'  'INTEND'
    F2_0_2  UB2_0_2  1
    MARKER150  'MARKER'  'INTORG'
    Y2_0_3  ASG2_3  1
    Y2_0_3  CH2_0_3  1
    Y2_0_3  CH2_0_4  -1
    Z2_0_3  CH2_0_3  -1
    MARKER151  'MARKER'  'INTEND'
    F2_0_3  UB2_0_3  1
    MARKER152  'MARKER'  'INTORG'
    Y2_0_4  ASG2_4  1
    Y2_0_4  CH2_0_4  1
    Y2_0_4  CH2_0_5  -1
    Z2_0_4  CH2_0_4  -1
    MARKER153  'MARKER'  'INTEND'
    F2_0_4  UB2_0_4  1
    MARKER154  'MARKER'  'INTORG'
    Y2_0_5  ASG2_5  1
    Y2_0_5  CH2_0_5  1
    Y2_0_5  CH2_0_6  -1
    Z2_0_5  CH2_0_5  -1
    MARKER155  'MARKER'  'INTEND'
    F2_0_5  UB2_0_5  1
    MARKER156  'MARKER'  'INTORG'
    Y2_0_6  ASG2_6  1
    Y2_0_6  CH2_0_6  1
    Y2_0_6  CH2_0_7  -1
    Z2_0_6  CH2_0_6  -1
    MARKER157  'MARKER'  'INTEND'
    F2_0_6  UB2_0_6  1
    MARKER158  'MARKER'  'INTORG'
    Y2_0_7  ASG2_7  1
    Y2_0_7  CH2_0_7  1
    Y2_0_7  CH2_0_8  -1
    Z2_0_7  CH2_0_7  -1
    MARKER159  'MARKER'  'INTEND'
    F2_0_7  UB2_0_7  1
    MARKER160  'MARKER'  'INTORG'
    Y2_0_8  ASG2_8  1
    Y2_0_8  CH2_0_8  1
    Y2_0_8  CH2_0_9  -1
    Z2_0_8  CH2_0_8  -1
    MARKER161  'MARKER'  'INTEND'
    F2_0_8  UB2_0_8  1
    MARKER162  'MARKER'  'INTORG'
    Y2_0_9  ASG2_9  1
    Y2_0_9  CH2_0_9  1
    Y2_0_9  CH2_0_10  -1
    Z2_0_9  CH2_0_9  -1
    MARKER163  'MARKER'  'INTEND'
    F2_0_9  UB2_0_9  1
    MARKER164  'MARKER'  'INTORG'
    Y2_0_10  ASG2_10  1
    Y2_0_10  CH2_0_10  1
    Y2_0_10  CH2_0_11  -1
    Z2_0_10  CH2_0_10  -1
    MARKER165  'MARKER'  'INTEND'
    F2_0_10  UB2_0_10  1
    MARKER166  'MARKER'  'INTORG'
    Y2_0_11  ASG2_11  1
    Y2_0_11  CH2_0_11  1
    Z2_0_11  CH2_0_11  -1
    MARKER167  'MARKER'  'INTEND'
    F2_0_11  UB2_0_11  1
    MARKER168  'MARKER'  'INTORG'
    Y2_1_0  ASG2_0  1
    Y2_1_0  UB2_1_0  -185.732808567
    Y2_1_0  LB2_1_0  -78.6292309389
    Y2_1_0  CH2_1_0  1
    Y2_1_0  CH2_1_1  -1
    Y2_1_0  MR2_1_0  1
    Z2_1_0  COST  2014.80089635
    Z2_1_0  CH2_1_0  -1
    Z2_1_0  MR2_1_0  -2
    MARKER169  'MARKER'  'INTEND'
    F2_1_0  COST  7.30884326773
    F2_1_0  UB2_1_0  1
    F2_1_0  LB2_1_0  1
    F2_1_0  BAL2_0  -1
    F2_1_0  BAL3_0  0.0171907859061
    F2_1_0  BAL4_0  0.00568823352041
    F2_1_0  BAL5_0  0.00157277338476
    F2_1_0  BAL6_0  0.90958116666
    F2_1_0  BAL7_0  0.043007555001
    MARKER170  'MARKER'  'INTORG'
    Y2_1_1  ASG2_1  1
    Y2_1_1  UB2_1_1  -185.732808567
    Y2_1_1  LB2_1_1  -78.6292309389
    Y2_1_1  CH2_1_1  1
    Y2_1_1  CH2_1_2  -1
    Y2_1_1  MR2_1_0  1
    Y2_1_1  MR2_1_1  1
    Z2_1_1  COST  2014.80089635
    Z2_1_1  CH2_1_1  -1
    Z2_1_1  MR2_1_1  -2
    MARKER171  'MARKER'  'INTEND'
    F2_1_1  COST  7.30884326773
    F2_1_1  UB2_1_1  1
    F2_1_1  LB2_1_1  1
    F2_1_1  BAL2_1  -1
    F2_1_1  BAL3_1  0.0171907859061
    F2_1_1  BAL4_1  0.00568823352041
    F2_1_1  BAL5_1  0.00157277338476
    F2_1_1  BAL6_1  0.90958116666
    F2_1_1  BAL7_1  0.043007555001
    MARKER172  'MARKER'  'INTORG'
    Y2_1_2  ASG2_2  1
    Y2_1_2  UB2_1_2  -185.732808567
    Y2_1_2  LB2_1_2  -78.6292309389
    Y2_1_2  CH2_1_2  1
    Y2_1_2  CH2_1_3  -1
    Y2_1_2  MR2_1_1  1
    Y2_1_2  MR2_1_2  1
    Z2_1_2  COST  2014.80089635
    Z2_1_2  CH2_1_2  -1
    Z2_1_2  MR2_1_2  -2
    MARKER173  'MARKER'  'INTEND'
    F2_1_2  COST  7.30884326773
    F2_1_2  UB2_1_2  1
    F2_1_2  LB2_1_2  1
    F2_1_2  BAL2_2  -1
    F2_1_2  BAL3_2  0.0171907859061
    F2_1_2  BAL4_2  0.00568823352041
    F2_1_2  BAL5_2  0.00157277338476
    F2_1_2  BAL6_2  0.90958116666
    F2_1_2  BAL7_2  0.043007555001
    MARKER174  'MARKER'  'INTORG'
    Y2_1_3  ASG2_3  1
    Y2_1_3  UB2_1_3  -185.732808567
    Y2_1_3  LB2_1_3  -78.6292309389
    Y2_1_3  CH2_1_3  1
    Y2_1_3  CH2_1_4  -1
    Y2_1_3  MR2_1_2  1
    Y2_1_3  MR2_1_3  1
    Z2_1_3  COST  2014.80089635
    Z2_1_3  CH2_1_3  -1
    Z2_1_3  MR2_1_3  -2
    MARKER175  'MARKER'  'INTEND'
    F2_1_3  COST  7.30884326773
    F2_1_3  UB2_1_3  1
    F2_1_3  LB2_1_3  1
    F2_1_3  BAL2_3  -1
    F2_1_3  BAL3_3  0.0171907859061
    F2_1_3  BAL4_3  0.00568823352041
    F2_1_3  BAL5_3  0.00157277338476
    F2_1_3  BAL6_3  0.90958116666
    F2_1_3  BAL7_3  0.043007555001
    MARKER176  'MARKER'  'INTORG'
    Y2_1_4  ASG2_4  1
    Y2_1_4  UB2_1_4  -185.732808567
    Y2_1_4  LB2_1_4  -78.6292309389
    Y2_1_4  CH2_1_4  1
    Y2_1_4  CH2_1_5  -1
    Y2_1_4  MR2_1_3  1
    Y2_1_4  MR2_1_4  1
    Z2_1_4  COST  2014.80089635
    Z2_1_4  CH2_1_4  -1
    Z2_1_4  MR2_1_4  -2
    MARKER177  'MARKER'  'INTEND'
    F2_1_4  COST  7.30884326773
    F2_1_4  UB2_1_4  1
    F2_1_4  LB2_1_4  1
    F2_1_4  BAL2_4  -1
    F2_1_4  BAL3_4  0.0171907859061
    F2_1_4  BAL4_4  0.00568823352041
    F2_1_4  BAL5_4  0.00157277338476
    F2_1_4  BAL6_4  0.90958116666
    F2_1_4  BAL7_4  0.043007555001
    MARKER178  'MARKER'  'INTORG'
    Y2_1_5  ASG2_5  1
    Y2_1_5  UB2_1_5  -185.732808567
    Y2_1_5  LB2_1_5  -78.6292309389
    Y2_1_5  CH2_1_5  1
    Y2_1_5  CH2_1_6  -1
    Y2_1_5  MR2_1_4  1
    Y2_1_5  MR2_1_5  1
    Z2_1_5  COST  2014.80089635
    Z2_1_5  CH2_1_5  -1
    Z2_1_5  MR2_1_5  -2
    MARKER179  'MARKER'  'INTEND'
    F2_1_5  COST  7.30884326773
    F2_1_5  UB2_1_5  1
    F2_1_5  LB2_1_5  1
    F2_1_5  BAL2_5  -1
    F2_1_5  BAL3_5  0.0171907859061
    F2_1_5  BAL4_5  0.00568823352041
    F2_1_5  BAL5_5  0.00157277338476
    F2_1_5  BAL6_5  0.90958116666
    F2_1_5  BAL7_5  0.043007555001
    MARKER180  'MARKER'  'INTORG'
    Y2_1_6  ASG2_6  1
    Y2_1_6  UB2_1_6  -185.732808567
    Y2_1_6  LB2_1_6  -78.6292309389
    Y2_1_6  CH2_1_6  1
    Y2_1_6  CH2_1_7  -1
    Y2_1_6  MR2_1_5  1
    Y2_1_6  MR2_1_6  1
    Z2_1_6  COST  2014.80089635
    Z2_1_6  CH2_1_6  -1
    Z2_1_6  MR2_1_6  -2
    MARKER181  'MARKER'  'INTEND'
    F2_1_6  COST  7.30884326773
    F2_1_6  UB2_1_6  1
    F2_1_6  LB2_1_6  1
    F2_1_6  BAL2_6  -1
    F2_1_6  BAL3_6  0.0171907859061
    F2_1_6  BAL4_6  0.00568823352041
    F2_1_6  BAL5_6  0.00157277338476
    F2_1_6  BAL6_6  0.90958116666
    F2_1_6  BAL7_6  0.043007555001
    MARKER182  'MARKER'  'INTORG'
    Y2_1_7  ASG2_7  1
    Y2_1_7  UB2_1_7  -185.732808567
    Y2_1_7  LB2_1_7  -78.6292309389
    Y2_1_7  CH2_1_7  1
    Y2_1_7  CH2_1_8  -1
    Y2_1_7  MR2_1_6  1
    Y2_1_7  MR2_1_7  1
    Z2_1_7  COST  2014.80089635
    Z2_1_7  CH2_1_7  -1
    Z2_1_7  MR2_1_7  -2
    MARKER183  'MARKER'  'INTEND'
    F2_1_7  COST  7.30884326773
    F2_1_7  UB2_1_7  1
    F2_1_7  LB2_1_7  1
    F2_1_7  BAL2_7  -1
    F2_1_7  BAL3_7  0.0171907859061
    F2_1_7  BAL4_7  0.00568823352041
    F2_1_7  BAL5_7  0.00157277338476
    F2_1_7  BAL6_7  0.90958116666
    F2_1_7  BAL7_7  0.043007555001
    MARKER184  'MARKER'  'INTORG'
    Y2_1_8  ASG2_8  1
    Y2_1_8  UB2_1_8  -185.732808567
    Y2_1_8  LB2_1_8  -78.6292309389
    Y2_1_8  CH2_1_8  1
    Y2_1_8  CH2_1_9  -1
    Y2_1_8  MR2_1_7  1
    Y2_1_8  MR2_1_8  1
    Z2_1_8  COST  2014.80089635
    Z2_1_8  CH2_1_8  -1
    Z2_1_8  MR2_1_8  -2
    MARKER185  'MARKER'  'INTEND'
    F2_1_8  COST  7.30884326773
    F2_1_8  UB2_1_8  1
    F2_1_8  LB2_1_8  1
    F2_1_8  BAL2_8  -1
    F2_1_8  BAL3_8  0.0171907859061
    F2_1_8  BAL4_8  0.00568823352041
    F2_1_8  BAL5_8  0.00157277338476
    F2_1_8  BAL6_8  0.90958116666
    F2_1_8  BAL7_8  0.043007555001
    MARKER186  'MARKER'  'INTORG'
    Y2_1_9  ASG2_9  1
    Y2_1_9  UB2_1_9  -185.732808567
    Y2_1_9  LB2_1_9  -78.6292309389
    Y2_1_9  CH2_1_9  1
    Y2_1_9  CH2_1_10  -1
    Y2_1_9  MR2_1_8  1
    Y2_1_9  MR2_1_9  1
    Z2_1_9  COST  2014.80089635
    Z2_1_9  CH2_1_9  -1
    Z2_1_9  MR2_1_9  -2
    MARKER187  'MARKER'  'INTEND'
    F2_1_9  COST  7.30884326773
    F2_1_9  UB2_1_9  1
    F2_1_9  LB2_1_9  1
    F2_1_9  BAL2_9  -1
    F2_1_9  BAL3_9  0.0171907859061
    F2_1_9  BAL4_9  0.00568823352041
    F2_1_9  BAL5_9  0.00157277338476
    F2_1_9  BAL6_9  0.90958116666
    F2_1_9  BAL7_9  0.043007555001
    MARKER188  'MARKER'  'INTORG'
    Y2_1_10  ASG2_10  1
    Y2_1_10  UB2_1_10  -185.732808567
    Y2_1_10  LB2_1_10  -78.6292309389
    Y2_1_10  CH2_1_10  1
    Y2_1_10  CH2_1_11  -1
    Y2_1_10  MR2_1_9  1
    Y2_1_10  MR2_1_10  1
    Z2_1_10  COST  2014.80089635
    Z2_1_10  CH2_1_10  -1
    Z2_1_10  MR2_1_10  -2
    MARKER189  'MARKER'  'INTEND'
    F2_1_10  COST  7.30884326773
    F2_1_10  UB2_1_10  1
    F2_1_10  LB2_1_10  1
    F2_1_10  BAL2_10  -1
    F2_1_10  BAL3_10  0.0171907859061
    F2_1_10  BAL4_10  0.00568823352041
    F2_1_10  BAL5_10  0.00157277338476
    F2_1_10  BAL6_10  0.90958116666
    F2_1_10  BAL7_10  0.043007555001
    MARKER190  'MARKER'  'INTORG'
    Y2_1_11  ASG2_11  1
    Y2_1_11  UB2_1_11  -185.732808567
    Y2_1_11  LB2_1_11  -78.6292309389
    Y2_1_11  CH2_1_11  1
    Y2_1_11  MR2_1_10  1
    Z2_1_11  COST  2014.80089635
    Z2_1_11  CH2_1_11  -1
    MARKER191  'MARKER'  'INTEND'
    F2_1_11  COST  7.30884326773
    F2_1_11  UB2_1_11  1
    F2_1_11  LB2_1_11  1
    F2_1_11  BAL2_11  -1
    F2_1_11  BAL3_11  0.0171907859061
    F2_1_11  BAL4_11  0.00568823352041
    F2_1_11  BAL5_11  0.00157277338476
    F2_1_11  BAL6_11  0.90958116666
    F2_1_11  BAL7_11  0.043007555001
    MARKER192  'MARKER'  'INTORG'
    Y2_2_0  ASG2_0  1
    Y2_2_0  UB2_2_0  -164.498770763
    Y2_2_0  LB2_2_0  -59.0274106398
    Y2_2_0  CH2_2_0  1
    Y2_2_0  CH2_2_1  -1
    Y2_2_0  MR2_2_0  1
    Z2_2_0  COST  2013.37356577
    Z2_2_0  CH2_2_0  -1
    Z2_2_0  MR2_2_0  -2
    MARKER193  'MARKER'  'INTEND'
    F2_2_0  COST  9.32358441932
    F2_2_0  UB2_2_0  1
    F2_2_0  LB2_2_0  1
    F2_2_0  BAL2_0  -1
    F2_2_0  BAL3_0  0.10208762272
    F2_2_0  BAL4_0  0.18440883462
    F2_2_0  BAL5_0  0.183735321982
    F2_2_0  BAL6_0  0.433464896
    F2_2_0  BAL7_0  0.0781560123907
    MARKER194  'MARKER'  'INTORG'
    Y2_2_1  ASG2_1  1
    Y2_2_1  UB2_2_1  -164.498770763
    Y2_2_1  LB2_2_1  -59.0274106398
    Y2_2_1  CH2_2_1  1
    Y2_2_1  CH2_2_2  -1
    Y2_2_1  MR2_2_0  1
    Y2_2_1  MR2_2_1  1
    Z2_2_1  COST  2013.37356577
    Z2_2_1  CH2_2_1  -1
    Z2_2_1  MR2_2_1  -2
    MARKER195  'MARKER'  'INTEND'
    F2_2_1  COST  9.32358441932
    F2_2_1  UB2_2_1  1
    F2_2_1  LB2_2_1  1
    F2_2_1  BAL2_1  -1
    F2_2_1  BAL3_1  0.10208762272
    F2_2_1  BAL4_1  0.18440883462
    F2_2_1  BAL5_1  0.183735321982
    F2_2_1  BAL6_1  0.433464896
    F2_2_1  BAL7_1  0.0781560123907
    MARKER196  'MARKER'  'INTORG'
    Y2_2_2  ASG2_2  1
    Y2_2_2  UB2_2_2  -164.498770763
    Y2_2_2  LB2_2_2  -59.0274106398
    Y2_2_2  CH2_2_2  1
    Y2_2_2  CH2_2_3  -1
    Y2_2_2  MR2_2_1  1
    Y2_2_2  MR2_2_2  1
    Z2_2_2  COST  2013.37356577
    Z2_2_2  CH2_2_2  -1
    Z2_2_2  MR2_2_2  -2
    MARKER197  'MARKER'  'INTEND'
    F2_2_2  COST  9.32358441932
    F2_2_2  UB2_2_2  1
    F2_2_2  LB2_2_2  1
    F2_2_2  BAL2_2  -1
    F2_2_2  BAL3_2  0.10208762272
    F2_2_2  BAL4_2  0.18440883462
    F2_2_2  BAL5_2  0.183735321982
    F2_2_2  BAL6_2  0.433464896
    F2_2_2  BAL7_2  0.0781560123907
    MARKER198  'MARKER'  'INTORG'
    Y2_2_3  ASG2_3  1
    Y2_2_3  UB2_2_3  -164.498770763
    Y2_2_3  LB2_2_3  -59.0274106398
    Y2_2_3  CH2_2_3  1
    Y2_2_3  CH2_2_4  -1
    Y2_2_3  MR2_2_2  1
    Y2_2_3  MR2_2_3  1
    Z2_2_3  COST  2013.37356577
    Z2_2_3  CH2_2_3  -1
    Z2_2_3  MR2_2_3  -2
    MARKER199  'MARKER'  'INTEND'
    F2_2_3  COST  9.32358441932
    F2_2_3  UB2_2_3  1
    F2_2_3  LB2_2_3  1
    F2_2_3  BAL2_3  -1
    F2_2_3  BAL3_3  0.10208762272
    F2_2_3  BAL4_3  0.18440883462
    F2_2_3  BAL5_3  0.183735321982
    F2_2_3  BAL6_3  0.433464896
    F2_2_3  BAL7_3  0.0781560123907
    MARKER200  'MARKER'  'INTORG'
    Y2_2_4  ASG2_4  1
    Y2_2_4  UB2_2_4  -164.498770763
    Y2_2_4  LB2_2_4  -59.0274106398
    Y2_2_4  CH2_2_4  1
    Y2_2_4  CH2_2_5  -1
    Y2_2_4  MR2_2_3  1
    Y2_2_4  MR2_2_4  1
    Z2_2_4  COST  2013.37356577
    Z2_2_4  CH2_2_4  -1
    Z2_2_4  MR2_2_4  -2
    MARKER201  'MARKER'  'INTEND'
    F2_2_4  COST  9.32358441932
    F2_2_4  UB2_2_4  1
    F2_2_4  LB2_2_4  1
    F2_2_4  BAL2_4  -1
    F2_2_4  BAL3_4  0.10208762272
    F2_2_4  BAL4_4  0.18440883462
    F2_2_4  BAL5_4  0.183735321982
    F2_2_4  BAL6_4  0.433464896
    F2_2_4  BAL7_4  0.0781560123907
    MARKER202  'MARKER'  'INTORG'
    Y2_2_5  ASG2_5  1
    Y2_2_5  UB2_2_5  -164.498770763
    Y2_2_5  LB2_2_5  -59.0274106398
    Y2_2_5  CH2_2_5  1
    Y2_2_5  CH2_2_6  -1
    Y2_2_5  MR2_2_4  1
    Y2_2_5  MR2_2_5  1
    Z2_2_5  COST  2013.37356577
    Z2_2_5  CH2_2_5  -1
    Z2_2_5  MR2_2_5  -2
    MARKER203  'MARKER'  'INTEND'
    F2_2_5  COST  9.32358441932
    F2_2_5  UB2_2_5  1
    F2_2_5  LB2_2_5  1
    F2_2_5  BAL2_5  -1
    F2_2_5  BAL3_5  0.10208762272
    F2_2_5  BAL4_5  0.18440883462
    F2_2_5  BAL5_5  0.183735321982
    F2_2_5  BAL6_5  0.433464896
    F2_2_5  BAL7_5  0.0781560123907
    MARKER204  'MARKER'  'INTORG'
    Y2_2_6  ASG2_6  1
    Y2_2_6  UB2_2_6  -164.498770763
    Y2_2_6  LB2_2_6  -59.0274106398
    Y2_2_6  CH2_2_6  1
    Y2_2_6  CH2_2_7  -1
    Y2_2_6  MR2_2_5  1
    Y2_2_6  MR2_2_6  1
    Z2_2_6  COST  2013.37356577
    Z2_2_6  CH2_2_6  -1
    Z2_2_6  MR2_2_6  -2
    MARKER205  'MARKER'  'INTEND'
    F2_2_6  COST  9.32358441932
    F2_2_6  UB2_2_6  1
    F2_2_6  LB2_2_6  1
    F2_2_6  BAL2_6  -1
    F2_2_6  BAL3_6  0.10208762272
    F2_2_6  BAL4_6  0.18440883462
    F2_2_6  BAL5_6  0.183735321982
    F2_2_6  BAL6_6  0.433464896
    F2_2_6  BAL7_6  0.0781560123907
    MARKER206  'MARKER'  'INTORG'
    Y2_2_7  ASG2_7  1
    Y2_2_7  UB2_2_7  -164.498770763
    Y2_2_7  LB2_2_7  -59.0274106398
    Y2_2_7  CH2_2_7  1
    Y2_2_7  CH2_2_8  -1
    Y2_2_7  MR2_2_6  1
    Y2_2_7  MR2_2_7  1
    Z2_2_7  COST  2013.37356577
    Z2_2_7  CH2_2_7  -1
    Z2_2_7  MR2_2_7  -2
    MARKER207  'MARKER'  'INTEND'
    F2_2_7  COST  9.32358441932
    F2_2_7  UB2_2_7  1
    F2_2_7  LB2_2_7  1
    F2_2_7  BAL2_7  -1
    F2_2_7  BAL3_7  0.10208762272
    F2_2_7  BAL4_7  0.18440883462
    F2_2_7  BAL5_7  0.183735321982
    F2_2_7  BAL6_7  0.433464896
    F2_2_7  BAL7_7  0.0781560123907
    MARKER208  'MARKER'  'INTORG'
    Y2_2_8  ASG2_8  1
    Y2_2_8  UB2_2_8  -164.498770763
    Y2_2_8  LB2_2_8  -59.0274106398
    Y2_2_8  CH2_2_8  1
    Y2_2_8  CH2_2_9  -1
    Y2_2_8  MR2_2_7  1
    Y2_2_8  MR2_2_8  1
    Z2_2_8  COST  2013.37356577
    Z2_2_8  CH2_2_8  -1
    Z2_2_8  MR2_2_8  -2
    MARKER209  'MARKER'  'INTEND'
    F2_2_8  COST  9.32358441932
    F2_2_8  UB2_2_8  1
    F2_2_8  LB2_2_8  1
    F2_2_8  BAL2_8  -1
    F2_2_8  BAL3_8  0.10208762272
    F2_2_8  BAL4_8  0.18440883462
    F2_2_8  BAL5_8  0.183735321982
    F2_2_8  BAL6_8  0.433464896
    F2_2_8  BAL7_8  0.0781560123907
    MARKER210  'MARKER'  'INTORG'
    Y2_2_9  ASG2_9  1
    Y2_2_9  UB2_2_9  -164.498770763
    Y2_2_9  LB2_2_9  -59.0274106398
    Y2_2_9  CH2_2_9  1
    Y2_2_9  CH2_2_10  -1
    Y2_2_9  MR2_2_8  1
    Y2_2_9  MR2_2_9  1
    Z2_2_9  COST  2013.37356577
    Z2_2_9  CH2_2_9  -1
    Z2_2_9  MR2_2_9  -2
    MARKER211  'MARKER'  'INTEND'
    F2_2_9  COST  9.32358441932
    F2_2_9  UB2_2_9  1
    F2_2_9  LB2_2_9  1
    F2_2_9  BAL2_9  -1
    F2_2_9  BAL3_9  0.10208762272
    F2_2_9  BAL4_9  0.18440883462
    F2_2_9  BAL5_9  0.183735321982
    F2_2_9  BAL6_9  0.433464896
    F2_2_9  BAL7_9  0.0781560123907
    MARKER212  'MARKER'  'INTORG'
    Y2_2_10  ASG2_10  1
    Y2_2_10  UB2_2_10  -164.498770763
    Y2_2_10  LB2_2_10  -59.0274106398
    Y2_2_10  CH2_2_10  1
    Y2_2_10  CH2_2_11  -1
    Y2_2_10  MR2_2_9  1
    Y2_2_10  MR2_2_10  1
    Z2_2_10  COST  2013.37356577
    Z2_2_10  CH2_2_10  -1
    Z2_2_10  MR2_2_10  -2
    MARKER213  'MARKER'  'INTEND'
    F2_2_10  COST  9.32358441932
    F2_2_10  UB2_2_10  1
    F2_2_10  LB2_2_10  1
    F2_2_10  BAL2_10  -1
    F2_2_10  BAL3_10  0.10208762272
    F2_2_10  BAL4_10  0.18440883462
    F2_2_10  BAL5_10  0.183735321982
    F2_2_10  BAL6_10  0.433464896
    F2_2_10  BAL7_10  0.0781560123907
    MARKER214  'MARKER'  'INTORG'
    Y2_2_11  ASG2_11  1
    Y2_2_11  UB2_2_11  -164.498770763
    Y2_2_11  LB2_2_11  -59.0274106398
    Y2_2_11  CH2_2_11  1
    Y2_2_11  MR2_2_10  1
    Z2_2_11  COST  2013.37356577
    Z2_2_11  CH2_2_11  -1
    MARKER215  'MARKER'  'INTEND'
    F2_2_11  COST  9.32358441932
    F2_2_11  UB2_2_11  1
    F2_2_11  LB2_2_11  1
    F2_2_11  BAL2_11  -1
    F2_2_11  BAL3_11  0.10208762272
    F2_2_11  BAL4_11  0.18440883462
    F2_2_11  BAL5_11  0.183735321982
    F2_2_11  BAL6_11  0.433464896
    F2_2_11  BAL7_11  0.0781560123907
    MARKER216  'MARKER'  'INTORG'
    Y3_0_0  ASG3_0  1
    Y3_0_0  CH3_0_0  1
    Y3_0_0  CH3_0_1  -1
    Z3_0_0  CH3_0_0  -1
    MARKER217  'MARKER'  'INTEND'
    F3_0_0  UB3_0_0  1
    MARKER218  'MARKER'  'INTORG'
    Y3_0_1  ASG3_1  1
    Y3_0_1  CH3_0_1  1
    Y3_0_1  CH3_0_2  -1
    Z3_0_1  CH3_0_1  -1
    MARKER219  'MARKER'  'INTEND'
    F3_0_1  UB3_0_1  1
    MARKER220  'MARKER'  'INTORG'
    Y3_0_2  ASG3_2  1
    Y3_0_2  CH3_0_2  1
    Y3_0_2  CH3_0_3  -1
    Z3_0_2  CH3_0_2  -1
    MARKER221  'MARKER'  'INTEND'
    F3_0_2  UB3_0_2  1
    MARKER222  'MARKER'  'INTORG'
    Y3_0_3  ASG3_3  1
    Y3_0_3  CH3_0_3  1
    Y3_0_3  CH3_0_4  -1
    Z3_0_3  CH3_0_3  -1
    MARKER223  'MARKER'  'INTEND'
    F3_0_3  UB3_0_3  1
    MARKER224  'MARKER'  'INTORG'
    Y3_0_4  ASG3_4  1
    Y3_0_4  CH3_0_4  1
    Y3_0_4  CH3_0_5  -1
    Z3_0_4  CH3_0_4  -1
    MARKER225  'MARKER'  'INTEND'
    F3_0_4  UB3_0_4  1
    MARKER226  'MARKER'  'INTORG'
    Y3_0_5  ASG3_5  1
    Y3_0_5  CH3_0_5  1
    Y3_0_5  CH3_0_6  -1
    Z3_0_5  CH3_0_5  -1
    MARKER227  'MARKER'  'INTEND'
    F3_0_5  UB3_0_5  1
    MARKER228  'MARKER'  'INTORG'
    Y3_0_6  ASG3_6  1
    Y3_0_6  CH3_0_6  1
    Y3_0_6  CH3_0_7  -1
    Z3_0_6  CH3_0_6  -1
    MARKER229  'MARKER'  'INTEND'
    F3_0_6  UB3_0_6  1
    MARKER230  'MARKER'  'INTORG'
    Y3_0_7  ASG3_7  1
    Y3_0_7  CH3_0_7  1
    Y3_0_7  CH3_0_8  -1
    Z3_0_7  CH3_0_7  -1
    MARKER231  'MARKER'  'INTEND'
    F3_0_7  UB3_0_7  1
    MARKER232  'MARKER'  'INTORG'
    Y3_0_8  ASG3_8  1
    Y3_0_8  CH3_0_8  1
    Y3_0_8  CH3_0_9  -1
    Z3_0_8  CH3_0_8  -1
    MARKER233  'MARKER'  'INTEND'
    F3_0_8  UB3_0_8  1
    MARKER234  'MARKER'  'INTORG'
    Y3_0_9  ASG3_9  1
    Y3_0_9  CH3_0_9  1
    Y3_0_9  CH3_0_10  -1
    Z3_0_9  CH3_0_9  -1
    MARKER235  'MARKER'  'INTEND'
    F3_0_9  UB3_0_9  1
    MARKER236  'MARKER'  'INTORG'
    Y3_0_10  ASG3_10  1
    Y3_0_10  CH3_0_10  1
    Y3_0_10  CH3_0_11  -1
    Z3_0_10  CH3_0_10  -1
    MARKER237  'MARKER'  'INTEND'
    F3_0_10  UB3_0_10  1
    MARKER238  'MARKER'  'INTORG'
    Y3_0_11  ASG3_11  1
    Y3_0_11  CH3_0_11  1
    Z3_0_11  CH3_0_11  -1
    MARKER239  'MARKER'  'INTEND'
    F3_0_11  UB3_0_11  1
    MARKER240  'MARKER'  'INTORG'
    Y3_1_0  ASG3_0  1
    Y3_1_0  UB3_1_0  -89.1368837614
    Y3_1_0  LB3_1_0  -41.6759201086
    Y3_1_0  CH3_1_0  1
    Y3_1_0  CH3_1_1  -1
    Y3_1_0  MR3_1_0  1
    Z3_1_0  COST  870.115074589
    Z3_1_0  CH3_1_0  -1
    Z3_1_0  MR3_1_0  -2
    MARKER241  'MARKER'  'INTEND'
    F3_1_0  COST  4.14601393775
    F3_1_0  UB3_1_0  1
    F3_1_0  LB3_1_0  1
    F3_1_0  BAL6_0  -1
    F3_1_0  BAL8_0  0.20559998331
    F3_1_0  BAL9_0  0.0912153683213
    F3_1_0  BAL10_0  0.527740501662
    F3_1_0  BAL11_0  0.152962075236
    MARKER242  'MARKER'  'INTORG'
    Y3_1_1  ASG3_1  1
    Y3_1_1  UB3_1_1  -89.1368837614
    Y3_1_1  LB3_1_1  -41.6759201086
    Y3_1_1  CH3_1_1  1
    Y3_1_1  CH3_1_2  -1
    Y3_1_1  MR3_1_0  1
    Y3_1_1  MR3_1_1  1
    Z3_1_1  COST  870.115074589
    Z3_1_1  CH3_1_1  -1
    Z3_1_1  MR3_1_1  -2
    MARKER243  'MARKER'  'INTEND'
    F3_1_1  COST  4.14601393775
    F3_1_1  UB3_1_1  1
    F3_1_1  LB3_1_1  1
    F3_1_1  BAL6_1  -1
    F3_1_1  BAL8_1  0.20559998331
    F3_1_1  BAL9_1  0.0912153683213
    F3_1_1  BAL10_1  0.527740501662
    F3_1_1  BAL11_1  0.152962075236
    MARKER244  'MARKER'  'INTORG'
    Y3_1_2  ASG3_2  1
    Y3_1_2  UB3_1_2  -89.1368837614
    Y3_1_2  LB3_1_2  -41.6759201086
    Y3_1_2  CH3_1_2  1
    Y3_1_2  CH3_1_3  -1
    Y3_1_2  MR3_1_1  1
    Y3_1_2  MR3_1_2  1
    Z3_1_2  COST  870.115074589
    Z3_1_2  CH3_1_2  -1
    Z3_1_2  MR3_1_2  -2
    MARKER245  'MARKER'  'INTEND'
    F3_1_2  COST  4.14601393775
    F3_1_2  UB3_1_2  1
    F3_1_2  LB3_1_2  1
    F3_1_2  BAL6_2  -1
    F3_1_2  BAL8_2  0.20559998331
    F3_1_2  BAL9_2  0.0912153683213
    F3_1_2  BAL10_2  0.527740501662
    F3_1_2  BAL11_2  0.152962075236
    MARKER246  'MARKER'  'INTORG'
    Y3_1_3  ASG3_3  1
    Y3_1_3  UB3_1_3  -89.1368837614
    Y3_1_3  LB3_1_3  -41.6759201086
    Y3_1_3  CH3_1_3  1
    Y3_1_3  CH3_1_4  -1
    Y3_1_3  MR3_1_2  1
    Y3_1_3  MR3_1_3  1
    Z3_1_3  COST  870.115074589
    Z3_1_3  CH3_1_3  -1
    Z3_1_3  MR3_1_3  -2
    MARKER247  'MARKER'  'INTEND'
    F3_1_3  COST  4.14601393775
    F3_1_3  UB3_1_3  1
    F3_1_3  LB3_1_3  1
    F3_1_3  BAL6_3  -1
    F3_1_3  BAL8_3  0.20559998331
    F3_1_3  BAL9_3  0.0912153683213
    F3_1_3  BAL10_3  0.527740501662
    F3_1_3  BAL11_3  0.152962075236
    MARKER248  'MARKER'  'INTORG'
    Y3_1_4  ASG3_4  1
    Y3_1_4  UB3_1_4  -89.1368837614
    Y3_1_4  LB3_1_4  -41.6759201086
    Y3_1_4  CH3_1_4  1
    Y3_1_4  CH3_1_5  -1
    Y3_1_4  MR3_1_3  1
    Y3_1_4  MR3_1_4  1
    Z3_1_4  COST  870.115074589
    Z3_1_4  CH3_1_4  -1
    Z3_1_4  MR3_1_4  -2
    MARKER249  'MARKER'  'INTEND'
    F3_1_4  COST  4.14601393775
    F3_1_4  UB3_1_4  1
    F3_1_4  LB3_1_4  1
    F3_1_4  BAL6_4  -1
    F3_1_4  BAL8_4  0.20559998331
    F3_1_4  BAL9_4  0.0912153683213
    F3_1_4  BAL10_4  0.527740501662
    F3_1_4  BAL11_4  0.152962075236
    MARKER250  'MARKER'  'INTORG'
    Y3_1_5  ASG3_5  1
    Y3_1_5  UB3_1_5  -89.1368837614
    Y3_1_5  LB3_1_5  -41.6759201086
    Y3_1_5  CH3_1_5  1
    Y3_1_5  CH3_1_6  -1
    Y3_1_5  MR3_1_4  1
    Y3_1_5  MR3_1_5  1
    Z3_1_5  COST  870.115074589
    Z3_1_5  CH3_1_5  -1
    Z3_1_5  MR3_1_5  -2
    MARKER251  'MARKER'  'INTEND'
    F3_1_5  COST  4.14601393775
    F3_1_5  UB3_1_5  1
    F3_1_5  LB3_1_5  1
    F3_1_5  BAL6_5  -1
    F3_1_5  BAL8_5  0.20559998331
    F3_1_5  BAL9_5  0.0912153683213
    F3_1_5  BAL10_5  0.527740501662
    F3_1_5  BAL11_5  0.152962075236
    MARKER252  'MARKER'  'INTORG'
    Y3_1_6  ASG3_6  1
    Y3_1_6  UB3_1_6  -89.1368837614
    Y3_1_6  LB3_1_6  -41.6759201086
    Y3_1_6  CH3_1_6  1
    Y3_1_6  CH3_1_7  -1
    Y3_1_6  MR3_1_5  1
    Y3_1_6  MR3_1_6  1
    Z3_1_6  COST  870.115074589
    Z3_1_6  CH3_1_6  -1
    Z3_1_6  MR3_1_6  -2
    MARKER253  'MARKER'  'INTEND'
    F3_1_6  COST  4.14601393775
    F3_1_6  UB3_1_6  1
    F3_1_6  LB3_1_6  1
    F3_1_6  BAL6_6  -1
    F3_1_6  BAL8_6  0.20559998331
    F3_1_6  BAL9_6  0.0912153683213
    F3_1_6  BAL10_6  0.527740501662
    F3_1_6  BAL11_6  0.152962075236
    MARKER254  'MARKER'  'INTORG'
    Y3_1_7  ASG3_7  1
    Y3_1_7  UB3_1_7  -89.1368837614
    Y3_1_7  LB3_1_7  -41.6759201086
    Y3_1_7  CH3_1_7  1
    Y3_1_7  CH3_1_8  -1
    Y3_1_7  MR3_1_6  1
    Y3_1_7  MR3_1_7  1
    Z3_1_7  COST  870.115074589
    Z3_1_7  CH3_1_7  -1
    Z3_1_7  MR3_1_7  -2
    MARKER255  'MARKER'  'INTEND'
    F3_1_7  COST  4.14601393775
    F3_1_7  UB3_1_7  1
    F3_1_7  LB3_1_7  1
    F3_1_7  BAL6_7  -1
    F3_1_7  BAL8_7  0.20559998331
    F3_1_7  BAL9_7  0.0912153683213
    F3_1_7  BAL10_7  0.527740501662
    F3_1_7  BAL11_7  0.152962075236
    MARKER256  'MARKER'  'INTORG'
    Y3_1_8  ASG3_8  1
    Y3_1_8  UB3_1_8  -89.1368837614
    Y3_1_8  LB3_1_8  -41.6759201086
    Y3_1_8  CH3_1_8  1
    Y3_1_8  CH3_1_9  -1
    Y3_1_8  MR3_1_7  1
    Y3_1_8  MR3_1_8  1
    Z3_1_8  COST  870.115074589
    Z3_1_8  CH3_1_8  -1
    Z3_1_8  MR3_1_8  -2
    MARKER257  'MARKER'  'INTEND'
    F3_1_8  COST  4.14601393775
    F3_1_8  UB3_1_8  1
    F3_1_8  LB3_1_8  1
    F3_1_8  BAL6_8  -1
    F3_1_8  BAL8_8  0.20559998331
    F3_1_8  BAL9_8  0.0912153683213
    F3_1_8  BAL10_8  0.527740501662
    F3_1_8  BAL11_8  0.152962075236
    MARKER258  'MARKER'  'INTORG'
    Y3_1_9  ASG3_9  1
    Y3_1_9  UB3_1_9  -89.1368837614
    Y3_1_9  LB3_1_9  -41.6759201086
    Y3_1_9  CH3_1_9  1
    Y3_1_9  CH3_1_10  -1
    Y3_1_9  MR3_1_8  1
    Y3_1_9  MR3_1_9  1
    Z3_1_9  COST  870.115074589
    Z3_1_9  CH3_1_9  -1
    Z3_1_9  MR3_1_9  -2
    MARKER259  'MARKER'  'INTEND'
    F3_1_9  COST  4.14601393775
    F3_1_9  UB3_1_9  1
    F3_1_9  LB3_1_9  1
    F3_1_9  BAL6_9  -1
    F3_1_9  BAL8_9  0.20559998331
    F3_1_9  BAL9_9  0.0912153683213
    F3_1_9  BAL10_9  0.527740501662
    F3_1_9  BAL11_9  0.152962075236
    MARKER260  'MARKER'  'INTORG'
    Y3_1_10  ASG3_10  1
    Y3_1_10  UB3_1_10  -89.1368837614
    Y3_1_10  LB3_1_10  -41.6759201086
    Y3_1_10  CH3_1_10  1
    Y3_1_10  CH3_1_11  -1
    Y3_1_10  MR3_1_9  1
    Y3_1_10  MR3_1_10  1
    Z3_1_10  COST  870.115074589
    Z3_1_10  CH3_1_10  -1
    Z3_1_10  MR3_1_10  -2
    MARKER261  'MARKER'  'INTEND'
    F3_1_10  COST  4.14601393775
    F3_1_10  UB3_1_10  1
    F3_1_10  LB3_1_10  1
    F3_1_10  BAL6_10  -1
    F3_1_10  BAL8_10  0.20559998331
    F3_1_10  BAL9_10  0.0912153683213
    F3_1_10  BAL10_10  0.527740501662
    F3_1_10  BAL11_10  0.152962075236
    MARKER262  'MARKER'  'INTORG'
    Y3_1_11  ASG3_11  1
    Y3_1_11  UB3_1_11  -89.1368837614
    Y3_1_11  LB3_1_11  -41.6759201086
    Y3_1_11  CH3_1_11  1
    Y3_1_11  MR3_1_10  1
    Z3_1_11  COST  870.115074589
    Z3_1_11  CH3_1_11  -1
    MARKER263  'MARKER'  'INTEND'
    F3_1_11  COST  4.14601393775
    F3_1_11  UB3_1_11  1
    F3_1_11  LB3_1_11  1
    F3_1_11  BAL6_11  -1
    F3_1_11  BAL8_11  0.20559998331
    F3_1_11  BAL9_11  0.0912153683213
    F3_1_11  BAL10_11  0.527740501662
    F3_1_11  BAL11_11  0.152962075236
    MARKER264  'MARKER'  'INTORG'
    Y3_2_0  ASG3_0  1
    Y3_2_0  UB3_2_0  -86.4928000959
    Y3_2_0  LB3_2_0  -47.1062525052
    Y3_2_0  CH3_2_0  1
    Y3_2_0  CH3_2_1  -1
    Y3_2_0  MR3_2_0  1
    Z3_2_0  COST  426.031634654
    Z3_2_0  CH3_2_0  -1
    Z3_2_0  MR3_2_0  -2
    MARKER265  'MARKER'  'INTEND'
    F3_2_0  COST  10.1307694726
    F3_2_0  UB3_2_0  1
    F3_2_0  LB3_2_0  1
    F3_2_0  BAL6_0  -1
    F3_2_0  BAL8_0  0.000347312186869
    F3_2_0  BAL9_0  0.15569521577
    F3_2_0  BAL10_0  0.793511719475
    F3_2_0  BAL11_0  0.0050941028019
    MARKER266  'MARKER'  'INTORG'
    Y3_2_1  ASG3_1  1
    Y3_2_1  UB3_2_1  -86.4928000959
    Y3_2_1  LB3_2_1  -47.1062525052
    Y3_2_1  CH3_2_1  1
    Y3_2_1  CH3_2_2  -1
    Y3_2_1  MR3_2_0  1
    Y3_2_1  MR3_2_1  1
    Z3_2_1  COST  426.031634654
    Z3_2_1  CH3_2_1  -1
    Z3_2_1  MR3_2_1  -2
    MARKER267  'MARKER'  'INTEND'
    F3_2_1  COST  10.1307694726
    F3_2_1  UB3_2_1  1
    F3_2_1  LB3_2_1  1
    F3_2_1  BAL6_1  -1
    F3_2_1  BAL8_1  0.000347312186869
    F3_2_1  BAL9_1  0.15569521577
    F3_2_1  BAL10_1  0.793511719475
    F3_2_1  BAL11_1  0.0050941028019
    MARKER268  'MARKER'  'INTORG'
    Y3_2_2  ASG3_2  1
    Y3_2_2  UB3_2_2  -86.4928000959
    Y3_2_2  LB3_2_2  -47.1062525052
    Y3_2_2  CH3_2_2  1
    Y3_2_2  CH3_2_3  -1
    Y3_2_2  MR3_2_1  1
    Y3_2_2  MR3_2_2  1
    Z3_2_2  COST  426.031634654
    Z3_2_2  CH3_2_2  -1
    Z3_2_2  MR3_2_2  -2
    MARKER269  'MARKER'  'INTEND'
    F3_2_2  COST  10.1307694726
    F3_2_2  UB3_2_2  1
    F3_2_2  LB3_2_2  1
    F3_2_2  BAL6_2  -1
    F3_2_2  BAL8_2  0.000347312186869
    F3_2_2  BAL9_2  0.15569521577
    F3_2_2  BAL10_2  0.793511719475
    F3_2_2  BAL11_2  0.0050941028019
    MARKER270  'MARKER'  'INTORG'
    Y3_2_3  ASG3_3  1
    Y3_2_3  UB3_2_3  -86.4928000959
    Y3_2_3  LB3_2_3  -47.1062525052
    Y3_2_3  CH3_2_3  1
    Y3_2_3  CH3_2_4  -1
    Y3_2_3  MR3_2_2  1
    Y3_2_3  MR3_2_3  1
    Z3_2_3  COST  426.031634654
    Z3_2_3  CH3_2_3  -1
    Z3_2_3  MR3_2_3  -2
    MARKER271  'MARKER'  'INTEND'
    F3_2_3  COST  10.1307694726
    F3_2_3  UB3_2_3  1
    F3_2_3  LB3_2_3  1
    F3_2_3  BAL6_3  -1
    F3_2_3  BAL8_3  0.000347312186869
    F3_2_3  BAL9_3  0.15569521577
    F3_2_3  BAL10_3  0.793511719475
    F3_2_3  BAL11_3  0.0050941028019
    MARKER272  'MARKER'  'INTORG'
    Y3_2_4  ASG3_4  1
    Y3_2_4  UB3_2_4  -86.4928000959
    Y3_2_4  LB3_2_4  -47.1062525052
    Y3_2_4  CH3_2_4  1
    Y3_2_4  CH3_2_5  -1
    Y3_2_4  MR3_2_3  1
    Y3_2_4  MR3_2_4  1
    Z3_2_4  COST  426.031634654
    Z3_2_4  CH3_2_4  -1
    Z3_2_4  MR3_2_4  -2
    MARKER273  'MARKER'  'INTEND'
    F3_2_4  COST  10.1307694726
    F3_2_4  UB3_2_4  1
    F3_2_4  LB3_2_4  1
    F3_2_4  BAL6_4  -1
    F3_2_4  BAL8_4  0.000347312186869
    F3_2_4  BAL9_4  0.15569521577
    F3_2_4  BAL10_4  0.793511719475
    F3_2_4  BAL11_4  0.0050941028019
    MARKER274  'MARKER'  'INTORG'
    Y3_2_5  ASG3_5  1
    Y3_2_5  UB3_2_5  -86.4928000959
    Y3_2_5  LB3_2_5  -47.1062525052
    Y3_2_5  CH3_2_5  1
    Y3_2_5  CH3_2_6  -1
    Y3_2_5  MR3_2_4  1
    Y3_2_5  MR3_2_5  1
    Z3_2_5  COST  426.031634654
    Z3_2_5  CH3_2_5  -1
    Z3_2_5  MR3_2_5  -2
    MARKER275  'MARKER'  'INTEND'
    F3_2_5  COST  10.1307694726
    F3_2_5  UB3_2_5  1
    F3_2_5  LB3_2_5  1
    F3_2_5  BAL6_5  -1
    F3_2_5  BAL8_5  0.000347312186869
    F3_2_5  BAL9_5  0.15569521577
    F3_2_5  BAL10_5  0.793511719475
    F3_2_5  BAL11_5  0.0050941028019
    MARKER276  'MARKER'  'INTORG'
    Y3_2_6  ASG3_6  1
    Y3_2_6  UB3_2_6  -86.4928000959
    Y3_2_6  LB3_2_6  -47.1062525052
    Y3_2_6  CH3_2_6  1
    Y3_2_6  CH3_2_7  -1
    Y3_2_6  MR3_2_5  1
    Y3_2_6  MR3_2_6  1
    Z3_2_6  COST  426.031634654
    Z3_2_6  CH3_2_6  -1
    Z3_2_6  MR3_2_6  -2
    MARKER277  'MARKER'  'INTEND'
    F3_2_6  COST  10.1307694726
    F3_2_6  UB3_2_6  1
    F3_2_6  LB3_2_6  1
    F3_2_6  BAL6_6  -1
    F3_2_6  BAL8_6  0.000347312186869
    F3_2_6  BAL9_6  0.15569521577
    F3_2_6  BAL10_6  0.793511719475
    F3_2_6  BAL11_6  0.0050941028019
    MARKER278  'MARKER'  'INTORG'
    Y3_2_7  ASG3_7  1
    Y3_2_7  UB3_2_7  -86.4928000959
    Y3_2_7  LB3_2_7  -47.1062525052
    Y3_2_7  CH3_2_7  1
    Y3_2_7  CH3_2_8  -1
    Y3_2_7  MR3_2_6  1
    Y3_2_7  MR3_2_7  1
    Z3_2_7  COST  426.031634654
    Z3_2_7  CH3_2_7  -1
    Z3_2_7  MR3_2_7  -2
    MARKER279  'MARKER'  'INTEND'
    F3_2_7  COST  10.1307694726
    F3_2_7  UB3_2_7  1
    F3_2_7  LB3_2_7  1
    F3_2_7  BAL6_7  -1
    F3_2_7  BAL8_7  0.000347312186869
    F3_2_7  BAL9_7  0.15569521577
    F3_2_7  BAL10_7  0.793511719475
    F3_2_7  BAL11_7  0.0050941028019
    MARKER280  'MARKER'  'INTORG'
    Y3_2_8  ASG3_8  1
    Y3_2_8  UB3_2_8  -86.4928000959
    Y3_2_8  LB3_2_8  -47.1062525052
    Y3_2_8  CH3_2_8  1
    Y3_2_8  CH3_2_9  -1
    Y3_2_8  MR3_2_7  1
    Y3_2_8  MR3_2_8  1
    Z3_2_8  COST  426.031634654
    Z3_2_8  CH3_2_8  -1
    Z3_2_8  MR3_2_8  -2
    MARKER281  'MARKER'  'INTEND'
    F3_2_8  COST  10.1307694726
    F3_2_8  UB3_2_8  1
    F3_2_8  LB3_2_8  1
    F3_2_8  BAL6_8  -1
    F3_2_8  BAL8_8  0.000347312186869
    F3_2_8  BAL9_8  0.15569521577
    F3_2_8  BAL10_8  0.793511719475
    F3_2_8  BAL11_8  0.0050941028019
    MARKER282  'MARKER'  'INTORG'
    Y3_2_9  ASG3_9  1
    Y3_2_9  UB3_2_9  -86.4928000959
    Y3_2_9  LB3_2_9  -47.1062525052
    Y3_2_9  CH3_2_9  1
    Y3_2_9  CH3_2_10  -1
    Y3_2_9  MR3_2_8  1
    Y3_2_9  MR3_2_9  1
    Z3_2_9  COST  426.031634654
    Z3_2_9  CH3_2_9  -1
    Z3_2_9  MR3_2_9  -2
    MARKER283  'MARKER'  'INTEND'
    F3_2_9  COST  10.1307694726
    F3_2_9  UB3_2_9  1
    F3_2_9  LB3_2_9  1
    F3_2_9  BAL6_9  -1
    F3_2_9  BAL8_9  0.000347312186869
    F3_2_9  BAL9_9  0.15569521577
    F3_2_9  BAL10_9  0.793511719475
    F3_2_9  BAL11_9  0.0050941028019
    MARKER284  'MARKER'  'INTORG'
    Y3_2_10  ASG3_10  1
    Y3_2_10  UB3_2_10  -86.4928000959
    Y3_2_10  LB3_2_10  -47.1062525052
    Y3_2_10  CH3_2_10  1
    Y3_2_10  CH3_2_11  -1
    Y3_2_10  MR3_2_9  1
    Y3_2_10  MR3_2_10  1
    Z3_2_10  COST  426.031634654
    Z3_2_10  CH3_2_10  -1
    Z3_2_10  MR3_2_10  -2
    MARKER285  'MARKER'  'INTEND'
    F3_2_10  COST  10.1307694726
    F3_2_10  UB3_2_10  1
    F3_2_10  LB3_2_10  1
    F3_2_10  BAL6_10  -1
    F3_2_10  BAL8_10  0.000347312186869
    F3_2_10  BAL9_10  0.15569521577
    F3_2_10  BAL10_10  0.793511719475
    F3_2_10  BAL11_10  0.0050941028019
    MARKER286  'MARKER'  'INTORG'
    Y3_2_11  ASG3_11  1
    Y3_2_11  UB3_2_11  -86.4928000959
    Y3_2_11  LB3_2_11  -47.1062525052
    Y3_2_11  CH3_2_11  1
    Y3_2_11  MR3_2_10  1
    Z3_2_11  COST  426.031634654
    Z3_2_11  CH3_2_11  -1
    MARKER287  'MARKER'  'INTEND'
    F3_2_11  COST  10.1307694726
    F3_2_11  UB3_2_11  1
    F3_2_11  LB3_2_11  1
    F3_2_11  BAL6_11  -1
    F3_2_11  BAL8_11  0.000347312186869
    F3_2_11  BAL9_11  0.15569521577
    F3_2_11  BAL10_11  0.793511719475
    F3_2_11  BAL11_11  0.0050941028019
    MARKER288  'MARKER'  'INTORG'
    Y4_0_0  ASG4_0  1
    Y4_0_0  CH4_0_0  1
    Y4_0_0  CH4_0_1  -1
    Z4_0_0  CH4_0_0  -1
    MARKER289  'MARKER'  'INTEND'
    F4_0_0  UB4_0_0  1
    MARKER290  'MARKER'  'INTORG'
    Y4_0_1  ASG4_1  1
    Y4_0_1  CH4_0_1  1
    Y4_0_1  CH4_0_2  -1
    Z4_0_1  CH4_0_1  -1
    MARKER291  'MARKER'  'INTEND'
    F4_0_1  UB4_0_1  1
    MARKER292  'MARKER'  'INTORG'
    Y4_0_2  ASG4_2  1
    Y4_0_2  CH4_0_2  1
    Y4_0_2  CH4_0_3  -1
    Z4_0_2  CH4_0_2  -1
    MARKER293  'MARKER'  'INTEND'
    F4_0_2  UB4_0_2  1
    MARKER294  'MARKER'  'INTORG'
    Y4_0_3  ASG4_3  1
    Y4_0_3  CH4_0_3  1
    Y4_0_3  CH4_0_4  -1
    Z4_0_3  CH4_0_3  -1
    MARKER295  'MARKER'  'INTEND'
    F4_0_3  UB4_0_3  1
    MARKER296  'MARKER'  'INTORG'
    Y4_0_4  ASG4_4  1
    Y4_0_4  CH4_0_4  1
    Y4_0_4  CH4_0_5  -1
    Z4_0_4  CH4_0_4  -1
    MARKER297  'MARKER'  'INTEND'
    F4_0_4  UB4_0_4  1
    MARKER298  'MARKER'  'INTORG'
    Y4_0_5  ASG4_5  1
    Y4_0_5  CH4_0_5  1
    Y4_0_5  CH4_0_6  -1
    Z4_0_5  CH4_0_5  -1
    MARKER299  'MARKER'  'INTEND'
    F4_0_5  UB4_0_5  1
    MARKER300  'MARKER'  'INTORG'
    Y4_0_6  ASG4_6  1
    Y4_0_6  CH4_0_6  1
    Y4_0_6  CH4_0_7  -1
    Z4_0_6  CH4_0_6  -1
    MARKER301  'MARKER'  'INTEND'
    F4_0_6  UB4_0_6  1
    MARKER302  'MARKER'  'INTORG'
    Y4_0_7  ASG4_7  1
    Y4_0_7  CH4_0_7  1
    Y4_0_7  CH4_0_8  -1
    Z4_0_7  CH4_0_7  -1
    MARKER303  'MARKER'  'INTEND'
    F4_0_7  UB4_0_7  1
    MARKER304  'MARKER'  'INTORG'
    Y4_0_8  ASG4_8  1
    Y4_0_8  CH4_0_8  1
    Y4_0_8  CH4_0_9  -1
    Z4_0_8  CH4_0_8  -1
    MARKER305  'MARKER'  'INTEND'
    F4_0_8  UB4_0_8  1
    MARKER306  'MARKER'  'INTORG'
    Y4_0_9  ASG4_9  1
    Y4_0_9  CH4_0_9  1
    Y4_0_9  CH4_0_10  -1
    Z4_0_9  CH4_0_9  -1
    MARKER307  'MARKER'  'INTEND'
    F4_0_9  UB4_0_9  1
    MARKER308  'MARKER'  'INTORG'
    Y4_0_10  ASG4_10  1
    Y4_0_10  CH4_0_10  1
    Y4_0_10  CH4_0_11  -1
    Z4_0_10  CH4_0_10  -1
    MARKER309  'MARKER'  'INTEND'
    F4_0_10  UB4_0_10  1
    MARKER310  'MARKER'  'INTORG'
    Y4_0_11  ASG4_11  1
    Y4_0_11  CH4_0_11  1
    Z4_0_11  CH4_0_11  -1
    MARKER311  'MARKER'  'INTEND'
    F4_0_11  UB4_0_11  1
    MARKER312  'MARKER'  'INTORG'
    Y4_1_0  ASG4_0  1
    Y4_1_0  UB4_1_0  -91.3062841489
    Y4_1_0  LB4_1_0  -43.075583823
    Y4_1_0  CH4_1_0  1
    Y4_1_0  CH4_1_1  -1
    Y4_1_0  MR4_1_0  1
    Z4_1_0  COST  1084.65879169
    Z4_1_0  CH4_1_0  -1
    Z4_1_0  MR4_1_0  -2
    MARKER313  'MARKER'  'INTEND'
    F4_1_0  COST  9.82894607317
    F4_1_0  UB4_1_0  1
    F4_1_0  LB4_1_0  1
    F4_1_0  BAL7_0  -1
    F4_1_0  BAL8_0  0.295597670273
    F4_1_0  BAL9_0  0.294155029655
    F4_1_0  BAL10_0  0.172672756463
    F4_1_0  BAL11_0  0.227185553371
    MARKER314  'MARKER'  'INTORG'
    Y4_1_1  ASG4_1  1
    Y4_1_1  UB4_1_1  -91.3062841489
    Y4_1_1  LB4_1_1  -43.075583823
    Y4_1_1  CH4_1_1  1
    Y4_1_1  CH4_1_2  -1
    Y4_1_1  MR4_1_0  1
    Y4_1_1  MR4_1_1  1
    Z4_1_1  COST  1084.65879169
    Z4_1_1  CH4_1_1  -1
    Z4_1_1  MR4_1_1  -2
    MARKER315  'MARKER'  'INTEND'
    F4_1_1  COST  9.82894607317
    F4_1_1  UB4_1_1  1
    F4_1_1  LB4_1_1  1
    F4_1_1  BAL7_1  -1
    F4_1_1  BAL8_1  0.295597670273
    F4_1_1  BAL9_1  0.294155029655
    F4_1_1  BAL10_1  0.172672756463
    F4_1_1  BAL11_1  0.227185553371
    MARKER316  'MARKER'  'INTORG'
    Y4_1_2  ASG4_2  1
    Y4_1_2  UB4_1_2  -91.3062841489
    Y4_1_2  LB4_1_2  -43.075583823
    Y4_1_2  CH4_1_2  1
    Y4_1_2  CH4_1_3  -1
    Y4_1_2  MR4_1_1  1
    Y4_1_2  MR4_1_2  1
    Z4_1_2  COST  1084.65879169
    Z4_1_2  CH4_1_2  -1
    Z4_1_2  MR4_1_2  -2
    MARKER317  'MARKER'  'INTEND'
    F4_1_2  COST  9.82894607317
    F4_1_2  UB4_1_2  1
    F4_1_2  LB4_1_2  1
    F4_1_2  BAL7_2  -1
    F4_1_2  BAL8_2  0.295597670273
    F4_1_2  BAL9_2  0.294155029655
    F4_1_2  BAL10_2  0.172672756463
    F4_1_2  BAL11_2  0.227185553371
    MARKER318  'MARKER'  'INTORG'
    Y4_1_3  ASG4_3  1
    Y4_1_3  UB4_1_3  -91.3062841489
    Y4_1_3  LB4_1_3  -43.075583823
    Y4_1_3  CH4_1_3  1
    Y4_1_3  CH4_1_4  -1
    Y4_1_3  MR4_1_2  1
    Y4_1_3  MR4_1_3  1
    Z4_1_3  COST  1084.65879169
    Z4_1_3  CH4_1_3  -1
    Z4_1_3  MR4_1_3  -2
    MARKER319  'MARKER'  'INTEND'
    F4_1_3  COST  9.82894607317
    F4_1_3  UB4_1_3  1
    F4_1_3  LB4_1_3  1
    F4_1_3  BAL7_3  -1
    F4_1_3  BAL8_3  0.295597670273
    F4_1_3  BAL9_3  0.294155029655
    F4_1_3  BAL10_3  0.172672756463
    F4_1_3  BAL11_3  0.227185553371
    MARKER320  'MARKER'  'INTORG'
    Y4_1_4  ASG4_4  1
    Y4_1_4  UB4_1_4  -91.3062841489
    Y4_1_4  LB4_1_4  -43.075583823
    Y4_1_4  CH4_1_4  1
    Y4_1_4  CH4_1_5  -1
    Y4_1_4  MR4_1_3  1
    Y4_1_4  MR4_1_4  1
    Z4_1_4  COST  1084.65879169
    Z4_1_4  CH4_1_4  -1
    Z4_1_4  MR4_1_4  -2
    MARKER321  'MARKER'  'INTEND'
    F4_1_4  COST  9.82894607317
    F4_1_4  UB4_1_4  1
    F4_1_4  LB4_1_4  1
    F4_1_4  BAL7_4  -1
    F4_1_4  BAL8_4  0.295597670273
    F4_1_4  BAL9_4  0.294155029655
    F4_1_4  BAL10_4  0.172672756463
    F4_1_4  BAL11_4  0.227185553371
    MARKER322  'MARKER'  'INTORG'
    Y4_1_5  ASG4_5  1
    Y4_1_5  UB4_1_5  -91.3062841489
    Y4_1_5  LB4_1_5  -43.075583823
    Y4_1_5  CH4_1_5  1
    Y4_1_5  CH4_1_6  -1
    Y4_1_5  MR4_1_4  1
    Y4_1_5  MR4_1_5  1
    Z4_1_5  COST  1084.65879169
    Z4_1_5  CH4_1_5  -1
    Z4_1_5  MR4_1_5  -2
    MARKER323  'MARKER'  'INTEND'
    F4_1_5  COST  9.82894607317
    F4_1_5  UB4_1_5  1
    F4_1_5  LB4_1_5  1
    F4_1_5  BAL7_5  -1
    F4_1_5  BAL8_5  0.295597670273
    F4_1_5  BAL9_5  0.294155029655
    F4_1_5  BAL10_5  0.172672756463
    F4_1_5  BAL11_5  0.227185553371
    MARKER324  'MARKER'  'INTORG'
    Y4_1_6  ASG4_6  1
    Y4_1_6  UB4_1_6  -91.3062841489
    Y4_1_6  LB4_1_6  -43.075583823
    Y4_1_6  CH4_1_6  1
    Y4_1_6  CH4_1_7  -1
    Y4_1_6  MR4_1_5  1
    Y4_1_6  MR4_1_6  1
    Z4_1_6  COST  1084.65879169
    Z4_1_6  CH4_1_6  -1
    Z4_1_6  MR4_1_6  -2
    MARKER325  'MARKER'  'INTEND'
    F4_1_6  COST  9.82894607317
    F4_1_6  UB4_1_6  1
    F4_1_6  LB4_1_6  1
    F4_1_6  BAL7_6  -1
    F4_1_6  BAL8_6  0.295597670273
    F4_1_6  BAL9_6  0.294155029655
    F4_1_6  BAL10_6  0.172672756463
    F4_1_6  BAL11_6  0.227185553371
    MARKER326  'MARKER'  'INTORG'
    Y4_1_7  ASG4_7  1
    Y4_1_7  UB4_1_7  -91.3062841489
    Y4_1_7  LB4_1_7  -43.075583823
    Y4_1_7  CH4_1_7  1
    Y4_1_7  CH4_1_8  -1
    Y4_1_7  MR4_1_6  1
    Y4_1_7  MR4_1_7  1
    Z4_1_7  COST  1084.65879169
    Z4_1_7  CH4_1_7  -1
    Z4_1_7  MR4_1_7  -2
    MARKER327  'MARKER'  'INTEND'
    F4_1_7  COST  9.82894607317
    F4_1_7  UB4_1_7  1
    F4_1_7  LB4_1_7  1
    F4_1_7  BAL7_7  -1
    F4_1_7  BAL8_7  0.295597670273
    F4_1_7  BAL9_7  0.294155029655
    F4_1_7  BAL10_7  0.172672756463
    F4_1_7  BAL11_7  0.227185553371
    MARKER328  'MARKER'  'INTORG'
    Y4_1_8  ASG4_8  1
    Y4_1_8  UB4_1_8  -91.3062841489
    Y4_1_8  LB4_1_8  -43.075583823
    Y4_1_8  CH4_1_8  1
    Y4_1_8  CH4_1_9  -1
    Y4_1_8  MR4_1_7  1
    Y4_1_8  MR4_1_8  1
    Z4_1_8  COST  1084.65879169
    Z4_1_8  CH4_1_8  -1
    Z4_1_8  MR4_1_8  -2
    MARKER329  'MARKER'  'INTEND'
    F4_1_8  COST  9.82894607317
    F4_1_8  UB4_1_8  1
    F4_1_8  LB4_1_8  1
    F4_1_8  BAL7_8  -1
    F4_1_8  BAL8_8  0.295597670273
    F4_1_8  BAL9_8  0.294155029655
    F4_1_8  BAL10_8  0.172672756463
    F4_1_8  BAL11_8  0.227185553371
    MARKER330  'MARKER'  'INTORG'
    Y4_1_9  ASG4_9  1
    Y4_1_9  UB4_1_9  -91.3062841489
    Y4_1_9  LB4_1_9  -43.075583823
    Y4_1_9  CH4_1_9  1
    Y4_1_9  CH4_1_10  -1
    Y4_1_9  MR4_1_8  1
    Y4_1_9  MR4_1_9  1
    Z4_1_9  COST  1084.65879169
    Z4_1_9  CH4_1_9  -1
    Z4_1_9  MR4_1_9  -2
    MARKER331  'MARKER'  'INTEND'
    F4_1_9  COST  9.82894607317
    F4_1_9  UB4_1_9  1
    F4_1_9  LB4_1_9  1
    F4_1_9  BAL7_9  -1
    F4_1_9  BAL8_9  0.295597670273
    F4_1_9  BAL9_9  0.294155029655
    F4_1_9  BAL10_9  0.172672756463
    F4_1_9  BAL11_9  0.227185553371
    MARKER332  'MARKER'  'INTORG'
    Y4_1_10  ASG4_10  1
    Y4_1_10  UB4_1_10  -91.3062841489
    Y4_1_10  LB4_1_10  -43.075583823
    Y4_1_10  CH4_1_10  1
    Y4_1_10  CH4_1_11  -1
    Y4_1_10  MR4_1_9  1
    Y4_1_10  MR4_1_10  1
    Z4_1_10  COST  1084.65879169
    Z4_1_10  CH4_1_10  -1
    Z4_1_10  MR4_1_10  -2
    MARKER333  'MARKER'  'INTEND'
    F4_1_10  COST  9.82894607317
    F4_1_10  UB4_1_10  1
    F4_1_10  LB4_1_10  1
    F4_1_10  BAL7_10  -1
    F4_1_10  BAL8_10  0.295597670273
    F4_1_10  BAL9_10  0.294155029655
    F4_1_10  BAL10_10  0.172672756463
    F4_1_10  BAL11_10  0.227185553371
    MARKER334  'MARKER'  'INTORG'
    Y4_1_11  ASG4_11  1
    Y4_1_11  UB4_1_11  -91.3062841489
    Y4_1_11  LB4_1_11  -43.075583823
    Y4_1_11  CH4_1_11  1
    Y4_1_11  MR4_1_10  1
    Z4_1_11  COST  1084.65879169
    Z4_1_11  CH4_1_11  -1
    MARKER335  'MARKER'  'INTEND'
    F4_1_11  COST  9.82894607317
    F4_1_11  UB4_1_11  1
    F4_1_11  LB4_1_11  1
    F4_1_11  BAL7_11  -1
    F4_1_11  BAL8_11  0.295597670273
    F4_1_11  BAL9_11  0.294155029655
    F4_1_11  BAL10_11  0.172672756463
    F4_1_11  BAL11_11  0.227185553371
    MARKER336  'MARKER'  'INTORG'
    Y4_2_0  ASG4_0  1
    Y4_2_0  UB4_2_0  -117.248984861
    Y4_2_0  LB4_2_0  -59.9532080825
    Y4_2_0  CH4_2_0  1
    Y4_2_0  CH4_2_1  -1
    Y4_2_0  MR4_2_0  1
    Z4_2_0  COST  1598.50834107
    Z4_2_0  CH4_2_0  -1
    Z4_2_0  MR4_2_0  -2
    MARKER337  'MARKER'  'INTEND'
    F4_2_0  COST  5.57878927307
    F4_2_0  UB4_2_0  1
    F4_2_0  LB4_2_0  1
    F4_2_0  BAL7_0  -1
    F4_2_0  BAL8_0  0.115127277751
    F4_2_0  BAL9_0  0.225482121831
    F4_2_0  BAL10_0  0.129047889135
    F4_2_0  BAL11_0  0.499821726769
    MARKER338  'MARKER'  'INTORG'
    Y4_2_1  ASG4_1  1
    Y4_2_1  UB4_2_1  -117.248984861
    Y4_2_1  LB4_2_1  -59.9532080825
    Y4_2_1  CH4_2_1  1
    Y4_2_1  CH4_2_2  -1
    Y4_2_1  MR4_2_0  1
    Y4_2_1  MR4_2_1  1
    Z4_2_1  COST  1598.50834107
    Z4_2_1  CH4_2_1  -1
    Z4_2_1  MR4_2_1  -2
    MARKER339  'MARKER'  'INTEND'
    F4_2_1  COST  5.57878927307
    F4_2_1  UB4_2_1  1
    F4_2_1  LB4_2_1  1
    F4_2_1  BAL7_1  -1
    F4_2_1  BAL8_1  0.115127277751
    F4_2_1  BAL9_1  0.225482121831
    F4_2_1  BAL10_1  0.129047889135
    F4_2_1  BAL11_1  0.499821726769
    MARKER340  'MARKER'  'INTORG'
    Y4_2_2  ASG4_2  1
    Y4_2_2  UB4_2_2  -117.248984861
    Y4_2_2  LB4_2_2  -59.9532080825
    Y4_2_2  CH4_2_2  1
    Y4_2_2  CH4_2_3  -1
    Y4_2_2  MR4_2_1  1
    Y4_2_2  MR4_2_2  1
    Z4_2_2  COST  1598.50834107
    Z4_2_2  CH4_2_2  -1
    Z4_2_2  MR4_2_2  -2
    MARKER341  'MARKER'  'INTEND'
    F4_2_2  COST  5.57878927307
    F4_2_2  UB4_2_2  1
    F4_2_2  LB4_2_2  1
    F4_2_2  BAL7_2  -1
    F4_2_2  BAL8_2  0.115127277751
    F4_2_2  BAL9_2  0.225482121831
    F4_2_2  BAL10_2  0.129047889135
    F4_2_2  BAL11_2  0.499821726769
    MARKER342  'MARKER'  'INTORG'
    Y4_2_3  ASG4_3  1
    Y4_2_3  UB4_2_3  -117.248984861
    Y4_2_3  LB4_2_3  -59.9532080825
    Y4_2_3  CH4_2_3  1
    Y4_2_3  CH4_2_4  -1
    Y4_2_3  MR4_2_2  1
    Y4_2_3  MR4_2_3  1
    Z4_2_3  COST  1598.50834107
    Z4_2_3  CH4_2_3  -1
    Z4_2_3  MR4_2_3  -2
    MARKER343  'MARKER'  'INTEND'
    F4_2_3  COST  5.57878927307
    F4_2_3  UB4_2_3  1
    F4_2_3  LB4_2_3  1
    F4_2_3  BAL7_3  -1
    F4_2_3  BAL8_3  0.115127277751
    F4_2_3  BAL9_3  0.225482121831
    F4_2_3  BAL10_3  0.129047889135
    F4_2_3  BAL11_3  0.499821726769
    MARKER344  'MARKER'  'INTORG'
    Y4_2_4  ASG4_4  1
    Y4_2_4  UB4_2_4  -117.248984861
    Y4_2_4  LB4_2_4  -59.9532080825
    Y4_2_4  CH4_2_4  1
    Y4_2_4  CH4_2_5  -1
    Y4_2_4  MR4_2_3  1
    Y4_2_4  MR4_2_4  1
    Z4_2_4  COST  1598.50834107
    Z4_2_4  CH4_2_4  -1
    Z4_2_4  MR4_2_4  -2
    MARKER345  'MARKER'  'INTEND'
    F4_2_4  COST  5.57878927307
    F4_2_4  UB4_2_4  1
    F4_2_4  LB4_2_4  1
    F4_2_4  BAL7_4  -1
    F4_2_4  BAL8_4  0.115127277751
    F4_2_4  BAL9_4  0.225482121831
    F4_2_4  BAL10_4  0.129047889135
    F4_2_4  BAL11_4  0.499821726769
    MARKER346  'MARKER'  'INTORG'
    Y4_2_5  ASG4_5  1
    Y4_2_5  UB4_2_5  -117.248984861
    Y4_2_5  LB4_2_5  -59.9532080825
    Y4_2_5  CH4_2_5  1
    Y4_2_5  CH4_2_6  -1
    Y4_2_5  MR4_2_4  1
    Y4_2_5  MR4_2_5  1
    Z4_2_5  COST  1598.50834107
    Z4_2_5  CH4_2_5  -1
    Z4_2_5  MR4_2_5  -2
    MARKER347  'MARKER'  'INTEND'
    F4_2_5  COST  5.57878927307
    F4_2_5  UB4_2_5  1
    F4_2_5  LB4_2_5  1
    F4_2_5  BAL7_5  -1
    F4_2_5  BAL8_5  0.115127277751
    F4_2_5  BAL9_5  0.225482121831
    F4_2_5  BAL10_5  0.129047889135
    F4_2_5  BAL11_5  0.499821726769
    MARKER348  'MARKER'  'INTORG'
    Y4_2_6  ASG4_6  1
    Y4_2_6  UB4_2_6  -117.248984861
    Y4_2_6  LB4_2_6  -59.9532080825
    Y4_2_6  CH4_2_6  1
    Y4_2_6  CH4_2_7  -1
    Y4_2_6  MR4_2_5  1
    Y4_2_6  MR4_2_6  1
    Z4_2_6  COST  1598.50834107
    Z4_2_6  CH4_2_6  -1
    Z4_2_6  MR4_2_6  -2
    MARKER349  'MARKER'  'INTEND'
    F4_2_6  COST  5.57878927307
    F4_2_6  UB4_2_6  1
    F4_2_6  LB4_2_6  1
    F4_2_6  BAL7_6  -1
    F4_2_6  BAL8_6  0.115127277751
    F4_2_6  BAL9_6  0.225482121831
    F4_2_6  BAL10_6  0.129047889135
    F4_2_6  BAL11_6  0.499821726769
    MARKER350  'MARKER'  'INTORG'
    Y4_2_7  ASG4_7  1
    Y4_2_7  UB4_2_7  -117.248984861
    Y4_2_7  LB4_2_7  -59.9532080825
    Y4_2_7  CH4_2_7  1
    Y4_2_7  CH4_2_8  -1
    Y4_2_7  MR4_2_6  1
    Y4_2_7  MR4_2_7  1
    Z4_2_7  COST  1598.50834107
    Z4_2_7  CH4_2_7  -1
    Z4_2_7  MR4_2_7  -2
    MARKER351  'MARKER'  'INTEND'
    F4_2_7  COST  5.57878927307
    F4_2_7  UB4_2_7  1
    F4_2_7  LB4_2_7  1
    F4_2_7  BAL7_7  -1
    F4_2_7  BAL8_7  0.115127277751
    F4_2_7  BAL9_7  0.225482121831
    F4_2_7  BAL10_7  0.129047889135
    F4_2_7  BAL11_7  0.499821726769
    MARKER352  'MARKER'  'INTORG'
    Y4_2_8  ASG4_8  1
    Y4_2_8  UB4_2_8  -117.248984861
    Y4_2_8  LB4_2_8  -59.9532080825
    Y4_2_8  CH4_2_8  1
    Y4_2_8  CH4_2_9  -1
    Y4_2_8  MR4_2_7  1
    Y4_2_8  MR4_2_8  1
    Z4_2_8  COST  1598.50834107
    Z4_2_8  CH4_2_8  -1
    Z4_2_8  MR4_2_8  -2
    MARKER353  'MARKER'  'INTEND'
    F4_2_8  COST  5.57878927307
    F4_2_8  UB4_2_8  1
    F4_2_8  LB4_2_8  1
    F4_2_8  BAL7_8  -1
    F4_2_8  BAL8_8  0.115127277751
    F4_2_8  BAL9_8  0.225482121831
    F4_2_8  BAL10_8  0.129047889135
    F4_2_8  BAL11_8  0.499821726769
    MARKER354  'MARKER'  'INTORG'
    Y4_2_9  ASG4_9  1
    Y4_2_9  UB4_2_9  -117.248984861
    Y4_2_9  LB4_2_9  -59.9532080825
    Y4_2_9  CH4_2_9  1
    Y4_2_9  CH4_2_10  -1
    Y4_2_9  MR4_2_8  1
    Y4_2_9  MR4_2_9  1
    Z4_2_9  COST  1598.50834107
    Z4_2_9  CH4_2_9  -1
    Z4_2_9  MR4_2_9  -2
    MARKER355  'MARKER'  'INTEND'
    F4_2_9  COST  5.57878927307
    F4_2_9  UB4_2_9  1
    F4_2_9  LB4_2_9  1
    F4_2_9  BAL7_9  -1
    F4_2_9  BAL8_9  0.115127277751
    F4_2_9  BAL9_9  0.225482121831
    F4_2_9  BAL10_9  0.129047889135
    F4_2_9  BAL11_9  0.499821726769
    MARKER356  'MARKER'  'INTORG'
    Y4_2_10  ASG4_10  1
    Y4_2_10  UB4_2_10  -117.248984861
    Y4_2_10  LB4_2_10  -59.9532080825
    Y4_2_10  CH4_2_10  1
    Y4_2_10  CH4_2_11  -1
    Y4_2_10  MR4_2_9  1
    Y4_2_10  MR4_2_10  1
    Z4_2_10  COST  1598.50834107
    Z4_2_10  CH4_2_10  -1
    Z4_2_10  MR4_2_10  -2
    MARKER357  'MARKER'  'INTEND'
    F4_2_10  COST  5.57878927307
    F4_2_10  UB4_2_10  1
    F4_2_10  LB4_2_10  1
    F4_2_10  BAL7_10  -1
    F4_2_10  BAL8_10  0.115127277751
    F4_2_10  BAL9_10  0.225482121831
    F4_2_10  BAL10_10  0.129047889135
    F4_2_10  BAL11_10  0.499821726769
    MARKER358  'MARKER'  'INTORG'
    Y4_2_11  ASG4_11  1
    Y4_2_11  UB4_2_11  -117.248984861
    Y4_2_11  LB4_2_11  -59.9532080825
    Y4_2_11  CH4_2_11  1
    Y4_2_11  MR4_2_10  1
    Z4_2_11  COST  1598.50834107
    Z4_2_11  CH4_2_11  -1
    MARKER359  'MARKER'  'INTEND'
    F4_2_11  COST  5.57878927307
    F4_2_11  UB4_2_11  1
    F4_2_11  LB4_2_11  1
    F4_2_11  BAL7_11  -1
    F4_2_11  BAL8_11  0.115127277751
    F4_2_11  BAL9_11  0.225482121831
    F4_2_11  BAL10_11  0.129047889135
    F4_2_11  BAL11_11  0.499821726769
    MARKER360  'MARKER'  'INTORG'
    Y5_0_0  ASG5_0  1
    Y5_0_0  CH5_0_0  1
    Y5_0_0  CH5_0_1  -1
    Z5_0_0  CH5_0_0  -1
    MARKER361  'MARKER'  'INTEND'
    F5_0_0  UB5_0_0  1
    MARKER362  'MARKER'  'INTORG'
    Y5_0_1  ASG5_1  1
    Y5_0_1  CH5_0_1  1
    Y5_0_1  CH5_0_2  -1
    Z5_0_1  CH5_0_1  -1
    MARKER363  'MARKER'  'INTEND'
    F5_0_1  UB5_0_1  1
    MARKER364  'MARKER'  'INTORG'
    Y5_0_2  ASG5_2  1
    Y5_0_2  CH5_0_2  1
    Y5_0_2  CH5_0_3  -1
    Z5_0_2  CH5_0_2  -1
    MARKER365  'MARKER'  'INTEND'
    F5_0_2  UB5_0_2  1
    MARKER366  'MARKER'  'INTORG'
    Y5_0_3  ASG5_3  1
    Y5_0_3  CH5_0_3  1
    Y5_0_3  CH5_0_4  -1
    Z5_0_3  CH5_0_3  -1
    MARKER367  'MARKER'  'INTEND'
    F5_0_3  UB5_0_3  1
    MARKER368  'MARKER'  'INTORG'
    Y5_0_4  ASG5_4  1
    Y5_0_4  CH5_0_4  1
    Y5_0_4  CH5_0_5  -1
    Z5_0_4  CH5_0_4  -1
    MARKER369  'MARKER'  'INTEND'
    F5_0_4  UB5_0_4  1
    MARKER370  'MARKER'  'INTORG'
    Y5_0_5  ASG5_5  1
    Y5_0_5  CH5_0_5  1
    Y5_0_5  CH5_0_6  -1
    Z5_0_5  CH5_0_5  -1
    MARKER371  'MARKER'  'INTEND'
    F5_0_5  UB5_0_5  1
    MARKER372  'MARKER'  'INTORG'
    Y5_0_6  ASG5_6  1
    Y5_0_6  CH5_0_6  1
    Y5_0_6  CH5_0_7  -1
    Z5_0_6  CH5_0_6  -1
    MARKER373  'MARKER'  'INTEND'
    F5_0_6  UB5_0_6  1
    MARKER374  'MARKER'  'INTORG'
    Y5_0_7  ASG5_7  1
    Y5_0_7  CH5_0_7  1
    Y5_0_7  CH5_0_8  -1
    Z5_0_7  CH5_0_7  -1
    MARKER375  'MARKER'  'INTEND'
    F5_0_7  UB5_0_7  1
    MARKER376  'MARKER'  'INTORG'
    Y5_0_8  ASG5_8  1
    Y5_0_8  CH5_0_8  1
    Y5_0_8  CH5_0_9  -1
    Z5_0_8  CH5_0_8  -1
    MARKER377  'MARKER'  'INTEND'
    F5_0_8  UB5_0_8  1
    MARKER378  'MARKER'  'INTORG'
    Y5_0_9  ASG5_9  1
    Y5_0_9  CH5_0_9  1
    Y5_0_9  CH5_0_10  -1
    Z5_0_9  CH5_0_9  -1
    MARKER379  'MARKER'  'INTEND'
    F5_0_9  UB5_0_9  1
    MARKER380  'MARKER'  'INTORG'
    Y5_0_10  ASG5_10  1
    Y5_0_10  CH5_0_10  1
    Y5_0_10  CH5_0_11  -1
    Z5_0_10  CH5_0_10  -1
    MARKER381  'MARKER'  'INTEND'
    F5_0_10  UB5_0_10  1
    MARKER382  'MARKER'  'INTORG'
    Y5_0_11  ASG5_11  1
    Y5_0_11  CH5_0_11  1
    Z5_0_11  CH5_0_11  -1
    MARKER383  'MARKER'  'INTEND'
    F5_0_11  UB5_0_11  1
    MARKER384  'MARKER'  'INTORG'
    Y5_1_0  ASG5_0  1
    Y5_1_0  UB5_1_0  -109.418044677
    Y5_1_0  LB5_1_0  -40.1048031387
    Y5_1_0  CH5_1_0  1
    Y5_1_0  CH5_1_1  -1
    Y5_1_0  MR5_1_0  1
    Z5_1_0  COST  1211.37562041
    Z5_1_0  CH5_1_0  -1
    Z5_1_0  MR5_1_0  -2
    MARKER385  'MARKER'  'INTEND'
    F5_1_0  COST  5.11895367416
    F5_1_0  UB5_1_0  1
    F5_1_0  LB5_1_0  1
    F5_1_0  BAL7_0  -1
    F5_1_0  BAL8_0  0.251023512595
    F5_1_0  BAL9_0  0.0269917351786
    F5_1_0  BAL10_0  0.0898972184883
    F5_1_0  BAL11_0  0.601895264105
    MARKER386  'MARKER'  'INTORG'
    Y5_1_1  ASG5_1  1
    Y5_1_1  UB5_1_1  -109.418044677
    Y5_1_1  LB5_1_1  -40.1048031387
    Y5_1_1  CH5_1_1  1
    Y5_1_1  CH5_1_2  -1
    Y5_1_1  MR5_1_0  1
    Y5_1_1  MR5_1_1  1
    Z5_1_1  COST  1211.37562041
    Z5_1_1  CH5_1_1  -1
    Z5_1_1  MR5_1_1  -2
    MARKER387  'MARKER'  'INTEND'
    F5_1_1  COST  5.11895367416
    F5_1_1  UB5_1_1  1
    F5_1_1  LB5_1_1  1
    F5_1_1  BAL7_1  -1
    F5_1_1  BAL8_1  0.251023512595
    F5_1_1  BAL9_1  0.0269917351786
    F5_1_1  BAL10_1  0.0898972184883
    F5_1_1  BAL11_1  0.601895264105
    MARKER388  'MARKER'  'INTORG'
    Y5_1_2  ASG5_2  1
    Y5_1_2  UB5_1_2  -109.418044677
    Y5_1_2  LB5_1_2  -40.1048031387
    Y5_1_2  CH5_1_2  1
    Y5_1_2  CH5_1_3  -1
    Y5_1_2  MR5_1_1  1
    Y5_1_2  MR5_1_2  1
    Z5_1_2  COST  1211.37562041
    Z5_1_2  CH5_1_2  -1
    Z5_1_2  MR5_1_2  -2
    MARKER389  'MARKER'  'INTEND'
    F5_1_2  COST  5.11895367416
    F5_1_2  UB5_1_2  1
    F5_1_2  LB5_1_2  1
    F5_1_2  BAL7_2  -1
    F5_1_2  BAL8_2  0.251023512595
    F5_1_2  BAL9_2  0.0269917351786
    F5_1_2  BAL10_2  0.0898972184883
    F5_1_2  BAL11_2  0.601895264105
    MARKER390  'MARKER'  'INTORG'
    Y5_1_3  ASG5_3  1
    Y5_1_3  UB5_1_3  -109.418044677
    Y5_1_3  LB5_1_3  -40.1048031387
    Y5_1_3  CH5_1_3  1
    Y5_1_3  CH5_1_4  -1
    Y5_1_3  MR5_1_2  1
    Y5_1_3  MR5_1_3  1
    Z5_1_3  COST  1211.37562041
    Z5_1_3  CH5_1_3  -1
    Z5_1_3  MR5_1_3  -2
    MARKER391  'MARKER'  'INTEND'
    F5_1_3  COST  5.11895367416
    F5_1_3  UB5_1_3  1
    F5_1_3  LB5_1_3  1
    F5_1_3  BAL7_3  -1
    F5_1_3  BAL8_3  0.251023512595
    F5_1_3  BAL9_3  0.0269917351786
    F5_1_3  BAL10_3  0.0898972184883
    F5_1_3  BAL11_3  0.601895264105
    MARKER392  'MARKER'  'INTORG'
    Y5_1_4  ASG5_4  1
    Y5_1_4  UB5_1_4  -109.418044677
    Y5_1_4  LB5_1_4  -40.1048031387
    Y5_1_4  CH5_1_4  1
    Y5_1_4  CH5_1_5  -1
    Y5_1_4  MR5_1_3  1
    Y5_1_4  MR5_1_4  1
    Z5_1_4  COST  1211.37562041
    Z5_1_4  CH5_1_4  -1
    Z5_1_4  MR5_1_4  -2
    MARKER393  'MARKER'  'INTEND'
    F5_1_4  COST  5.11895367416
    F5_1_4  UB5_1_4  1
    F5_1_4  LB5_1_4  1
    F5_1_4  BAL7_4  -1
    F5_1_4  BAL8_4  0.251023512595
    F5_1_4  BAL9_4  0.0269917351786
    F5_1_4  BAL10_4  0.0898972184883
    F5_1_4  BAL11_4  0.601895264105
    MARKER394  'MARKER'  'INTORG'
    Y5_1_5  ASG5_5  1
    Y5_1_5  UB5_1_5  -109.418044677
    Y5_1_5  LB5_1_5  -40.1048031387
    Y5_1_5  CH5_1_5  1
    Y5_1_5  CH5_1_6  -1
    Y5_1_5  MR5_1_4  1
    Y5_1_5  MR5_1_5  1
    Z5_1_5  COST  1211.37562041
    Z5_1_5  CH5_1_5  -1
    Z5_1_5  MR5_1_5  -2
    MARKER395  'MARKER'  'INTEND'
    F5_1_5  COST  5.11895367416
    F5_1_5  UB5_1_5  1
    F5_1_5  LB5_1_5  1
    F5_1_5  BAL7_5  -1
    F5_1_5  BAL8_5  0.251023512595
    F5_1_5  BAL9_5  0.0269917351786
    F5_1_5  BAL10_5  0.0898972184883
    F5_1_5  BAL11_5  0.601895264105
    MARKER396  'MARKER'  'INTORG'
    Y5_1_6  ASG5_6  1
    Y5_1_6  UB5_1_6  -109.418044677
    Y5_1_6  LB5_1_6  -40.1048031387
    Y5_1_6  CH5_1_6  1
    Y5_1_6  CH5_1_7  -1
    Y5_1_6  MR5_1_5  1
    Y5_1_6  MR5_1_6  1
    Z5_1_6  COST  1211.37562041
    Z5_1_6  CH5_1_6  -1
    Z5_1_6  MR5_1_6  -2
    MARKER397  'MARKER'  'INTEND'
    F5_1_6  COST  5.11895367416
    F5_1_6  UB5_1_6  1
    F5_1_6  LB5_1_6  1
    F5_1_6  BAL7_6  -1
    F5_1_6  BAL8_6  0.251023512595
    F5_1_6  BAL9_6  0.0269917351786
    F5_1_6  BAL10_6  0.0898972184883
    F5_1_6  BAL11_6  0.601895264105
    MARKER398  'MARKER'  'INTORG'
    Y5_1_7  ASG5_7  1
    Y5_1_7  UB5_1_7  -109.418044677
    Y5_1_7  LB5_1_7  -40.1048031387
    Y5_1_7  CH5_1_7  1
    Y5_1_7  CH5_1_8  -1
    Y5_1_7  MR5_1_6  1
    Y5_1_7  MR5_1_7  1
    Z5_1_7  COST  1211.37562041
    Z5_1_7  CH5_1_7  -1
    Z5_1_7  MR5_1_7  -2
    MARKER399  'MARKER'  'INTEND'
    F5_1_7  COST  5.11895367416
    F5_1_7  UB5_1_7  1
    F5_1_7  LB5_1_7  1
    F5_1_7  BAL7_7  -1
    F5_1_7  BAL8_7  0.251023512595
    F5_1_7  BAL9_7  0.0269917351786
    F5_1_7  BAL10_7  0.0898972184883
    F5_1_7  BAL11_7  0.601895264105
    MARKER400  'MARKER'  'INTORG'
    Y5_1_8  ASG5_8  1
    Y5_1_8  UB5_1_8  -109.418044677
    Y5_1_8  LB5_1_8  -40.1048031387
    Y5_1_8  CH5_1_8  1
    Y5_1_8  CH5_1_9  -1
    Y5_1_8  MR5_1_7  1
    Y5_1_8  MR5_1_8  1
    Z5_1_8  COST  1211.37562041
    Z5_1_8  CH5_1_8  -1
    Z5_1_8  MR5_1_8  -2
    MARKER401  'MARKER'  'INTEND'
    F5_1_8  COST  5.11895367416
    F5_1_8  UB5_1_8  1
    F5_1_8  LB5_1_8  1
    F5_1_8  BAL7_8  -1
    F5_1_8  BAL8_8  0.251023512595
    F5_1_8  BAL9_8  0.0269917351786
    F5_1_8  BAL10_8  0.0898972184883
    F5_1_8  BAL11_8  0.601895264105
    MARKER402  'MARKER'  'INTORG'
    Y5_1_9  ASG5_9  1
    Y5_1_9  UB5_1_9  -109.418044677
    Y5_1_9  LB5_1_9  -40.1048031387
    Y5_1_9  CH5_1_9  1
    Y5_1_9  CH5_1_10  -1
    Y5_1_9  MR5_1_8  1
    Y5_1_9  MR5_1_9  1
    Z5_1_9  COST  1211.37562041
    Z5_1_9  CH5_1_9  -1
    Z5_1_9  MR5_1_9  -2
    MARKER403  'MARKER'  'INTEND'
    F5_1_9  COST  5.11895367416
    F5_1_9  UB5_1_9  1
    F5_1_9  LB5_1_9  1
    F5_1_9  BAL7_9  -1
    F5_1_9  BAL8_9  0.251023512595
    F5_1_9  BAL9_9  0.0269917351786
    F5_1_9  BAL10_9  0.0898972184883
    F5_1_9  BAL11_9  0.601895264105
    MARKER404  'MARKER'  'INTORG'
    Y5_1_10  ASG5_10  1
    Y5_1_10  UB5_1_10  -109.418044677
    Y5_1_10  LB5_1_10  -40.1048031387
    Y5_1_10  CH5_1_10  1
    Y5_1_10  CH5_1_11  -1
    Y5_1_10  MR5_1_9  1
    Y5_1_10  MR5_1_10  1
    Z5_1_10  COST  1211.37562041
    Z5_1_10  CH5_1_10  -1
    Z5_1_10  MR5_1_10  -2
    MARKER405  'MARKER'  'INTEND'
    F5_1_10  COST  5.11895367416
    F5_1_10  UB5_1_10  1
    F5_1_10  LB5_1_10  1
    F5_1_10  BAL7_10  -1
    F5_1_10  BAL8_10  0.251023512595
    F5_1_10  BAL9_10  0.0269917351786
    F5_1_10  BAL10_10  0.0898972184883
    F5_1_10  BAL11_10  0.601895264105
    MARKER406  'MARKER'  'INTORG'
    Y5_1_11  ASG5_11  1
    Y5_1_11  UB5_1_11  -109.418044677
    Y5_1_11  LB5_1_11  -40.1048031387
    Y5_1_11  CH5_1_11  1
    Y5_1_11  MR5_1_10  1
    Z5_1_11  COST  1211.37562041
    Z5_1_11  CH5_1_11  -1
    MARKER407  'MARKER'  'INTEND'
    F5_1_11  COST  5.11895367416
    F5_1_11  UB5_1_11  1
    F5_1_11  LB5_1_11  1
    F5_1_11  BAL7_11  -1
    F5_1_11  BAL8_11  0.251023512595
    F5_1_11  BAL9_11  0.0269917351786
    F5_1_11  BAL10_11  0.0898972184883
    F5_1_11  BAL11_11  0.601895264105
    MARKER408  'MARKER'  'INTORG'
    Y5_2_0  ASG5_0  1
    Y5_2_0  UB5_2_0  -93.796235966
    Y5_2_0  LB5_2_0  -36.3683765333
    Y5_2_0  CH5_2_0  1
    Y5_2_0  CH5_2_1  -1
    Y5_2_0  MR5_2_0  1
    Z5_2_0  COST  1994.36513654
    Z5_2_0  CH5_2_0  -1
    Z5_2_0  MR5_2_0  -2
    MARKER409  'MARKER'  'INTEND'
    F5_2_0  COST  6.16965395853
    F5_2_0  UB5_2_0  1
    F5_2_0  LB5_2_0  1
    F5_2_0  BAL7_0  -1
    F5_2_0  BAL8_0  0.110934406866
    F5_2_0  BAL9_0  0.0123310660119
    F5_2_0  BAL10_0  0.777472434509
    F5_2_0  BAL11_0  0.0399877068714
    MARKER410  'MARKER'  'INTORG'
    Y5_2_1  ASG5_1  1
    Y5_2_1  UB5_2_1  -93.796235966
    Y5_2_1  LB5_2_1  -36.3683765333
    Y5_2_1  CH5_2_1  1
    Y5_2_1  CH5_2_2  -1
    Y5_2_1  MR5_2_0  1
    Y5_2_1  MR5_2_1  1
    Z5_2_1  COST  1994.36513654
    Z5_2_1  CH5_2_1  -1
    Z5_2_1  MR5_2_1  -2
    MARKER411  'MARKER'  'INTEND'
    F5_2_1  COST  6.16965395853
    F5_2_1  UB5_2_1  1
    F5_2_1  LB5_2_1  1
    F5_2_1  BAL7_1  -1
    F5_2_1  BAL8_1  0.110934406866
    F5_2_1  BAL9_1  0.0123310660119
    F5_2_1  BAL10_1  0.777472434509
    F5_2_1  BAL11_1  0.0399877068714
    MARKER412  'MARKER'  'INTORG'
    Y5_2_2  ASG5_2  1
    Y5_2_2  UB5_2_2  -93.796235966
    Y5_2_2  LB5_2_2  -36.3683765333
    Y5_2_2  CH5_2_2  1
    Y5_2_2  CH5_2_3  -1
    Y5_2_2  MR5_2_1  1
    Y5_2_2  MR5_2_2  1
    Z5_2_2  COST  1994.36513654
    Z5_2_2  CH5_2_2  -1
    Z5_2_2  MR5_2_2  -2
    MARKER413  'MARKER'  'INTEND'
    F5_2_2  COST  6.16965395853
    F5_2_2  UB5_2_2  1
    F5_2_2  LB5_2_2  1
    F5_2_2  BAL7_2  -1
    F5_2_2  BAL8_2  0.110934406866
    F5_2_2  BAL9_2  0.0123310660119
    F5_2_2  BAL10_2  0.777472434509
    F5_2_2  BAL11_2  0.0399877068714
    MARKER414  'MARKER'  'INTORG'
    Y5_2_3  ASG5_3  1
    Y5_2_3  UB5_2_3  -93.796235966
    Y5_2_3  LB5_2_3  -36.3683765333
    Y5_2_3  CH5_2_3  1
    Y5_2_3  CH5_2_4  -1
    Y5_2_3  MR5_2_2  1
    Y5_2_3  MR5_2_3  1
    Z5_2_3  COST  1994.36513654
    Z5_2_3  CH5_2_3  -1
    Z5_2_3  MR5_2_3  -2
    MARKER415  'MARKER'  'INTEND'
    F5_2_3  COST  6.16965395853
    F5_2_3  UB5_2_3  1
    F5_2_3  LB5_2_3  1
    F5_2_3  BAL7_3  -1
    F5_2_3  BAL8_3  0.110934406866
    F5_2_3  BAL9_3  0.0123310660119
    F5_2_3  BAL10_3  0.777472434509
    F5_2_3  BAL11_3  0.0399877068714
    MARKER416  'MARKER'  'INTORG'
    Y5_2_4  ASG5_4  1
    Y5_2_4  UB5_2_4  -93.796235966
    Y5_2_4  LB5_2_4  -36.3683765333
    Y5_2_4  CH5_2_4  1
    Y5_2_4  CH5_2_5  -1
    Y5_2_4  MR5_2_3  1
    Y5_2_4  MR5_2_4  1
    Z5_2_4  COST  1994.36513654
    Z5_2_4  CH5_2_4  -1
    Z5_2_4  MR5_2_4  -2
    MARKER417  'MARKER'  'INTEND'
    F5_2_4  COST  6.16965395853
    F5_2_4  UB5_2_4  1
    F5_2_4  LB5_2_4  1
    F5_2_4  BAL7_4  -1
    F5_2_4  BAL8_4  0.110934406866
    F5_2_4  BAL9_4  0.0123310660119
    F5_2_4  BAL10_4  0.777472434509
    F5_2_4  BAL11_4  0.0399877068714
    MARKER418  'MARKER'  'INTORG'
    Y5_2_5  ASG5_5  1
    Y5_2_5  UB5_2_5  -93.796235966
    Y5_2_5  LB5_2_5  -36.3683765333
    Y5_2_5  CH5_2_5  1
    Y5_2_5  CH5_2_6  -1
    Y5_2_5  MR5_2_4  1
    Y5_2_5  MR5_2_5  1
    Z5_2_5  COST  1994.36513654
    Z5_2_5  CH5_2_5  -1
    Z5_2_5  MR5_2_5  -2
    MARKER419  'MARKER'  'INTEND'
    F5_2_5  COST  6.16965395853
    F5_2_5  UB5_2_5  1
    F5_2_5  LB5_2_5  1
    F5_2_5  BAL7_5  -1
    F5_2_5  BAL8_5  0.110934406866
    F5_2_5  BAL9_5  0.0123310660119
    F5_2_5  BAL10_5  0.777472434509
    F5_2_5  BAL11_5  0.0399877068714
    MARKER420  'MARKER'  'INTORG'
    Y5_2_6  ASG5_6  1
    Y5_2_6  UB5_2_6  -93.796235966
    Y5_2_6  LB5_2_6  -36.3683765333
    Y5_2_6  CH5_2_6  1
    Y5_2_6  CH5_2_7  -1
    Y5_2_6  MR5_2_5  1
    Y5_2_6  MR5_2_6  1
    Z5_2_6  COST  1994.36513654
    Z5_2_6  CH5_2_6  -1
    Z5_2_6  MR5_2_6  -2
    MARKER421  'MARKER'  'INTEND'
    F5_2_6  COST  6.16965395853
    F5_2_6  UB5_2_6  1
    F5_2_6  LB5_2_6  1
    F5_2_6  BAL7_6  -1
    F5_2_6  BAL8_6  0.110934406866
    F5_2_6  BAL9_6  0.0123310660119
    F5_2_6  BAL10_6  0.777472434509
    F5_2_6  BAL11_6  0.0399877068714
    MARKER422  'MARKER'  'INTORG'
    Y5_2_7  ASG5_7  1
    Y5_2_7  UB5_2_7  -93.796235966
    Y5_2_7  LB5_2_7  -36.3683765333
    Y5_2_7  CH5_2_7  1
    Y5_2_7  CH5_2_8  -1
    Y5_2_7  MR5_2_6  1
    Y5_2_7  MR5_2_7  1
    Z5_2_7  COST  1994.36513654
    Z5_2_7  CH5_2_7  -1
    Z5_2_7  MR5_2_7  -2
    MARKER423  'MARKER'  'INTEND'
    F5_2_7  COST  6.16965395853
    F5_2_7  UB5_2_7  1
    F5_2_7  LB5_2_7  1
    F5_2_7  BAL7_7  -1
    F5_2_7  BAL8_7  0.110934406866
    F5_2_7  BAL9_7  0.0123310660119
    F5_2_7  BAL10_7  0.777472434509
    F5_2_7  BAL11_7  0.0399877068714
    MARKER424  'MARKER'  'INTORG'
    Y5_2_8  ASG5_8  1
    Y5_2_8  UB5_2_8  -93.796235966
    Y5_2_8  LB5_2_8  -36.3683765333
    Y5_2_8  CH5_2_8  1
    Y5_2_8  CH5_2_9  -1
    Y5_2_8  MR5_2_7  1
    Y5_2_8  MR5_2_8  1
    Z5_2_8  COST  1994.36513654
    Z5_2_8  CH5_2_8  -1
    Z5_2_8  MR5_2_8  -2
    MARKER425  'MARKER'  'INTEND'
    F5_2_8  COST  6.16965395853
    F5_2_8  UB5_2_8  1
    F5_2_8  LB5_2_8  1
    F5_2_8  BAL7_8  -1
    F5_2_8  BAL8_8  0.110934406866
    F5_2_8  BAL9_8  0.0123310660119
    F5_2_8  BAL10_8  0.777472434509
    F5_2_8  BAL11_8  0.0399877068714
    MARKER426  'MARKER'  'INTORG'
    Y5_2_9  ASG5_9  1
    Y5_2_9  UB5_2_9  -93.796235966
    Y5_2_9  LB5_2_9  -36.3683765333
    Y5_2_9  CH5_2_9  1
    Y5_2_9  CH5_2_10  -1
    Y5_2_9  MR5_2_8  1
    Y5_2_9  MR5_2_9  1
    Z5_2_9  COST  1994.36513654
    Z5_2_9  CH5_2_9  -1
    Z5_2_9  MR5_2_9  -2
    MARKER427  'MARKER'  'INTEND'
    F5_2_9  COST  6.16965395853
    F5_2_9  UB5_2_9  1
    F5_2_9  LB5_2_9  1
    F5_2_9  BAL7_9  -1
    F5_2_9  BAL8_9  0.110934406866
    F5_2_9  BAL9_9  0.0123310660119
    F5_2_9  BAL10_9  0.777472434509
    F5_2_9  BAL11_9  0.0399877068714
    MARKER428  'MARKER'  'INTORG'
    Y5_2_10  ASG5_10  1
    Y5_2_10  UB5_2_10  -93.796235966
    Y5_2_10  LB5_2_10  -36.3683765333
    Y5_2_10  CH5_2_10  1
    Y5_2_10  CH5_2_11  -1
    Y5_2_10  MR5_2_9  1
    Y5_2_10  MR5_2_10  1
    Z5_2_10  COST  1994.36513654
    Z5_2_10  CH5_2_10  -1
    Z5_2_10  MR5_2_10  -2
    MARKER429  'MARKER'  'INTEND'
    F5_2_10  COST  6.16965395853
    F5_2_10  UB5_2_10  1
    F5_2_10  LB5_2_10  1
    F5_2_10  BAL7_10  -1
    F5_2_10  BAL8_10  0.110934406866
    F5_2_10  BAL9_10  0.0123310660119
    F5_2_10  BAL10_10  0.777472434509
    F5_2_10  BAL11_10  0.0399877068714
    MARKER430  'MARKER'  'INTORG'
    Y5_2_11  ASG5_11  1
    Y5_2_11  UB5_2_11  -93.796235966
    Y5_2_11  LB5_2_11  -36.3683765333
    Y5_2_11  CH5_2_11  1
    Y5_2_11  MR5_2_10  1
    Z5_2_11  COST  1994.36513654
    Z5_2_11  CH5_2_11  -1
    MARKER431  'MARKER'  'INTEND'
    F5_2_11  COST  6.16965395853
    F5_2_11  UB5_2_11  1
    F5_2_11  LB5_2_11  1
    F5_2_11  BAL7_11  -1
    F5_2_11  BAL8_11  0.110934406866
    F5_2_11  BAL9_11  0.0123310660119
    F5_2_11  BAL10_11  0.777472434509
    F5_2_11  BAL11_11  0.0399877068714
    I0_0  COST  0.325942471743
    I0_0  BAL0_0  -1
    I0_0  BAL0_1  1
    I0_1  COST  0.325942471743
    I0_1  BAL0_1  -1
    I0_1  BAL0_2  1
    I0_2  COST  0.325942471743
    I0_2  BAL0_2  -1
    I0_2  BAL0_3  1
    I0_3  COST  0.325942471743
    I0_3  BAL0_3  -1
    I0_3  BAL0_4  1
    I0_4  COST  0.325942471743
    I0_4  BAL0_4  -1
    I0_4  BAL0_5  1
    I0_5  COST  0.325942471743
    I0_5  BAL0_5  -1
    I0_5  BAL0_6  1
    I0_6  COST  0.325942471743
    I0_6  BAL0_6  -1
    I0_6  BAL0_7  1
    I0_7  COST  0.325942471743
    I0_7  BAL0_7  -1
    I0_7  BAL0_8  1
    I0_8  COST  0.325942471743
    I0_8  BAL0_8  -1
    I0_8  BAL0_9  1
    I0_9  COST  0.325942471743
    I0_9  BAL0_9  -1
    I0_9  BAL0_10  1
    I0_10  COST  0.325942471743
    I0_10  BAL0_10  -1
    I0_10  BAL0_11  1
    I0_11  COST  0.325942471743
    I0_11  BAL0_11  -1
    I1_0  COST  0.697496344336
    I1_0  BAL1_0  -1
    I1_0  BAL1_1  1
    I1_1  COST  0.697496344336
    I1_1  BAL1_1  -1
    I1_1  BAL1_2  1
    I1_2  COST  0.697496344336
    I1_2  BAL1_2  -1
    I1_2  BAL1_3  1
    I1_3  COST  0.697496344336
    I1_3  BAL1_3  -1
    I1_3  BAL1_4  1
    I1_4  COST  0.697496344336
    I1_4  BAL1_4  -1
    I1_4  BAL1_5  1
    I1_5  COST  0.697496344336
    I1_5  BAL1_5  -1
    I1_5  BAL1_6  1
    I1_6  COST  0.697496344336
    I1_6  BAL1_6  -1
    I1_6  BAL1_7  1
    I1_7  COST  0.697496344336
    I1_7  BAL1_7  -1
    I1_7  BAL1_8  1
    I1_8  COST  0.697496344336
    I1_8  BAL1_8  -1
    I1_8  BAL1_9  1
    I1_9  COST  0.697496344336
    I1_9  BAL1_9  -1
    I1_9  BAL1_10  1
    I1_10  COST  0.697496344336
    I1_10  BAL1_10  -1
    I1_10  BAL1_11  1
    I1_11  COST  0.697496344336
    I1_11  BAL1_11  -1
    I2_0  COST  0.383820362982
    I2_0  BAL2_0  -1
    I2_0  BAL2_1  1
    I2_1  COST  0.383820362982
    I2_1  BAL2_1  -1
    I2_1  BAL2_2  1
    I2_2  COST  0.383820362982
    I2_2  BAL2_2  -1
    I2_2  BAL2_3  1
    I2_3  COST  0.383820362982
    I2_3  BAL2_3  -1
    I2_3  BAL2_4  1
    I2_4  COST  0.383820362982
    I2_4  BAL2_4  -1
    I2_4  BAL2_5  1
    I2_5  COST  0.383820362982
    I2_5  BAL2_5  -1
    I2_5  BAL2_6  1
    I2_6  COST  0.383820362982
    I2_6  BAL2_6  -1
    I2_6  BAL2_7  1
    I2_7  COST  0.383820362982
    I2_7  BAL2_7  -1
    I2_7  BAL2_8  1
    I2_8  COST  0.383820362982
    I2_8  BAL2_8  -1
    I2_8  BAL2_9  1
    I2_9  COST  0.383820362982
    I2_9  BAL2_9  -1
    I2_9  BAL2_10  1
    I2_10  COST  0.383820362982
    I2_10  BAL2_10  -1
    I2_10  BAL2_11  1
    I2_11  COST  0.383820362982
    I2_11  BAL2_11  -1
    I3_0  COST  0.177162335727
    I3_0  BAL3_0  -1
    I3_0  BAL3_1  1
    I3_1  COST  0.177162335727
    I3_1  BAL3_1  -1
    I3_1  BAL3_2  1
    I3_2  COST  0.177162335727
    I3_2  BAL3_2  -1
    I3_2  BAL3_3  1
    I3_3  COST  0.177162335727
    I3_3  BAL3_3  -1
    I3_3  BAL3_4  1
    I3_4  COST  0.177162335727
    I3_4  BAL3_4  -1
    I3_4  BAL3_5  1
    I3_5  COST  0.177162335727
    I3_5  BAL3_5  -1
    I3_5  BAL3_6  1
    I3_6  COST  0.177162335727
    I3_6  BAL3_6  -1
    I3_6  BAL3_7  1
    I3_7  COST  0.177162335727
    I3_7  BAL3_7  -1
    I3_7  BAL3_8  1
    I3_8  COST  0.177162335727
    I3_8  BAL3_8  -1
    I3_8  BAL3_9  1
    I3_9  COST  0.177162335727
    I3_9  BAL3_9  -1
    I3_9  BAL3_10  1
    I3_10  COST  0.177162335727
    I3_10  BAL3_10  -1
    I3_10  BAL3_11  1
    I3_11  COST  0.177162335727
    I3_11  BAL3_11  -1
    I4_0  COST  0.478007539672
    I4_0  BAL4_0  -1
    I4_0  BAL4_1  1
    I4_1  COST  0.478007539672
    I4_1  BAL4_1  -1
    I4_1  BAL4_2  1
    I4_2  COST  0.478007539672
    I4_2  BAL4_2  -1
    I4_2  BAL4_3  1
    I4_3  COST  0.478007539672
    I4_3  BAL4_3  -1
    I4_3  BAL4_4  1
    I4_4  COST  0.478007539672
    I4_4  BAL4_4  -1
    I4_4  BAL4_5  1
    I4_5  COST  0.478007539672
    I4_5  BAL4_5  -1
    I4_5  BAL4_6  1
    I4_6  COST  0.478007539672
    I4_6  BAL4_6  -1
    I4_6  BAL4_7  1
    I4_7  COST  0.478007539672
    I4_7  BAL4_7  -1
    I4_7  BAL4_8  1
    I4_8  COST  0.478007539672
    I4_8  BAL4_8  -1
    I4_8  BAL4_9  1
    I4_9  COST  0.478007539672
    I4_9  BAL4_9  -1
    I4_9  BAL4_10  1
    I4_10  COST  0.478007539672
    I4_10  BAL4_10  -1
    I4_10  BAL4_11  1
    I4_11  COST  0.478007539672
    I4_11  BAL4_11  -1
    I5_0  COST  0.611910696064
    I5_0  BAL5_0  -1
    I5_0  BAL5_1  1
    I5_1  COST  0.611910696064
    I5_1  BAL5_1  -1
    I5_1  BAL5_2  1
    I5_2  COST  0.611910696064
    I5_2  BAL5_2  -1
    I5_2  BAL5_3  1
    I5_3  COST  0.611910696064
    I5_3  BAL5_3  -1
    I5_3  BAL5_4  1
    I5_4  COST  0.611910696064
    I5_4  BAL5_4  -1
    I5_4  BAL5_5  1
    I5_5  COST  0.611910696064
    I5_5  BAL5_5  -1
    I5_5  BAL5_6  1
    I5_6  COST  0.611910696064
    I5_6  BAL5_6  -1
    I5_6  BAL5_7  1
    I5_7  COST  0.611910696064
    I5_7  BAL5_7  -1
    I5_7  BAL5_8  1
    I5_8  COST  0.611910696064
    I5_8  BAL5_8  -1
    I5_8  BAL5_9  1
    I5_9  COST  0.611910696064
    I5_9  BAL5_9  -1
    I5_9  BAL5_10  1
    I5_10  COST  0.611910696064
    I5_10  BAL5_10  -1
    I5_10  BAL5_11  1
    I5_11  COST  0.611910696064
    I5_11  BAL5_11  -1
    I6_0  COST  0.52059967469
    I6_0  BAL6_0  -1
    I6_0  BAL6_1  1
    I6_1  COST  0.52059967469
    I6_1  BAL6_1  -1
    I6_1  BAL6_2  1
    I6_2  COST  0.52059967469
    I6_2  BAL6_2  -1
    I6_2  BAL6_3  1
    I6_3  COST  0.52059967469
    I6_3  BAL6_3  -1
    I6_3  BAL6_4  1
    I6_4  COST  0.52059967469
    I6_4  BAL6_4  -1
    I6_4  BAL6_5  1
    I6_5  COST  0.52059967469
    I6_5  BAL6_5  -1
    I6_5  BAL6_6  1
    I6_6  COST  0.52059967469
    I6_6  BAL6_6  -1
    I6_6  BAL6_7  1
    I6_7  COST  0.52059967469
    I6_7  BAL6_7  -1
    I6_7  BAL6_8  1
    I6_8  COST  0.52059967469
    I6_8  BAL6_8  -1
    I6_8  BAL6_9  1
    I6_9  COST  0.52059967469
    I6_9  BAL6_9  -1
    I6_9  BAL6_10  1
    I6_10  COST  0.52059967469
    I6_10  BAL6_10  -1
    I6_10  BAL6_11  1
    I6_11  COST  0.52059967469
    I6_11  BAL6_11  -1
    I7_0  COST  0.381057341056
    I7_0  BAL7_0  -1
    I7_0  BAL7_1  1
    I7_1  COST  0.381057341056
    I7_1  BAL7_1  -1
    I7_1  BAL7_2  1
    I7_2  COST  0.381057341056
    I7_2  BAL7_2  -1
    I7_2  BAL7_3  1
    I7_3  COST  0.381057341056
    I7_3  BAL7_3  -1
    I7_3  BAL7_4  1
    I7_4  COST  0.381057341056
    I7_4  BAL7_4  -1
    I7_4  BAL7_5  1
    I7_5  COST  0.381057341056
    I7_5  BAL7_5  -1
    I7_5  BAL7_6  1
    I7_6  COST  0.381057341056
    I7_6  BAL7_6  -1
    I7_6  BAL7_7  1
    I7_7  COST  0.381057341056
    I7_7  BAL7_7  -1
    I7_7  BAL7_8  1
    I7_8  COST  0.381057341056
    I7_8  BAL7_8  -1
    I7_8  BAL7_9  1
    I7_9  COST  0.381057341056
    I7_9  BAL7_9  -1
    I7_9  BAL7_10  1
    I7_10  COST  0.381057341056
    I7_10  BAL7_10  -1
    I7_10  BAL7_11  1
    I7_11  COST  0.381057341056
    I7_11  BAL7_11  -1
    I8_0  COST  0.340229084632
    I8_0  BAL8_0  -1
    I8_0  BAL8_1  1
    I8_1  COST  0.340229084632
    I8_1  BAL8_1  -1
    I8_1  BAL8_2  1
    I8_2  COST  0.340229084632
    I8_2  BAL8_2  -1
    I8_2  BAL8_3  1
    I8_3  COST  0.340229084632
    I8_3  BAL8_3  -1
    I8_3  BAL8_4  1
    I8_4  COST  0.340229084632
    I8_4  BAL8_4  -1
    I8_4  BAL8_5  1
    I8_5  COST  0.340229084632
    I8_5  BAL8_5  -1
    I8_5  BAL8_6  1
    I8_6  COST  0.340229084632
    I8_6  BAL8_6  -1
    I8_6  BAL8_7  1
    I8_7  COST  0.340229084632
    I8_7  BAL8_7  -1
    I8_7  BAL8_8  1
    I8_8  COST  0.340229084632
    I8_8  BAL8_8  -1
    I8_8  BAL8_9  1
    I8_9  COST  0.340229084632
    I8_9  BAL8_9  -1
    I8_9  BAL8_10  1
    I8_10  COST  0.340229084632
    I8_10  BAL8_10  -1
    I8_10  BAL8_11  1
    I8_11  COST  0.340229084632
    I8_11  BAL8_11  -1
    I9_0  COST  0.893225709693
    I9_0  BAL9_0  -1
    I9_0  BAL9_1  1
    I9_1  COST  0.893225709693
    I9_1  BAL9_1  -1
    I9_1  BAL9_2  1
    I9_2  COST  0.893225709693
    I9_2  BAL9_2  -1
    I9_2  BAL9_3  1
    I9_3  COST  0.893225709693
    I9_3  BAL9_3  -1
    I9_3  BAL9_4  1
    I9_4  COST  0.893225709693
    I9_4  BAL9_4  -1
    I9_4  BAL9_5  1
    I9_5  COST  0.893225709693
    I9_5  BAL9_5  -1
    I9_5  BAL9_6  1
    I9_6  COST  0.893225709693
    I9_6  BAL9_6  -1
    I9_6  BAL9_7  1
    I9_7  COST  0.893225709693
    I9_7  BAL9_7  -1
    I9_7  BAL9_8  1
    I9_8  COST  0.893225709693
    I9_8  BAL9_8  -1
    I9_8  BAL9_9  1
    I9_9  COST  0.893225709693
    I9_9  BAL9_9  -1
    I9_9  BAL9_10  1
    I9_10  COST  0.893225709693
    I9_10  BAL9_10  -1
    I9_10  BAL9_11  1
    I9_11  COST  0.893225709693
    I9_11  BAL9_11  -1
    I10_0  COST  0.319600197285
    I10_0  BAL10_0  -1
    I10_0  BAL10_1  1
    I10_1  COST  0.319600197285
    I10_1  BAL10_1  -1
    I10_1  BAL10_2  1
    I10_2  COST  0.319600197285
    I10_2  BAL10_2  -1
    I10_2  BAL10_3  1
    I10_3  COST  0.319600197285
    I10_3  BAL10_3  -1
    I10_3  BAL10_4  1
    I10_4  COST  0.319600197285
    I10_4  BAL10_4  -1
    I10_4  BAL10_5  1
    I10_5  COST  0.319600197285
    I10_5  BAL10_5  -1
    I10_5  BAL10_6  1
    I10_6  COST  0.319600197285
    I10_6  BAL10_6  -1
    I10_6  BAL10_7  1
    I10_7  COST  0.319600197285
    I10_7  BAL10_7  -1
    I10_7  BAL10_8  1
    I10_8  COST  0.319600197285
    I10_8  BAL10_8  -1
    I10_8  BAL10_9  1
    I10_9  COST  0.319600197285
    I10_9  BAL10_9  -1
    I10_9  BAL10_10  1
    I10_10  COST  0.319600197285
    I10_10  BAL10_10  -1
    I10_10  BAL10_11  1
    I10_11  COST  0.319600197285
    I10_11  BAL10_11  -1
    I11_0  COST  0.563089982879
    I11_0  BAL11_0  -1
    I11_0  BAL11_1  1
    I11_1  COST  0.563089982879
    I11_1  BAL11_1  -1
    I11_1  BAL11_2  1
    I11_2  COST  0.563089982879
    I11_2  BAL11_2  -1
    I11_2  BAL11_3  1
    I11_3  COST  0.563089982879
    I11_3  BAL11_3  -1
    I11_3  BAL11_4  1
    I11_4  COST  0.563089982879
    I11_4  BAL11_4  -1
    I11_4  BAL11_5  1
    I11_5  COST  0.563089982879
    I11_5  BAL11_5  -1
    I11_5  BAL11_6  1
    I11_6  COST  0.563089982879
    I11_6  BAL11_6  -1
    I11_6  BAL11_7  1
    I11_7  COST  0.563089982879
    I11_7  BAL11_7  -1
    I11_7  BAL11_8  1
    I11_8  COST  0.563089982879
    I11_8  BAL11_8  -1
    I11_8  BAL11_9  1
    I11_9  COST  0.563089982879
    I11_9  BAL11_9  -1
    I11_9  BAL11_10  1
    I11_10  COST  0.563089982879
    I11_10  BAL11_10  -1
    I11_10  BAL11_11  1
    I11_11  COST  0.563089982879
    I11_11  BAL11_11  -1
    B0_0  COST  59.5065158354
    B0_0  BAL0_0  1
    B0_1  COST  59.5065158354
    B0_1  BAL0_1  1
    B0_2  COST  59.5065158354
    B0_2  BAL0_2  1
    B0_3  COST  59.5065158354
    B0_3  BAL0_3  1
    B0_4  COST  59.5065158354
    B0_4  BAL0_4  1
    B0_5  COST  59.5065158354
    B0_5  BAL0_5  1
    B0_6  COST  59.5065158354
    B0_6  BAL0_6  1
    B0_7  COST  59.5065158354
    B0_7  BAL0_7  1
    B0_8  COST  59.5065158354
    B0_8  BAL0_8  1
    B0_9  COST  59.5065158354
    B0_9  BAL0_9  1
    B0_10  COST  59.5065158354
    B0_10  BAL0_10  1
    B0_11  COST  59.5065158354
    B0_11  BAL0_11  1
    B1_0  COST  63.7659421095
    B1_0  BAL1_0  1
    B1_1  COST  63.7659421095
    B1_1  BAL1_1  1
    B1_2  COST  63.7659421095
    B1_2  BAL1_2  1
    B1_3  COST  63.7659421095
    B1_3  BAL1_3  1
    B1_4  COST  63.7659421095
    B1_4  BAL1_4  1
    B1_5  COST  63.7659421095
    B1_5  BAL1_5  1
    B1_6  COST  63.7659421095
    B1_6  BAL1_6  1
    B1_7  COST  63.7659421095
    B1_7  BAL1_7  1
    B1_8  COST  63.7659421095
    B1_8  BAL1_8  1
    B1_9  COST  63.7659421095
    B1_9  BAL1_9  1
    B1_10  COST  63.7659421095
    B1_10  BAL1_10  1
    B1_11  COST  63.7659421095
    B1_11  BAL1_11  1
    B2_0  COST  77.6680636462
    B2_0  BAL2_0  1
    B2_1  COST  77.6680636462
    B2_1  BAL2_1  1
    B2_2  COST  77.6680636462
    B2_2  BAL2_2  1
    B2_3  COST  77.6680636462
    B2_3  BAL2_3  1
    B2_4  COST  77.6680636462
    B2_4  BAL2_4  1
    B2_5  COST  77.6680636462
    B2_5  BAL2_5  1
    B2_6  COST  77.6680636462
    B2_6  BAL2_6  1
    B2_7  COST  77.6680636462
    B2_7  BAL2_7  1
    B2_8  COST  77.6680636462
    B2_8  BAL2_8  1
    B2_9  COST  77.6680636462
    B2_9  BAL2_9  1
    B2_10  COST  77.6680636462
    B2_10  BAL2_10  1
    B2_11  COST  77.6680636462
    B2_11  BAL2_11  1
    S0_0  COST  -179.02822623
    S0_0  BAL8_0  -1
    S0_0  DEM0_0  1
    H0_0  COST  537.084678691
    H0_0  DEM0_0  1
    S0_1  COST  -179.02822623
    S0_1  BAL8_1  -1
    S0_1  DEM0_1  1
    H0_1  COST  537.084678691
    H0_1  DEM0_1  1
    S0_2  COST  -179.02822623
    S0_2  BAL8_2  -1
    S0_2  DEM0_2  1
    H0_2  COST  537.084678691
    H0_2  DEM0_2  1
    S0_3  COST  -179.02822623
    S0_3  BAL8_3  -1
    S0_3  DEM0_3  1
    H0_3  COST  537.084678691
    H0_3  DEM0_3  1
    S0_4  COST  -179.02822623
    S0_4  BAL8_4  -1
    S0_4  DEM0_4  1
    H0_4  COST  537.084678691
    H0_4  DEM0_4  1
    S0_5  COST  -179.02822623
    S0_5  BAL8_5  -1
    S0_5  DEM0_5  1
    H0_5  COST  537.084678691
    H0_5  DEM0_5  1
    S0_6  COST  -179.02822623
    S0_6  BAL8_6  -1
    S0_6  DEM0_6  1
    H0_6  COST  537.084678691
    H0_6  DEM0_6  1
    S0_7  COST  -179.02822623
    S0_7  BAL8_7  -1
    S0_7  DEM0_7  1
    H0_7  COST  537.084678691
    H0_7  DEM0_7  1
    S0_8  COST  -179.02822623
    S0_8  BAL8_8  -1
    S0_8  DEM0_8  1
    H0_8  COST  537.084678691
    H0_8  DEM0_8  1
    S0_9  COST  -179.02822623
    S0_9  BAL8_9  -1
    S0_9  DEM0_9  1
    H0_9  COST  537.084678691
    H0_9  DEM0_9  1
    S0_10  COST  -179.02822623
    S0_10  BAL8_10  -1
    S0_10  DEM0_10  1
    H0_10  COST  537.084678691
    H0_10  DEM0_10  1
    S0_11  COST  -179.02822623
    S0_11  BAL8_11  -1
    S0_11  DEM0_11  1
    H0_11  COST  537.084678691
    H0_11  DEM0_11  1
    S1_0  COST  -119.860514074
    S1_0  BAL9_0  -1
    S1_0  DEM1_0  1
    H1_0  COST  537.084678691
    H1_0  DEM1_0  1
    S1_1  COST  -119.860514074
    S1_1  BAL9_1  -1
    S1_1  DEM1_1  1
    H1_1  COST  537.084678691
    H1_1  DEM1_1  1
    S1_2  COST  -119.860514074
    S1_2  BAL9_2  -1
    S1_2  DEM1_2  1
    H1_2  COST  537.084678691
    H1_2  DEM1_2  1
    S1_3  COST  -119.860514074
    S1_3  BAL9_3  -1
    S1_3  DEM1_3  1
    H1_3  COST  537.084678691
    H1_3  DEM1_3  1
    S1_4  COST  -119.860514074
    S1_4  BAL9_4  -1
    S1_4  DEM1_4  1
    H1_4  COST  537.084678691
    H1_4  DEM1_4  1
    S1_5  COST  -119.860514074
    S1_5  BAL9_5  -1
    S1_5  DEM1_5  1
    H1_5  COST  537.084678691
    H1_5  DEM1_5  1
    S1_6  COST  -119.860514074
    S1_6  BAL9_6  -1
    S1_6  DEM1_6  1
    H1_6  COST  537.084678691
    H1_6  DEM1_6  1
    S1_7  COST  -119.860514074
    S1_7  BAL9_7  -1
    S1_7  DEM1_7  1
    H1_7  COST  537.084678691
    H1_7  DEM1_7  1
    S1_8  COST  -119.860514074
    S1_8  BAL9_8  -1
    S1_8  DEM1_8  1
    H1_8  COST  537.084678691
    H1_8  DEM1_8  1
    S1_9  COST  -119.860514074
    S1_9  BAL9_9  -1
    S1_9  DEM1_9  1
    H1_9  COST  537.084678691
    H1_9  DEM1_9  1
    S1_10  COST  -119.860514074
    S1_10  BAL9_10  -1
    S1_10  DEM1_10  1
    H1_10  COST  537.084678691
    H1_10  DEM1_10  1
    S1_11  COST  -119.860514074
    S1_11  BAL9_11  -1
    S1_11  DEM1_11  1
    H1_11  COST  537.084678691
    H1_11  DEM1_11  1
    S2_0  COST  -133.87886595
    S2_0  BAL10_0  -1
    S2_0  DEM2_0  1
    H2_0  COST  537.084678691
    H2_0  DEM2_0  1
    S2_1  COST  -133.87886595
    S2_1  BAL10_1  -1
    S2_1  DEM2_1  1
    H2_1  COST  537.084678691
    H2_1  DEM2_1  1
    S2_2  COST  -133.87886595
    S2_2  BAL10_2  -1
    S2_2  DEM2_2  1
    H2_2  COST  537.084678691
    H2_2  DEM2_2  1
    S2_3  COST  -133.87886595
    S2_3  BAL10_3  -1
    S2_3  DEM2_3  1
    H2_3  COST  537.084678691
    H2_3  DEM2_3  1
    S2_4  COST  -133.87886595
    S2_4  BAL10_4  -1
    S2_4  DEM2_4  1
    H2_4  COST  537.084678691
    H2_4  DEM2_4  1
    S2_5  COST  -133.87886595
    S2_5  BAL10_5  -1
    S2_5  DEM2_5  1
    H2_5  COST  537.084678691
    H2_5  DEM2_5  1
    S2_6  COST  -133.87886595
    S2_6  BAL10_6  -1
    S2_6  DEM2_6  1
    H2_6  COST  537.084678691
    H2_6  DEM2_6  1
    S2_7  COST  -133.87886595
    S2_7  BAL10_7  -1
    S2_7  DEM2_7  1
    H2_7  COST  537.084678691
    H2_7  DEM2_7  1
    S2_8  COST  -133.87886595
    S2_8  BAL10_8  -1
    S2_8  DEM2_8  1
    H2_8  COST  537.084678691
    H2_8  DEM2_8  1
    S2_9  COST  -133.87886595
    S2_9  BAL10_9  -1
    S2_9  DEM2_9  1
    H2_9  COST  537.084678691
    H2_9  DEM2_9  1
    S2_10  COST  -133.87886595
    S2_10  BAL10_10  -1
    S2_10  DEM2_10  1
    H2_10  COST  537.084678691
    H2_10  DEM2_10  1
    S2_11  COST  -133.87886595
    S2_11  BAL10_11  -1
    S2_11  DEM2_11  1
    H2_11  COST  537.084678691
    H2_11  DEM2_11  1
    S3_0  COST  -139.885110195
    S3_0  BAL11_0  -1
    S3_0  DEM3_0  1
    H3_0  COST  537.084678691
    H3_0  DEM3_0  1
    S3_1  COST  -139.885110195
    S3_1  BAL11_1  -1
    S3_1  DEM3_1  1
    H3_1  COST  537.084678691
    H3_1  DEM3_1  1
    S3_2  COST  -139.885110195
    S3_2  BAL11_2  -1
    S3_2  DEM3_2  1
    H3_2  COST  537.084678691
    H3_2  DEM3_2  1
    S3_3  COST  -139.885110195
    S3_3  BAL11_3  -1
    S3_3  DEM3_3  1
    H3_3  COST  537.084678691
    H3_3  DEM3_3  1
    S3_4  COST  -139.885110195
    S3_4  BAL11_4  -1
    S3_4  DEM3_4  1
    H3_4  COST  537.084678691
    H3_4  DEM3_4  1
    S3_5  COST  -139.885110195
    S3_5  BAL11_5  -1
    S3_5  DEM3_5  1
    H3_5  COST  537.084678691
    H3_5  DEM3_5  1
    S3_6  COST  -139.885110195
    S3_6  BAL11_6  -1
    S3_6  DEM3_6  1
    H3_6  COST  537.084678691
    H3_6  DEM3_6  1
    S3_7  COST  -139.885110195
    S3_7  BAL11_7  -1
    S3_7  DEM3_7  1
    H3_7  COST  537.084678691
    H3_7  DEM3_7  1
    S3_8  COST  -139.885110195
    S3_8  BAL11_8  -1
    S3_8  DEM3_8  1
    H3_8  COST  537.084678691
    H3_8  DEM3_8  1
    S3_9  COST  -139.885110195
    S3_9  BAL11_9  -1
    S3_9  DEM3_9  1
    H3_9  COST  537.084678691
    H3_9  DEM3_9  1
    S3_10  COST  -139.885110195
    S3_10  BAL11_10  -1
    S3_10  DEM3_10  1
    H3_10  COST  537.084678691
    H3_10  DEM3_10  1
    S3_11  COST  -139.885110195
    S3_11  BAL11_11  -1
    S3_11  DEM3_11  1
    H3_11  COST  537.084678691
    H3_11  DEM3_11  1
RHS
    RHS  ASG0_0  1
    RHS  ASG0_1  1
    RHS  ASG0_2  1
    RHS  ASG0_3  1
    RHS  ASG0_4  1
    RHS  ASG0_5  1
    RHS  ASG0_6  1
    RHS  ASG0_7  1
    RHS  ASG0_8  1
    RHS  ASG0_9  1
    RHS  ASG0_10  1
    RHS  ASG0_11  1
    RHS  ASG1_0  1
    RHS  ASG1_1  1
    RHS  ASG1_2  1
    RHS  ASG1_3  1
    RHS  ASG1_4  1
    RHS  ASG1_5  1
    RHS  ASG1_6  1
    RHS  ASG1_7  1
    RHS  ASG1_8  1
    RHS  ASG1_9  1
    RHS  ASG1_10  1
    RHS  ASG1_11  1
    RHS  ASG2_0  1
    RHS  ASG2_1  1
    RHS  ASG2_2  1
    RHS  ASG2_3  1
    RHS  ASG2_4  1
    RHS  ASG2_5  1
    RHS  ASG2_6  1
    RHS  ASG2_7  1
    RHS  ASG2_8  1
    RHS  ASG2_9  1
    RHS  ASG2_10  1
    RHS  ASG2_11  1
    RHS  ASG3_0  1
    RHS  ASG3_1  1
    RHS  ASG3_2  1
    RHS  ASG3_3  1
    RHS  ASG3_4  1
    RHS  ASG3_5  1
    RHS  ASG3_6  1
    RHS  ASG3_7  1
    RHS  ASG3_8  1
    RHS  ASG3_9  1
    RHS  ASG3_10  1
    RHS  ASG3_11  1
    RHS  ASG4_0  1
    RHS  ASG4_1  1
    RHS  ASG4_2  1
    RHS  ASG4_3  1
    RHS  ASG4_4  1
    RHS  ASG4_5  1
    RHS  ASG4_6  1
    RHS  ASG4_7  1
    RHS  ASG4_8  1
    RHS  ASG4_9  1
    RHS  ASG4_10  1
    RHS  ASG4_11  1
    RHS  ASG5_0  1
    RHS  ASG5_1  1
    RHS  ASG5_2  1
    RHS  ASG5_3  1
    RHS  ASG5_4  1
    RHS  ASG5_5  1
    RHS  ASG5_6  1
    RHS  ASG5_7  1
    RHS  ASG5_8  1
    RHS  ASG5_9  1
    RHS  ASG5_10  1
    RHS  ASG5_11  1
    RHS  UB0_0_0  0
    RHS  UB0_0_1  0
    RHS  UB0_0_2  0
    RHS  UB0_0_3  0
    RHS  UB0_0_4  0
    RHS  UB0_0_5  0
    RHS  UB0_0_6  0
    RHS  UB0_0_7  0
    RHS  UB0_0_8  0
    RHS  UB0_0_9  0
    RHS  UB0_0_10  0
    RHS  UB0_0_11  0
    RHS  UB0_1_0  0
    RHS  LB0_1_0  0
    RHS  UB0_1_1  0
    RHS  LB0_1_1  0
    RHS  UB0_1_2  0
    RHS  LB0_1_2  0
    RHS  UB0_1_3  0
    RHS  LB0_1_3  0
    RHS  UB0_1_4  0
    RHS  LB0_1_4  0
    RHS  UB0_1_5  0
    RHS  LB0_1_5  0
    RHS  UB0_1_6  0
    RHS  LB0_1_6  0
    RHS  UB0_1_7  0
    RHS  LB0_1_7  0
    RHS  UB0_1_8  0
    RHS  LB0_1_8  0
    RHS  UB0_1_9  0
    RHS  LB0_1_9  0
    RHS  UB0_1_10  0
    RHS  LB0_1_10  0
    RHS  UB0_1_11  0
    RHS  LB0_1_11  0
    RHS  UB0_2_0  0
    RHS  LB0_2_0  0
    RHS  UB0_2_1  0
    RHS  LB0_2_1  0
    RHS  UB0_2_2  0
    RHS  LB0_2_2  0
    RHS  UB0_2_3  0
    RHS  LB0_2_3  0
    RHS  UB0_2_4  0
    RHS  LB0_2_4  0
    RHS  UB0_2_5  0
    RHS  LB0_2_5  0
    RHS  UB0_2_6  0
    RHS  LB0_2_6  0
    RHS  UB0_2_7  0
    RHS  LB0_2_7  0
    RHS  UB0_2_8  0
    RHS  LB0_2_8  0
    RHS  UB0_2_9  0
    RHS  LB0_2_9  0
    RHS  UB0_2_10  0
    RHS  LB0_2_10  0
    RHS  UB0_2_11  0
    RHS  LB0_2_11  0
    RHS  UB1_0_0  0
    RHS  UB1_0_1  0
    RHS  UB1_0_2  0
    RHS  UB1_0_3  0
    RHS  UB1_0_4  0
    RHS  UB1_0_5  0
    RHS  UB1_0_6  0
    RHS  UB1_0_7  0
    RHS  UB1_0_8  0
    RHS  UB1_0_9  0
    RHS  UB1_0_10  0
    RHS  UB1_0_11  0
    RHS  UB1_1_0  0
    RHS  LB1_1_0  0
    RHS  UB1_1_1  0
    RHS  LB1_1_1  0
    RHS  UB1_1_2  0
    RHS  LB1_1_2  0
    RHS  UB1_1_3  0
    RHS  LB1_1_3  0
    RHS  UB1_1_4  0
    RHS  LB1_1_4  0
    RHS  UB1_1_5  0
    RHS  LB1_1_5  0
    RHS  UB1_1_6  0
    RHS  LB1_1_6  0
    RHS  UB1_1_7  0
    RHS  LB1_1_7  0
    RHS  UB1_1_8  0
    RHS  LB1_1_8  0
    RHS  UB1_1_9  0
    RHS  LB1_1_9  0
    RHS  UB1_1_10  0
    RHS  LB1_1_10  0
    RHS  UB1_1_11  0
    RHS  LB1_1_11  0
    RHS  UB1_2_0  0
    RHS  LB1_2_0  0
    RHS  UB1_2_1  0
    RHS  LB1_2_1  0
    RHS  UB1_2_2  0
    RHS  LB1_2_2  0
    RHS  UB1_2_3  0
    RHS  LB1_2_3  0
    RHS  UB1_2_4  0
    RHS  LB1_2_4  0
    RHS  UB1_2_5  0
    RHS  LB1_2_5  0
    RHS  UB1_2_6  0
    RHS  LB1_2_6  0
    RHS  UB1_2_7  0
    RHS  LB1_2_7  0
    RHS  UB1_2_8  0
    RHS  LB1_2_8  0
    RHS  UB1_2_9  0
    RHS  LB1_2_9  0
    RHS  UB1_2_10  0
    RHS  LB1_2_10  0
    RHS  UB1_2_11  0
    RHS  LB1_2_11  0
    RHS  UB2_0_0  0
    RHS  UB2_0_1  0
    RHS  UB2_0_2  0
    RHS  UB2_0_3  0
    RHS  UB2_0_4  0
    RHS  UB2_0_5  0
    RHS  UB2_0_6  0
    RHS  UB2_0_7  0
    RHS  UB2_0_8  0
    RHS  UB2_0_9  0
    RHS  UB2_0_10  0
    RHS  UB2_0_11  0
    RHS  UB2_1_0  0
    RHS  LB2_1_0  0
    RHS  UB2_1_1  0
    RHS  LB2_1_1  0
    RHS  UB2_1_2  0
    RHS  LB2_1_2  0
    RHS  UB2_1_3  0
    RHS  LB2_1_3  0
    RHS  UB2_1_4  0
    RHS  LB2_1_4  0
    RHS  UB2_1_5  0
    RHS  LB2_1_5  0
    RHS  UB2_1_6  0
    RHS  LB2_1_6  0
    RHS  UB2_1_7  0
    RHS  LB2_1_7  0
    RHS  UB2_1_8  0
    RHS  LB2_1_8  0
    RHS  UB2_1_9  0
    RHS  LB2_1_9  0
    RHS  UB2_1_10  0
    RHS  LB2_1_10  0
    RHS  UB2_1_11  0
    RHS  LB2_1_11  0
    RHS  UB2_2_0  0
    RHS  LB2_2_0  0
    RHS  UB2_2_1  0
    RHS  LB2_2_1  0
    RHS  UB2_2_2  0
    RHS  LB2_2_2  0
    RHS  UB2_2_3  0
    RHS  LB2_2_3  0
    RHS  UB2_2_4  0
    RHS  LB2_2_4  0
    RHS  UB2_2_5  0
    RHS  LB2_2_5  0
    RHS  UB2_2_6  0
    RHS  LB2_2_6  0
    RHS  UB2_2_7  0
    RHS  LB2_2_7  0
    RHS  UB2_2_8  0
    RHS  LB2_2_8  0
    RHS  UB2_2_9  0
    RHS  LB2_2_9  0
    RHS  UB2_2_10  0
    RHS  LB2_2_10  0
    RHS  UB2_2_11  0
    RHS  LB2_2_11  0
    RHS  UB3_0_0  0
    RHS  UB3_0_1  0
    RHS  UB3_0_2  0
    RHS  UB3_0_3  0
    RHS  UB3_0_4  0
    RHS  UB3_0_5  0
    RHS  UB3_0_6  0
    RHS  UB3_0_7  0
    RHS  UB3_0_8  0
    RHS  UB3_0_9  0
    RHS  UB3_0_10  0
    RHS  UB3_0_11  0
    RHS  UB3_1_0  0
    RHS  LB3_1_0  0
    RHS  UB3_1_1  0
    RHS  LB3_1_1  0
    RHS  UB3_1_2  0
    RHS  LB3_1_2  0
    RHS  UB3_1_3  0
    RHS  LB3_1_3  0
    RHS  UB3_1_4  0
    RHS  LB3_1_4  0
    RHS  UB3_1_5  0
    RHS  LB3_1_5  0
    RHS  UB3_1_6  0
    RHS  LB3_1_6  0
    RHS  UB3_1_7  0
    RHS  LB3_1_7  0
    RHS  UB3_1_8  0
    RHS  LB3_1_8  0
    RHS  UB3_1_9  0
    RHS  LB3_1_9  0
    RHS  UB3_1_10  0
    RHS  LB3_1_10  0
    RHS  UB3_1_11  0
    RHS  LB3_1_11  0
    RHS  UB3_2_0  0
    RHS  LB3_2_0  0
    RHS  UB3_2_1  0
    RHS  LB3_2_1  0
    RHS  UB3_2_2  0
    RHS  LB3_2_2  0
    RHS  UB3_2_3  0
    RHS  LB3_2_3  0
    RHS  UB3_2_4  0
    RHS  LB3_2_4  0
    RHS  UB3_2_5  0
    RHS  LB3_2_5  0
    RHS  UB3_2_6  0
    RHS  LB3_2_6  0
    RHS  UB3_2_7  0
    RHS  LB3_2_7  0
    RHS  UB3_2_8  0
    RHS  LB3_2_8  0
    RHS  UB3_2_9  0
    RHS  LB3_2_9  0
    RHS  UB3_2_10  0
    RHS  LB3_2_10  0
    RHS  UB3_2_11  0
    RHS  LB3_2_11  0
    RHS  UB4_0_0  0
    RHS  UB4_0_1  0
    RHS  UB4_0_2  0
    RHS  UB4_0_3  0
    RHS  UB4_0_4  0
    RHS  UB4_0_5  0
    RHS  UB4_0_6  0
    RHS  UB4_0_7  0
    RHS  UB4_0_8  0
    RHS  UB4_0_9  0
    RHS  UB4_0_10  0
    RHS  UB4_0_11  0
    RHS  UB4_1_0  0
    RHS  LB4_1_0  0
    RHS  UB4_1_1  0
    RHS  LB4_1_1  0
    RHS  UB4_1_2  0
    RHS  LB4_1_2  0
    RHS  UB4_1_3  0
    RHS  LB4_1_3  0
    RHS  UB4_1_4  0
    RHS  LB4_1_4  0
    RHS  UB4_1_5  0
    RHS  LB4_1_5  0
    RHS  UB4_1_6  0
    RHS  LB4_1_6  0
    RHS  UB4_1_7  0
    RHS  LB4_1_7  0
    RHS  UB4_1_8  0
    RHS  LB4_1_8  0
    RHS  UB4_1_9  0
    RHS  LB4_1_9  0
    RHS  UB4_1_10  0
    RHS  LB4_1_10  0
    RHS  UB4_1_11  0
    RHS  LB4_1_11  0
    RHS  UB4_2_0  0
    RHS  LB4_2_0  0
    RHS  UB4_2_1  0
    RHS  LB4_2_1  0
    RHS  UB4_2_2  0
    RHS  LB4_2_2  0
    RHS  UB4_2_3  0
    RHS  LB4_2_3  0
    RHS  UB4_2_4  0
    RHS  LB4_2_4  0
    RHS  UB4_2_5  0
    RHS  LB4_2_5  0
    RHS  UB4_2_6  0
    RHS  LB4_2_6  0
    RHS  UB4_2_7  0
    RHS  LB4_2_7  0
    RHS  UB4_2_8  0
    RHS  LB4_2_8  0
    RHS  UB4_2_9  0
    RHS  LB4_2_9  0
    RHS  UB4_2_10  0
    RHS  LB4_2_10  0
    RHS  UB4_2_11  0
    RHS  LB4_2_11  0
    RHS  UB5_0_0  0
    RHS  UB5_0_1  0
    RHS  UB5_0_2  0
    RHS  UB5_0_3  0
    RHS  UB5_0_4  0
    RHS  UB5_0_5  0
    RHS  UB5_0_6  0
    RHS  UB5_0_7  0
    RHS  UB5_0_8  0
    RHS  UB5_0_9  0
    RHS  UB5_0_10  0
    RHS  UB5_0_11  0
    RHS  UB5_1_0  0
    RHS  LB5_1_0  0
    RHS  UB5_1_1  0
    RHS  LB5_1_1  0
    RHS  UB5_1_2  0
    RHS  LB5_1_2  0
    RHS  UB5_1_3  0
    RHS  LB5_1_3  0
    RHS  UB5_1_4  0
    RHS  LB5_1_4  0
    RHS  UB5_1_5  0
    RHS  LB5_1_5  0
    RHS  UB5_1_6  0
    RHS  LB5_1_6  0
    RHS  UB5_1_7  0
    RHS  LB5_1_7  0
    RHS  UB5_1_8  0
    RHS  LB5_1_8  0
    RHS  UB5_1_9  0
    RHS  LB5_1_9  0
    RHS  UB5_1_10  0
    RHS  LB5_1_10  0
    RHS  UB5_1_11  0
    RHS  LB5_1_11  0
    RHS  UB5_2_0  0
    RHS  LB5_2_0  0
    RHS  UB5_2_1  0
    RHS  LB5_2_1  0
    RHS  UB5_2_2  0
    RHS  LB5_2_2  0
    RHS  UB5_2_3  0
    RHS  LB5_2_3  0
    RHS  UB5_2_4  0
    RHS  LB5_2_4  0
    RHS  UB5_2_5  0
    RHS  LB5_2_5  0
    RHS  UB5_2_6  0
    RHS  LB5_2_6  0
    RHS  UB5_2_7  0
    RHS  LB5_2_7  0
    RHS  UB5_2_8  0
    RHS  LB5_2_8  0
    RHS  UB5_2_9  0
    RHS  LB5_2_9  0
    RHS  UB5_2_10  0
    RHS  LB5_2_10  0
    RHS  UB5_2_11  0
    RHS  LB5_2_11  0
    RHS  CH0_0_0  1
    RHS  CH0_0_1  0
    RHS  CH0_0_2  0
    RHS  CH0_0_3  0
    RHS  CH0_0_4  0
    RHS  CH0_0_5  0
    RHS  CH0_0_6  0
    RHS  CH0_0_7  0
    RHS  CH0_0_8  0
    RHS  CH0_0_9  0
    RHS  CH0_0_10  0
    RHS  CH0_0_11  0
    RHS  CH0_1_0  0
    RHS  CH0_1_1  0
    RHS  CH0_1_2  0
    RHS  CH0_1_3  0
    RHS  CH0_1_4  0
    RHS  CH0_1_5  0
    RHS  CH0_1_6  0
    RHS  CH0_1_7  0
    RHS  CH0_1_8  0
    RHS  CH0_1_9  0
    RHS  CH0_1_10  0
    RHS  CH0_1_11  0
    RHS  CH0_2_0  0
    RHS  CH0_2_1  0
    RHS  CH0_2_2  0
    RHS  CH0_2_3  0
    RHS  CH0_2_4  0
    RHS  CH0_2_5  0
    RHS  CH0_2_6  0
    RHS  CH0_2_7  0
    RHS  CH0_2_8  0
    RHS  CH0_2_9  0
    RHS  CH0_2_10  0
    RHS  CH0_2_11  0
    RHS  CH1_0_0  1
    RHS  CH1_0_1  0
    RHS  CH1_0_2  0
    RHS  CH1_0_3  0
    RHS  CH1_0_4  0
    RHS  CH1_0_5  0
    RHS  CH1_0_6  0
    RHS  CH1_0_7  0
    RHS  CH1_0_8  0
    RHS  CH1_0_9  0
    RHS  CH1_0_10  0
    RHS  CH1_0_11  0
    RHS  CH1_1_0  0
    RHS  CH1_1_1  0
    RHS  CH1_1_2  0
    RHS  CH1_1_3  0
    RHS  CH1_1_4  0
    RHS  CH1_1_5  0
    RHS  CH1_1_6  0
    RHS  CH1_1_7  0
    RHS  CH1_1_8  0
    RHS  CH1_1_9  0
    RHS  CH1_1_10  0
    RHS  CH1_1_11  0
    RHS  CH1_2_0  0
    RHS  CH1_2_1  0
    RHS  CH1_2_2  0
    RHS  CH1_2_3  0
    RHS  CH1_2_4  0
    RHS  CH1_2_5  0
    RHS  CH1_2_6  0
    RHS  CH1_2_7  0
    RHS  CH1_2_8  0
    RHS  CH1_2_9  0
    RHS  CH1_2_10  0
    RHS  CH1_2_11  0
    RHS  CH2_0_0  1
    RHS  CH2_0_1  0
    RHS  CH2_0_2  0
    RHS  CH2_0_3  0
    RHS  CH2_0_4  0
    RHS  CH2_0_5  0
    RHS  CH2_0_6  0
    RHS  CH2_0_7  0
    RHS  CH2_0_8  0
    RHS  CH2_0_9  0
    RHS  CH2_0_10  0
    RHS  CH2_0_11  0
    RHS  CH2_1_0  0
    RHS  CH2_1_1  0
    RHS  CH2_1_2  0
    RHS  CH2_1_3  0
    RHS  CH2_1_4  0
    RHS  CH2_1_5  0
    RHS  CH2_1_6  0
    RHS  CH2_1_7  0
    RHS  CH2_1_8  0
    RHS  CH2_1_9  0
    RHS  CH2_1_10  0
    RHS  CH2_1_11  0
    RHS  CH2_2_0  0
    RHS  CH2_2_1  0
    RHS  CH2_2_2  0
    RHS  CH2_2_3  0
    RHS  CH2_2_4  0
    RHS  CH2_2_5  0
    RHS  CH2_2_6  0
    RHS  CH2_2_7  0
    RHS  CH2_2_8  0
    RHS  CH2_2_9  0
    RHS  CH2_2_10  0
    RHS  CH2_2_11  0
    RHS  CH3_0_0  1
    RHS  CH3_0_1  0
    RHS  CH3_0_2  0
    RHS  CH3_0_3  0
    RHS  CH3_0_4  0
    RHS  CH3_0_5  0
    RHS  CH3_0_6  0
    RHS  CH3_0_7  0
    RHS  CH3_0_8  0
    RHS  CH3_0_9  0
    RHS  CH3_0_10  0
    RHS  CH3_0_11  0
    RHS  CH3_1_0  0
    RHS  CH3_1_1  0
    RHS  CH3_1_2  0
    RHS  CH3_1_3  0
    RHS  CH3_1_4  0
    RHS  CH3_1_5  0
    RHS  CH3_1_6  0
    RHS  CH3_1_7  0
    RHS  CH3_1_8  0
    RHS  CH3_1_9  0
    RHS  CH3_1_10  0
    RHS  CH3_1_11  0
    RHS  CH3_2_0  0
    RHS  CH3_2_1  0
    RHS  CH3_2_2  0
    RHS  CH3_2_3  0
    RHS  CH3_2_4  0
    RHS  CH3_2_5  0
    RHS  CH3_2_6  0
    RHS  CH3_2_7  0
    RHS  CH3_2_8  0
    RHS  CH3_2_9  0
    RHS  CH3_2_10  0
    RHS  CH3_2_11  0
    RHS  CH4_0_0  1
    RHS  CH4_0_1  0
    RHS  CH4_0_2  0
    RHS  CH4_0_3  0
    RHS  CH4_0_4  0
    RHS  CH4_0_5  0
    RHS  CH4_0_6  0
    RHS  CH4_0_7  0
    RHS  CH4_0_8  0
    RHS  CH4_0_9  0
    RHS  CH4_0_10  0
    RHS  CH4_0_11  0
    RHS  CH4_1_0  0
    RHS  CH4_1_1  0
    RHS  CH4_1_2  0
    RHS  CH4_1_3  0
    RHS  CH4_1_4  0
    RHS  CH4_1_5  0
    RHS  CH4_1_6  0
    RHS  CH4_1_7  0
    RHS  CH4_1_8  0
    RHS  CH4_1_9  0
    RHS  CH4_1_10  0
    RHS  CH4_1_11  0
    RHS  CH4_2_0  0
    RHS  CH4_2_1  0
    RHS  CH4_2_2  0
    RHS  CH4_2_3  0
    RHS  CH4_2_4  0
    RHS  CH4_2_5  0
    RHS  CH4_2_6  0
    RHS  CH4_2_7  0
    RHS  CH4_2_8  0
    RHS  CH4_2_9  0
    RHS  CH4_2_10  0
    RHS  CH4_2_11  0
    RHS  CH5_0_0  1
    RHS  CH5_0_1  0
    RHS  CH5_0_2  0
    RHS  CH5_0_3  0
    RHS  CH5_0_4  0
    RHS  CH5_0_5  0
    RHS  CH5_0_6  0
    RHS  CH5_0_7  0
    RHS  CH5_0_8  0
    RHS  CH5_0_9  0
    RHS  CH5_0_10  0
    RHS  CH5_0_11  0
    RHS  CH5_1_0  0
    RHS  CH5_1_1  0
    RHS  CH5_1_2  0
    RHS  CH5_1_3  0
    RHS  CH5_1_4  0
    RHS  CH5_1_5  0
    RHS  CH5_1_6  0
    RHS  CH5_1_7  0
    RHS  CH5_1_8  0
    RHS  CH5_1_9  0
    RHS  CH5_1_10  0
    RHS  CH5_1_11  0
    RHS  CH5_2_0  0
    RHS  CH5_2_1  0
    RHS  CH5_2_2  0
    RHS  CH5_2_3  0
    RHS  CH5_2_4  0
    RHS  CH5_2_5  0
    RHS  CH5_2_6  0
    RHS  CH5_2_7  0
    RHS  CH5_2_8  0
    RHS  CH5_2_9  0
    RHS  CH5_2_10  0
    RHS  CH5_2_11  0
    RHS  MR0_1_0  0
    RHS  MR0_1_1  0
    RHS  MR0_1_2  0
    RHS  MR0_1_3  0
    RHS  MR0_1_4  0
    RHS  MR0_1_5  0
    RHS  MR0_1_6  0
    RHS  MR0_1_7  0
    RHS  MR0_1_8  0
    RHS  MR0_1_9  0
    RHS  MR0_1_10  0
    RHS  MR0_2_0  0
    RHS  MR0_2_1  0
    RHS  MR0_2_2  0
    RHS  MR0_2_3  0
    RHS  MR0_2_4  0
    RHS  MR0_2_5  0
    RHS  MR0_2_6  0
    RHS  MR0_2_7  0
    RHS  MR0_2_8  0
    RHS  MR0_2_9  0
    RHS  MR0_2_10  0
    RHS  MR1_1_0  0
    RHS  MR1_1_1  0
    RHS  MR1_1_2  0
    RHS  MR1_1_3  0
    RHS  MR1_1_4  0
    RHS  MR1_1_5  0
    RHS  MR1_1_6  0
    RHS  MR1_1_7  0
    RHS  MR1_1_8  0
    RHS  MR1_1_9  0
    RHS  MR1_1_10  0
    RHS  MR1_2_0  0
    RHS  MR1_2_1  0
    RHS  MR1_2_2  0
    RHS  MR1_2_3  0
    RHS  MR1_2_4  0
    RHS  MR1_2_5  0
    RHS  MR1_2_6  0
    RHS  MR1_2_7  0
    RHS  MR1_2_8  0
    RHS  MR1_2_9  0
    RHS  MR1_2_10  0
    RHS  MR2_1_0  0
    RHS  MR2_1_1  0
    RHS  MR2_1_2  0
    RHS  MR2_1_3  0
    RHS  MR2_1_4  0
    RHS  MR2_1_5  0
    RHS  MR2_1_6  0
    RHS  MR2_1_7  0
    RHS  MR2_1_8  0
    RHS  MR2_1_9  0
    RHS  MR2_1_10  0
    RHS  MR2_2_0  0
    RHS  MR2_2_1  0
    RHS  MR2_2_2  0
    RHS  MR2_2_3  0
    RHS  MR2_2_4  0
    RHS  MR2_2_5  0
    RHS  MR2_2_6  0
    RHS  MR2_2_7  0
    RHS  MR2_2_8  0
    RHS  MR2_2_9  0
    RHS  MR2_2_10  0
    RHS  MR3_1_0  0
    RHS  MR3_1_1  0
    RHS  MR3_1_2  0
    RHS  MR3_1_3  0
    RHS  MR3_1_4  0
    RHS  MR3_1_5  0
    RHS  MR3_1_6  0
    RHS  MR3_1_7  0
    RHS  MR3_1_8  0
    RHS  MR3_1_9  0
    RHS  MR3_1_10  0
    RHS  MR3_2_0  0
    RHS  MR3_2_1  0
    RHS  MR3_2_2  0
    RHS  MR3_2_3  0
    RHS  MR3_2_4  0
    RHS  MR3_2_5  0
    RHS  MR3_2_6  0
    RHS  MR3_2_7  0
    RHS  MR3_2_8  0
    RHS  MR3_2_9  0
    RHS  MR3_2_10  0
    RHS  MR4_1_0  0
    RHS  MR4_1_1  0
    RHS  MR4_1_2  0
    RHS  MR4_1_3  0
    RHS  MR4_1_4  0
    RHS  MR4_1_5  0
    RHS  MR4_1_6  0
    RHS  MR4_1_7  0
    RHS  MR4_1_8  0
    RHS  MR4_1_9  0
    RHS  MR4_1_10  0
    RHS  MR4_2_0  0
    RHS  MR4_2_1  0
    RHS  MR4_2_2  0
    RHS  MR4_2_3  0
    RHS  MR4_2_4  0
    RHS  MR4_2_5  0
    RHS  MR4_2_6  0
    RHS  MR4_2_7  0
    RHS  MR4_2_8  0
    RHS  MR4_2_9  0
    RHS  MR4_2_10  0
    RHS  MR5_1_0  0
    RHS  MR5_1_1  0
    RHS  MR5_1_2  0
    RHS  MR5_1_3  0
    RHS  MR5_1_4  0
    RHS  MR5_1_5  0
    RHS  MR5_1_6  0
    RHS  MR5_1_7  0
    RHS  MR5_1_8  0
    RHS  MR5_1_9  0
    RHS  MR5_1_10  0
    RHS  MR5_2_0  0
    RHS  MR5_2_1  0
    RHS  MR5_2_2  0
    RHS  MR5_2_3  0
    RHS  MR5_2_4  0
    RHS  MR5_2_5  0
    RHS  MR5_2_6  0
    RHS  MR5_2_7  0
    RHS  MR5_2_8  0
    RHS  MR5_2_9  0
    RHS  MR5_2_10  0
    RHS  BAL0_0  0
    RHS  BAL0_1  0
    RHS  BAL0_2  0
    RHS  BAL0_3  0
    RHS  BAL0_4  0
    RHS  BAL0_5  0
    RHS  BAL0_6  0
    RHS  BAL0_7  0
    RHS  BAL0_8  0
    RHS  BAL0_9  0
    RHS  BAL0_10  0
    RHS  BAL0_11  0
    RHS  BAL1_0  0
    RHS  BAL1_1  0
    RHS  BAL1_2  0
    RHS  BAL1_3  0
    RHS  BAL1_4  0
    RHS  BAL1_5  0
    RHS  BAL1_6  0
    RHS  BAL1_7  0
    RHS  BAL1_8  0
    RHS  BAL1_9  0
    RHS  BAL1_10  0
    RHS  BAL1_11  0
    RHS  BAL2_0  0
    RHS  BAL2_1  0
    RHS  BAL2_2  0
    RHS  BAL2_3  0
    RHS  BAL2_4  0
    RHS  BAL2_5  0
    RHS  BAL2_6  0
    RHS  BAL2_7  0
    RHS  BAL2_8  0
    RHS  BAL2_9  0
    RHS  BAL2_10  0
    RHS  BAL2_11  0
    RHS  BAL3_0  0
    RHS  BAL3_1  0
    RHS  BAL3_2  0
    RHS  BAL3_3  0
    RHS  BAL3_4  0
    RHS  BAL3_5  0
    RHS  BAL3_6  0
    RHS  BAL3_7  0
    RHS  BAL3_8  0
    RHS  BAL3_9  0
    RHS  BAL3_10  0
    RHS  BAL3_11  0
    RHS  BAL4_0  0
    RHS  BAL4_1  0
    RHS  BAL4_2  0
    RHS  BAL4_3  0
    RHS  BAL4_4  0
    RHS  BAL4_5  0
    RHS  BAL4_6  0
    RHS  BAL4_7  0
    RHS  BAL4_8  0
    RHS  BAL4_9  0
    RHS  BAL4_10  0
    RHS  BAL4_11  0
    RHS  BAL5_0  0
    RHS  BAL5_1  0
    RHS  BAL5_2  0
    RHS  BAL5_3  0
    RHS  BAL5_4  0
    RHS  BAL5_5  0
    RHS  BAL5_6  0
    RHS  BAL5_7  0
    RHS  BAL5_8  0
    RHS  BAL5_9  0
    RHS  BAL5_10  0
    RHS  BAL5_11  0
    RHS  BAL6_0  0
    RHS  BAL6_1  0
    RHS  BAL6_2  0
    RHS  BAL6_3  0
    RHS  BAL6_4  0
    RHS  BAL6_5  0
    RHS  BAL6_6  0
    RHS  BAL6_7  0
    RHS  BAL6_8  0
    RHS  BAL6_9  0
    RHS  BAL6_10  0
    RHS  BAL6_11  0
    RHS  BAL7_0  0
    RHS  BAL7_1  0
    RHS  BAL7_2  0
    RHS  BAL7_3  0
    RHS  BAL7_4  0
    RHS  BAL7_5  0
    RHS  BAL7_6  0
    RHS  BAL7_7  0
    RHS  BAL7_8  0
    RHS  BAL7_9  0
    RHS  BAL7_10  0
    RHS  BAL7_11  0
    RHS  BAL8_0  0
    RHS  BAL8_1  0
    RHS  BAL8_2  0
    RHS  BAL8_3  0
    RHS  BAL8_4  0
    RHS  BAL8_5  0
    RHS  BAL8_6  0
    RHS  BAL8_7  0
    RHS  BAL8_8  0
    RHS  BAL8_9  0
    RHS  BAL8_10  0
    RHS  BAL8_11  0
    RHS  BAL9_0  0
    RHS  BAL9_1  0
    RHS  BAL9_2  0
    RHS  BAL9_3  0
    RHS  BAL9_4  0
    RHS  BAL9_5  0
    RHS  BAL9_6  0
    RHS  BAL9_7  0
    RHS  BAL9_8  0
    RHS  BAL9_9  0
    RHS  BAL9_10  0
    RHS  BAL9_11  0
    RHS  BAL10_0  0
    RHS  BAL10_1  0
    RHS  BAL10_2  0
    RHS  BAL10_3  0
    RHS  BAL10_4  0
    RHS  BAL10_5  0
    RHS  BAL10_6  0
    RHS  BAL10_7  0
    RHS  BAL10_8  0
    RHS  BAL10_9  0
    RHS  BAL10_10  0
    RHS  BAL10_11  0
    RHS  BAL11_0  0
    RHS  BAL11_1  0
    RHS  BAL11_2  0
    RHS  BAL11_3  0
    RHS  BAL11_4  0
    RHS  BAL11_5  0
    RHS  BAL11_6  0
    RHS  BAL11_7  0
    RHS  BAL11_8  0
    RHS  BAL11_9  0
    RHS  BAL11_10  0
    RHS  BAL11_11  0
    RHS  DEM0_0  108.341774149
    RHS  DEM0_1  100.883064509
    RHS  DEM0_2  103.109442128
    RHS  DEM0_3  161.227940936
    RHS  DEM0_4  142.320540651
    RHS  DEM0_5  72.5319196852
    RHS  DEM0_6  132.781530371
    RHS  DEM0_7  49.2971337396
    RHS  DEM0_8  67.1606048726
    RHS  DEM0_9  147.429000022
    RHS  DEM0_10  61.3626146092
    RHS  DEM0_11  149.20456383
    RHS  DEM1_0  165.433331896
    RHS  DEM1_1  103.406211919
    RHS  DEM1_2  145.64506304
    RHS  DEM1_3  70.3717968376
    RHS  DEM1_4  100.154687299
    RHS  DEM1_5  74.5388335086
    RHS  DEM1_6  95.0552055729
    RHS  DEM1_7  169.428360712
    RHS  DEM1_8  87.9586917897
    RHS  DEM1_9  74.2328382762
    RHS  DEM1_10  149.89224652
    RHS  DEM1_11  132.500890202
    RHS  DEM2_0  68.8011576355
    RHS  DEM2_1  98.6044986883
    RHS  DEM2_2  45.5835191634
    RHS  DEM2_3  85.4880697771
    RHS  DEM2_4  106.364551983
    RHS  DEM2_5  147.878482959
    RHS  DEM2_6  49.6126736393
    RHS  DEM2_7  128.356540208
    RHS  DEM2_8  106.54801655
    RHS  DEM2_9  139.42972207
    RHS  DEM2_10  77.949363154
    RHS  DEM2_11  76.737816921
    RHS  DEM3_0  109.685305723
    RHS  DEM3_1  127.808464788
    RHS  DEM3_2  158.241249976
    RHS  DEM3_3  136.551489212
    RHS  DEM3_4  150.216966993
    RHS  DEM3_5  89.5204868169
    RHS  DEM3_6  55.5585641882
    RHS  DEM3_7  97.8955240442
    RHS  DEM3_8  41.5900815061
    RHS  DEM3_9  98.9851434867
    RHS  DEM3_10  107.930820904
    RHS  DEM3_11  77.6081881056
RANGES
BOUNDS
 UP BND  Y0_0_0  1
 UP BND  Z0_0_0  1
 FX BND  F0_0_0  0
 UP BND  Y0_0_1  1
 UP BND  Z0_0_1  1
 FX BND  F0_0_1  0
 UP BND  Y0_0_2  1
 UP BND  Z0_0_2  1
 FX BND  F0_0_2  0
 UP BND  Y0_0_3  1
 UP BND  Z0_0_3  1
 FX BND  F0_0_3  0
 UP BND  Y0_0_4  1
 UP BND  Z0_0_4  1
 FX BND  F0_0_4  0
 UP BND  Y0_0_5  1
 UP BND  Z0_0_5  1
 FX BND  F0_0_5  0
 UP BND  Y0_0_6  1
 UP BND  Z0_0_6  1
 FX BND  F0_0_6  0
 UP BND  Y0_0_7  1
 UP BND  Z0_0_7  1
 FX BND  F0_0_7  0
 UP BND  Y0_0_8  1
 UP BND  Z0_0_8  1
 FX BND  F0_0_8  0
 UP BND  Y0_0_9  1
 UP BND  Z0_0_9  1
 FX BND  F0_0_9  0
 UP BND  Y0_0_10  1
 UP BND  Z0_0_10  1
 FX BND  F0_0_10  0
 UP BND  Y0_0_11  1
 UP BND  Z0_0_11  1
 FX BND  F0_0_11  0
 UP BND  Y0_1_0  1
 UP BND  Z0_1_0  1
 UP BND  F0_1_0  118.389466251
 UP BND  Y0_1_1  1
 UP BND  Z0_1_1  1
 UP BND  F0_1_1  118.389466251
 UP BND  Y0_1_2  1
 UP BND  Z0_1_2  1
 UP BND  F0_1_2  118.389466251
 UP BND  Y0_1_3  1
 UP BND  Z0_1_3  1
 UP BND  F0_1_3  118.389466251
 UP BND  Y0_1_4  1
 UP BND  Z0_1_4  1
 UP BND  F0_1_4  118.389466251
 UP BND  Y0_1_5  1
 UP BND  Z0_1_5  1
 UP BND  F0_1_5  118.389466251
 UP BND  Y0_1_6  1
 UP BND  Z0_1_6  1
 UP BND  F0_1_6  118.389466251
 UP BND  Y0_1_7  1
 UP BND  Z0_1_7  1
 UP BND  F0_1_7  118.389466251
 UP BND  Y0_1_8  1
 UP BND  Z0_1_8  1
 UP BND  F0_1_8  118.389466251
 UP BND  Y0_1_9  1
 UP BND  Z0_1_9  1
 UP BND  F0_1_9  118.389466251
 UP BND  Y0_1_10  1
 UP BND  Z0_1_10  1
 UP BND  F0_1_10  118.389466251
 UP BND  Y0_1_11  1
 UP BND  Z0_1_11  1
 UP BND  F0_1_11  118.389466251
 UP BND  Y0_2_0  1
 UP BND  Z0_2_0  1
 UP BND  F0_2_0  111.657538082
 UP BND  Y0_2_1  1
 UP BND  Z0_2_1  1
 UP BND  F0_2_1  111.657538082
 UP BND  Y0_2_2  1
 UP BND  Z0_2_2  1
 UP BND  F0_2_2  111.657538082
 UP BND  Y0_2_3  1
 UP BND  Z0_2_3  1
 UP BND  F0_2_3  111.657538082
 UP BND  Y0_2_4  1
 UP BND  Z0_2_4  1
 UP BND  F0_2_4  111.657538082
 UP BND  Y0_2_5  1
 UP BND  Z0_2_5  1
 UP BND  F0_2_5  111.657538082
 UP BND  Y0_2_6  1
 UP BND  Z0_2_6  1
 UP BND  F0_2_6  111.657538082
 UP BND  Y0_2_7  1
 UP BND  Z0_2_7  1
 UP BND  F0_2_7  111.657538082
 UP BND  Y0_2_8  1
 UP BND  Z0_2_8  1
 UP BND  F0_2_8  111.657538082
 UP BND  Y0_2_9  1
 UP BND  Z0_2_9  1
 UP BND  F0_2_9  111.657538082
 UP BND  Y0_2_10  1
 UP BND  Z0_2_10  1
 UP BND  F0_2_10  111.657538082
 UP BND  Y0_2_11  1
 UP BND  Z0_2_11  1
 UP BND  F0_2_11  111.657538082
 UP BND  Y1_0_0  1
 UP BND  Z1_0_0  1
 FX BND  F1_0_0  0
 UP BND  Y1_0_1  1
 UP BND  Z1_0_1  1
 FX BND  F1_0_1  0
 UP BND  Y1_0_2  1
 UP BND  Z1_0_2  1
 FX BND  F1_0_2  0
 UP BND  Y1_0_3  1
 UP BND  Z1_0_3  1
 FX BND  F1_0_3  0
 UP BND  Y1_0_4  1
 UP BND  Z1_0_4  1
 FX BND  F1_0_4  0
 UP BND  Y1_0_5  1
 UP BND  Z1_0_5  1
 FX BND  F1_0_5  0
 UP BND  Y1_0_6  1
 UP BND  Z1_0_6  1
 FX BND  F1_0_6  0
 UP BND  Y1_0_7  1
 UP BND  Z1_0_7  1
 FX BND  F1_0_7  0
 UP BND  Y1_0_8  1
 UP BND  Z1_0_8  1
 FX BND  F1_0_8  0
 UP BND  Y1_0_9  1
 UP BND  Z1_0_9  1
 FX BND  F1_0_9  0
 UP BND  Y1_0_10  1
 UP BND  Z1_0_10  1
 FX BND  F1_0_10  0
 UP BND  Y1_0_11  1
 UP BND  Z1_0_11  1
 FX BND  F1_0_11  0
 UP BND  Y1_1_0  1
 UP BND  Z1_1_0  1
 UP BND  F1_1_0  214.209928107
 UP BND  Y1_1_1  1
 UP BND  Z1_1_1  1
 UP BND  F1_1_1  214.209928107
 UP BND  Y1_1_2  1
 UP BND  Z1_1_2  1
 UP BND  F1_1_2  214.209928107
 UP BND  Y1_1_3  1
 UP BND  Z1_1_3  1
 UP BND  F1_1_3  214.209928107
 UP BND  Y1_1_4  1
 UP BND  Z1_1_4  1
 UP BND  F1_1_4  214.209928107
 UP BND  Y1_1_5  1
 UP BND  Z1_1_5  1
 UP BND  F1_1_5  214.209928107
 UP BND  Y1_1_6  1
 UP BND  Z1_1_6  1
 UP BND  F1_1_6  214.209928107
 UP BND  Y1_1_7  1
 UP BND  Z1_1_7  1
 UP BND  F1_1_7  214.209928107
 UP BND  Y1_1_8  1
 UP BND  Z1_1_8  1
 UP BND  F1_1_8  214.209928107
 UP BND  Y1_1_9  1
 UP BND  Z1_1_9  1
 UP BND  F1_1_9  214.209928107
 UP BND  Y1_1_10  1
 UP BND  Z1_1_10  1
 UP BND  F1_1_10  214.209928107
 UP BND  Y1_1_11  1
 UP BND  Z1_1_11  1
 UP BND  F1_1_11  214.209928107
 UP BND  Y1_2_0  1
 UP BND  Z1_2_0  1
 UP BND  F1_2_0  197.598040773
 UP BND  Y1_2_1  1
 UP BND  Z1_2_1  1
 UP BND  F1_2_1  197.598040773
 UP BND  Y1_2_2  1
 UP BND  Z1_2_2  1
 UP BND  F1_2_2  197.598040773
 UP BND  Y1_2_3  1
 UP BND  Z1_2_3  1
 UP BND  F1_2_3  197.598040773
 UP BND  Y1_2_4  1
 UP BND  Z1_2_4  1
 UP BND  F1_2_4  197.598040773
 UP BND  Y1_2_5  1
 UP BND  Z1_2_5  1
 UP BND  F1_2_5  197.598040773
 UP BND  Y1_2_6  1
 UP BND  Z1_2_6  1
 UP BND  F1_2_6  197.598040773
 UP BND  Y1_2_7  1
 UP BND  Z1_2_7  1
 UP BND  F1_2_7  197.598040773
 UP BND  Y1_2_8  1
 UP BND  Z1_2_8  1
 UP BND  F1_2_8  197.598040773
 UP BND  Y1_2_9  1
 UP BND  Z1_2_9  1
 UP BND  F1_2_9  197.598040773
 UP BND  Y1_2_10  1
 UP BND  Z1_2_10  1
 UP BND  F1_2_10  197.598040773
 UP BND  Y1_2_11  1
 UP BND  Z1_2_11  1
 UP BND  F1_2_11  197.598040773
 UP BND  Y2_0_0  1
 UP BND  Z2_0_0  1
 FX BND  F2_0_0  0
 UP BND  Y2_0_1  1
 UP BND  Z2_0_1  1
 FX BND  F2_0_1  0
 UP BND  Y2_0_2  1
 UP BND  Z2_0_2  1
 FX BND  F2_0_2  0
 UP BND  Y2_0_3  1
 UP BND  Z2_0_3  1
 FX BND  F2_0_3  0
 UP BND  Y2_0_4  1
 UP BND  Z2_0_4  1
 FX BND  F2_0_4  0
 UP BND  Y2_0_5  1
 UP BND  Z2_0_5  1
 FX BND  F2_0_5  0
 UP BND  Y2_0_6  1
 UP BND  Z2_0_6  1
 FX BND  F2_0_6  0
 UP BND  Y2_0_7  1
 UP BND  Z2_0_7  1
 FX BND  F2_0_7  0
 UP BND  Y2_0_8  1
 UP BND  Z2_0_8  1
 FX BND  F2_0_8  0
 UP BND  Y2_0_9  1
 UP BND  Z2_0_9  1
 FX BND  F2_0_9  0
 UP BND  Y2_0_10  1
 UP BND  Z2_0_10  1
 FX BND  F2_0_10  0
 UP BND  Y2_0_11  1
 UP BND  Z2_0_11  1
 FX BND  F2_0_11  0
 UP BND  Y2_1_0  1
 UP BND  Z2_1_0  1
 UP BND  F2_1_0  185.732808567
 UP BND  Y2_1_1  1
 UP BND  Z2_1_1  1
 UP BND  F2_1_1  185.732808567
 UP BND  Y2_1_2  1
 UP BND  Z2_1_2  1
 UP BND  F2_1_2  185.732808567
 UP BND  Y2_1_3  1
 UP BND  Z2_1_3  1
 UP BND  F2_1_3  185.732808567
 UP BND  Y2_1_4  1
 UP BND  Z2_1_4  1
 UP BND  F2_1_4  185.732808567
 UP BND  Y2_1_5  1
 UP BND  Z2_1_5  1
 UP BND  F2_1_5  185.732808567
 UP BND  Y2_1_6  1
 UP BND  Z2_1_6  1
 UP BND  F2_1_6  185.732808567
 UP BND  Y2_1_7  1
 UP BND  Z2_1_7  1
 UP BND  F2_1_7  185.732808567
 UP BND  Y2_1_8  1
 UP BND  Z2_1_8  1
 UP BND  F2_1_8  185.732808567
 UP BND  Y2_1_9  1
 UP BND  Z2_1_9  1
 UP BND  F2_1_9  185.732808567
 UP BND  Y2_1_10  1
 UP BND  Z2_1_10  1
 UP BND  F2_1_10  185.732808567
 UP BND  Y2_1_11  1
 UP BND  Z2_1_11  1
 UP BND  F2_1_11  185.732808567
 UP BND  Y2_2_0  1
 UP BND  Z2_2_0  1
 UP BND  F2_2_0  164.498770763
 UP BND  Y2_2_1  1
 UP BND  Z2_2_1  1
 UP BND  F2_2_1  164.498770763
 UP BND  Y2_2_2  1
 UP BND  Z2_2_2  1
 UP BND  F2_2_2  164.498770763
 UP BND  Y2_2_3  1
 UP BND  Z2_2_3  1
 UP BND  F2_2_3  164.498770763
 UP BND  Y2_2_4  1
 UP BND  Z2_2_4  1
 UP BND  F2_2_4  164.498770763
 UP BND  Y2_2_5  1
 UP BND  Z2_2_5  1
 UP BND  F2_2_5  164.498770763
 UP BND  Y2_2_6  1
 UP BND  Z2_2_6  1
 UP BND  F2_2_6  164.498770763
 UP BND  Y2_2_7  1
 UP BND  Z2_2_7  1
 UP BND  F2_2_7  164.498770763
 UP BND  Y2_2_8  1
 UP BND  Z2_2_8  1
 UP BND  F2_2_8  164.498770763
 UP BND  Y2_2_9  1
 UP BND  Z2_2_9  1
 UP BND  F2_2_9  164.498770763
 UP BND  Y2_2_10  1
 UP BND  Z2_2_10  1
 UP BND  F2_2_10  164.498770763
 UP BND  Y2_2_11  1
 UP BND  Z2_2_11  1
 UP BND  F2_2_11  164.498770763
 UP BND  Y3_0_0  1
 UP BND  Z3_0_0  1
 FX BND  F3_0_0  0
 UP BND  Y3_0_1  1
 UP BND  Z3_0_1  1
 FX BND  F3_0_1  0
 UP BND  Y3_0_2  1
 UP BND  Z3_0_2  1
 FX BND  F3_0_2  0
 UP BND  Y3_0_3  1
 UP BND  Z3_0_3  1
 FX BND  F3_0_3  0
 UP BND  Y3_0_4  1
 UP BND  Z3_0_4  1
 FX BND  F3_0_4  0
 UP BND  Y3_0_5  1
 UP BND  Z3_0_5  1
 FX BND  F3_0_5  0
 UP BND  Y3_0_6  1
 UP BND  Z3_0_6  1
 FX BND  F3_0_6  0
 UP BND  Y3_0_7  1
 UP BND  Z3_0_7  1
 FX BND  F3_0_7  0
 UP BND  Y3_0_8  1
 UP BND  Z3_0_8  1
 FX BND  F3_0_8  0
 UP BND  Y3_0_9  1
 UP BND  Z3_0_9  1
 FX BND  F3_0_9  0
 UP BND  Y3_0_10  1
 UP BND  Z3_0_10  1
 FX BND  F3_0_10  0
 UP BND  Y3_0_11  1
 UP BND  Z3_0_11  1
 FX BND  F3_0_11  0
 UP BND  Y3_1_0  1
 UP BND  Z3_1_0  1
 UP BND  F3_1_0  89.1368837614
 UP BND  Y3_1_1  1
 UP BND  Z3_1_1  1
 UP BND  F3_1_1  89.1368837614
 UP BND  Y3_1_2  1
 UP BND  Z3_1_2  1
 UP BND  F3_1_2  89.1368837614
 UP BND  Y3_1_3  1
 UP BND  Z3_1_3  1
 UP BND  F3_1_3  89.1368837614
 UP BND  Y3_1_4  1
 UP BND  Z3_1_4  1
 UP BND  F3_1_4  89.1368837614
 UP BND  Y3_1_5  1
 UP BND  Z3_1_5  1
 UP BND  F3_1_5  89.1368837614
 UP BND  Y3_1_6  1
 UP BND  Z3_1_6  1
 UP BND  F3_1_6  89.1368837614
 UP BND  Y3_1_7  1
 UP BND  Z3_1_7  1
 UP BND  F3_1_7  89.1368837614
 UP BND  Y3_1_8  1
 UP BND  Z3_1_8  1
 UP BND  F3_1_8  89.1368837614
 UP BND  Y3_1_9  1
 UP BND  Z3_1_9  1
 UP BND  F3_1_9  89.1368837614
 UP BND  Y3_1_10  1
 UP BND  Z3_1_10  1
 UP BND  F3_1_10  89.1368837614
 UP BND  Y3_1_11  1
 UP BND  Z3_1_11  1
 UP BND  F3_1_11  89.1368837614
 UP BND  Y3_2_0  1
 UP BND  Z3_2_0  1
 UP BND  F3_2_0  86.4928000959
 UP BND  Y3_2_1  1
 UP BND  Z3_2_1  1
 UP BND  F3_2_1  86.4928000959
 UP BND  Y3_2_2  1
 UP BND  Z3_2_2  1
 UP BND  F3_2_2  86.4928000959
 UP BND  Y3_2_3  1
 UP BND  Z3_2_3  1
 UP BND  F3_2_3  86.4928000959
 UP BND  Y3_2_4  1
 UP BND  Z3_2_4  1
 UP BND  F3_2_4  86.4928000959
 UP BND  Y3_2_5  1
 UP BND  Z3_2_5  1
 UP BND  F3_2_5  86.4928000959
 UP BND  Y3_2_6  1
 UP BND  Z3_2_6  1
 UP BND  F3_2_6  86.4928000959
 UP BND  Y3_2_7  1
 UP BND  Z3_2_7  1
 UP BND  F3_2_7  86.4928000959
 UP BND  Y3_2_8  1
 UP BND  Z3_2_8  1
 UP BND  F3_2_8  86.4928000959
 UP BND  Y3_2_9  1
 UP BND  Z3_2_9  1
 UP BND  F3_2_9  86.4928000959
 UP BND  Y3_2_10  1
 UP BND  Z3_2_10  1
 UP BND  F3_2_10  86.4928000959
 UP BND  Y3_2_11  1
 UP BND  Z3_2_11  1
 UP BND  F3_2_11  86.4928000959
 UP BND  Y4_0_0  1
 UP BND  Z4_0_0  1
 FX BND  F4_0_0  0
 UP BND  Y4_0_1  1
 UP BND  Z4_0_1  1
 FX BND  F4_0_1  0
 UP BND  Y4_0_2  1
 UP BND  Z4_0_2  1
 FX BND  F4_0_2  0
 UP BND  Y4_0_3  1
 UP BND  Z4_0_3  1
 FX BND  F4_0_3  0
 UP BND  Y4_0_4  1
 UP BND  Z4_0_4  1
 FX BND  F4_0_4  0
 UP BND  Y4_0_5  1
 UP BND  Z4_0_5  1
 FX BND  F4_0_5  0
 UP BND  Y4_0_6  1
 UP BND  Z4_0_6  1
 FX BND  F4_0_6  0
 UP BND  Y4_0_7  1
 UP BND  Z4_0_7  1
 FX BND  F4_0_7  0
 UP BND  Y4_0_8  1
 UP BND  Z4_0_8  1
 FX BND  F4_0_8  0
 UP BND  Y4_0_9  1
 UP BND  Z4_0_9  1
 FX BND  F4_0_9  0
 UP BND  Y4_0_10  1
 UP BND  Z4_0_10  1
 FX BND  F4_0_10  0
 UP BND  Y4_0_11  1
 UP BND  Z4_0_11  1
 FX BND  F4_0_11  0
 UP BND  Y4_1_0  1
 UP BND  Z4_1_0  1
 UP BND  F4_1_0  91.3062841489
 UP BND  Y4_1_1  1
 UP BND  Z4_1_1  1
 UP BND  F4_1_1  91.3062841489
 UP BND  Y4_1_2  1
 UP BND  Z4_1_2  1
 UP BND  F4_1_2  91.3062841489
 UP BND  Y4_1_3  1
 UP BND  Z4_1_3  1
 UP BND  F4_1_3  91.3062841489
 UP BND  Y4_1_4  1
 UP BND  Z4_1_4  1
 UP BND  F4_1_4  91.3062841489
 UP BND  Y4_1_5  1
 UP BND  Z4_1_5  1
 UP BND  F4_1_5  91.3062841489
 UP BND  Y4_1_6  1
 UP BND  Z4_1_6  1
 UP BND  F4_1_6  91.3062841489
 UP BND  Y4_1_7  1
 UP BND  Z4_1_7  1
 UP BND  F4_1_7  91.3062841489
 UP BND  Y4_1_8  1
 UP BND  Z4_1_8  1
 UP BND  F4_1_8  91.3062841489
 UP BND  Y4_1_9  1
 UP BND  Z4_1_9  1
 UP BND  F4_1_9  91.3062841489
 UP BND  Y4_1_10  1
 UP BND  Z4_1_10  1
 UP BND  F4_1_10  91.3062841489
 UP BND  Y4_1_11  1
 UP BND  Z4_1_11  1
 UP BND  F4_1_11  91.3062841489
 UP BND  Y4_2_0  1
 UP BND  Z4_2_0  1
 UP BND  F4_2_0  117.248984861
 UP BND  Y4_2_1  1
 UP BND  Z4_2_1  1
 UP BND  F4_2_1  117.248984861
 UP BND  Y4_2_2  1
 UP BND  Z4_2_2  1
 UP BND  F4_2_2  117.248984861
 UP BND  Y4_2_3  1
 UP BND  Z4_2_3  1
 UP BND  F4_2_3  117.248984861
 UP BND  Y4_2_4  1
 UP BND  Z4_2_4  1
 UP BND  F4_2_4  117.248984861
 UP BND  Y4_2_5  1
 UP BND  Z4_2_5  1
 UP BND  F4_2_5  117.248984861
 UP BND  Y4_2_6  1
 UP BND  Z4_2_6  1
 UP BND  F4_2_6  117.248984861
 UP BND  Y4_2_7  1
 UP BND  Z4_2_7  1
 UP BND  F4_2_7  117.248984861
 UP BND  Y4_2_8  1
 UP BND  Z4_2_8  1
 UP BND  F4_2_8  117.248984861
 UP BND  Y4_2_9  1
 UP BND  Z4_2_9  1
 UP BND  F4_2_9  117.248984861
 UP BND  Y4_2_10  1
 UP BND  Z4_2_10  1
 UP BND  F4_2_10  117.248984861
 UP BND  Y4_2_11  1
 UP BND  Z4_2_11  1
 UP BND  F4_2_11  117.248984861
 UP BND  Y5_0_0  1
 UP BND  Z5_0_0  1
 FX BND  F5_0_0  0
 UP BND  Y5_0_1  1
 UP BND  Z5_0_1  1
 FX BND  F5_0_1  0
 UP BND  Y5_0_2  1
 UP BND  Z5_0_2  1
 FX BND  F5_0_2  0
 UP BND  Y5_0_3  1
 UP BND  Z5_0_3  1
 FX BND  F5_0_3  0
 UP BND  Y5_0_4  1
 UP BND  Z5_0_4  1
 FX BND  F5_0_4  0
 UP BND  Y5_0_5  1
 UP BND  Z5_0_5  1
 FX BND  F5_0_5  0
 UP BND  Y5_0_6  1
 UP BND  Z5_0_6  1
 FX BND  F5_0_6  0
 UP BND  Y5_0_7  1
 UP BND  Z5_0_7  1
 FX BND  F5_0_7  0
 UP BND  Y5_0_8  1
 UP BND  Z5_0_8  1
 FX BND  F5_0_8  0
 UP BND  Y5_0_9  1
 UP BND  Z5_0_9  1
 FX BND  F5_0_9  0
 UP BND  Y5_0_10  1
 UP BND  Z5_0_10  1
 FX BND  F5_0_10  0
 UP BND  Y5_0_11  1
 UP BND  Z5_0_11  1
 FX BND  F5_0_11  0
 UP BND  Y5_1_0  1
 UP BND  Z5_1_0  1
 UP BND  F5_1_0  109.418044677
 UP BND  Y5_1_1  1
 UP BND  Z5_1_1  1
 UP BND  F5_1_1  109.418044677
 UP BND  Y5_1_2  1
 UP BND  Z5_1_2  1
 UP BND  F5_1_2  109.418044677
 UP BND  Y5_1_3  1
 UP BND  Z5_1_3  1
 UP BND  F5_1_3  109.418044677
 UP BND  Y5_1_4  1
 UP BND  Z5_1_4  1
 UP BND  F5_1_4  109.418044677
 UP BND  Y5_1_5  1
 UP BND  Z5_1_5  1
 UP BND  F5_1_5  109.418044677
 UP BND  Y5_1_6  1
 UP BND  Z5_1_6  1
 UP BND  F5_1_6  109.418044677
 UP BND  Y5_1_7  1
 UP BND  Z5_1_7  1
 UP BND  F5_1_7  109.418044677
 UP BND  Y5_1_8  1
 UP BND  Z5_1_8  1
 UP BND  F5_1_8  109.418044677
 UP BND  Y5_1_9  1
 UP BND  Z5_1_9  1
 UP BND  F5_1_9  109.418044677
 UP BND  Y5_1_10  1
 UP BND  Z5_1_10  1
 UP BND  F5_1_10  109.418044677
 UP BND  Y5_1_11  1
 UP BND  Z5_1_11  1
 UP BND  F5_1_11  109.418044677
 UP BND  Y5_2_0  1
 UP BND  Z5_2_0  1
 UP BND  F5_2_0  93.796235966
 UP BND  Y5_2_1  1
 UP BND  Z5_2_1  1
 UP BND  F5_2_1  93.796235966
 UP BND  Y5_2_2  1
 UP BND  Z5_2_2  1
 UP BND  F5_2_2  93.796235966
 UP BND  Y5_2_3  1
 UP BND  Z5_2_3  1
 UP BND  F5_2_3  93.796235966
 UP BND  Y5_2_4  1
 UP BND  Z5_2_4  1
 UP BND  F5_2_4  93.796235966
 UP BND  Y5_2_5  1
 UP BND  Z5_2_5  1
 UP BND  F5_2_5  93.796235966
 UP BND  Y5_2_6  1
 UP BND  Z5_2_6  1
 UP BND  F5_2_6  93.796235966
 UP BND  Y5_2_7  1
 UP BND  Z5_2_7  1
 UP BND  F5_2_7  93.796235966
 UP BND  Y5_2_8  1
 UP BND  Z5_2_8  1
 UP BND  F5_2_8  93.796235966
 UP BND  Y5_2_9  1
 UP BND  Z5_2_9  1
 UP BND  F5_2_9  93.796235966
 UP BND  Y5_2_10  1
 UP BND  Z5_2_10  1
 UP BND  F5_2_10  93.796235966
 UP BND  Y5_2_11  1
 UP BND  Z5_2_11  1
 UP BND  F5_2_11  93.796235966
 UP BND  I0_0  1349.20474895
 UP BND  I0_1  1349.20474895
 UP BND  I0_2  1349.20474895
 UP BND  I0_3  1349.20474895
 UP BND  I0_4  1349.20474895
 UP BND  I0_5  1349.20474895
 UP BND  I0_6  1349.20474895
 UP BND  I0_7  1349.20474895
 UP BND  I0_8  1349.20474895
 UP BND  I0_9  1349.20474895
 UP BND  I0_10  1349.20474895
 UP BND  I0_11  1349.20474895
 UP BND  I1_0  1266.69654256
 UP BND  I1_1  1266.69654256
 UP BND  I1_2  1266.69654256
 UP BND  I1_3  1266.69654256
 UP BND  I1_4  1266.69654256
 UP BND  I1_5  1266.69654256
 UP BND  I1_6  1266.69654256
 UP BND  I1_7  1266.69654256
 UP BND  I1_8  1266.69654256
 UP BND  I1_9  1266.69654256
 UP BND  I1_10  1266.69654256
 UP BND  I1_11  1266.69654256
 UP BND  I2_0  837.145648061
 UP BND  I2_1  837.145648061
 UP BND  I2_2  837.145648061
 UP BND  I2_3  837.145648061
 UP BND  I2_4  837.145648061
 UP BND  I2_5  837.145648061
 UP BND  I2_6  837.145648061
 UP BND  I2_7  837.145648061
 UP BND  I2_8  837.145648061
 UP BND  I2_9  837.145648061
 UP BND  I2_10  837.145648061
 UP BND  I2_11  837.145648061
 UP BND  I3_0  396.156814659
 UP BND  I3_1  396.156814659
 UP BND  I3_2  396.156814659
 UP BND  I3_3  396.156814659
 UP BND  I3_4  396.156814659
 UP BND  I3_5  396.156814659
 UP BND  I3_6  396.156814659
 UP BND  I3_7  396.156814659
 UP BND  I3_8  396.156814659
 UP BND  I3_9  396.156814659
 UP BND  I3_10  396.156814659
 UP BND  I3_11  396.156814659
 UP BND  I4_0  1355.43107517
 UP BND  I4_1  1355.43107517
 UP BND  I4_2  1355.43107517
 UP BND  I4_3  1355.43107517
 UP BND  I4_4  1355.43107517
 UP BND  I4_5  1355.43107517
 UP BND  I4_6  1355.43107517
 UP BND  I4_7  1355.43107517
 UP BND  I4_8  1355.43107517
 UP BND  I4_9  1355.43107517
 UP BND  I4_10  1355.43107517
 UP BND  I4_11  1355.43107517
 UP BND  I5_0  1227.19774684
 UP BND  I5_1  1227.19774684
 UP BND  I5_2  1227.19774684
 UP BND  I5_3  1227.19774684
 UP BND  I5_4  1227.19774684
 UP BND  I5_5  1227.19774684
 UP BND  I5_6  1227.19774684
 UP BND  I5_7  1227.19774684
 UP BND  I5_8  1227.19774684
 UP BND  I5_9  1227.19774684
 UP BND  I5_10  1227.19774684
 UP BND  I5_11  1227.19774684
 UP BND  I6_0  1364.58901865
 UP BND  I6_1  1364.58901865
 UP BND  I6_2  1364.58901865
 UP BND  I6_3  1364.58901865
 UP BND  I6_4  1364.58901865
 UP BND  I6_5  1364.58901865
 UP BND  I6_6  1364.58901865
 UP BND  I6_7  1364.58901865
 UP BND  I6_8  1364.58901865
 UP BND  I6_9  1364.58901865
 UP BND  I6_10  1364.58901865
 UP BND  I6_11  1364.58901865
 UP BND  I7_0  852.058047476
 UP BND  I7_1  852.058047476
 UP BND  I7_2  852.058047476
 UP BND  I7_3  852.058047476
 UP BND  I7_4  852.058047476
 UP BND  I7_5  852.058047476
 UP BND  I7_6  852.058047476
 UP BND  I7_7  852.058047476
 UP BND  I7_8  852.058047476
 UP BND  I7_9  852.058047476
 UP BND  I7_10  852.058047476
 UP BND  I7_11  852.058047476
 UP BND  I8_0  736.429077887
 UP BND  I8_1  736.429077887
 UP BND  I8_2  736.429077887
 UP BND  I8_3  736.429077887
 UP BND  I8_4  736.429077887
 UP BND  I8_5  736.429077887
 UP BND  I8_6  736.429077887
 UP BND  I8_7  736.429077887
 UP BND  I8_8  736.429077887
 UP BND  I8_9  736.429077887
 UP BND  I8_10  736.429077887
 UP BND  I8_11  736.429077887
 UP BND  I9_0  1377.29586194
 UP BND  I9_1  1377.29586194
 UP BND  I9_2  1377.29586194
 UP BND  I9_3  1377.29586194
 UP BND  I9_4  1377.29586194
 UP BND  I9_5  1377.29586194
 UP BND  I9_6  1377.29586194
 UP BND  I9_7  1377.29586194
 UP BND  I9_8  1377.29586194
 UP BND  I9_9  1377.29586194
 UP BND  I9_10  1377.29586194
 UP BND  I9_11  1377.29586194
 UP BND  I10_0  451.25587126
 UP BND  I10_1  451.25587126
 UP BND  I10_2  451.25587126
 UP BND  I10_3  451.25587126
 UP BND  I10_4  451.25587126
 UP BND  I10_5  451.25587126
 UP BND  I10_6  451.25587126
 UP BND  I10_7  451.25587126
 UP BND  I10_8  451.25587126
 UP BND  I10_9  451.25587126
 UP BND  I10_10  451.25587126
 UP BND  I10_11  451.25587126
 UP BND  I11_0  655.732905815
 UP BND  I11_1  655.732905815
 UP BND  I11_2  655.732905815
 UP BND  I11_3  655.732905815
 UP BND  I11_4  655.732905815
 UP BND  I11_5  655.732905815
 UP BND  I11_6  655.732905815
 UP BND  I11_7  655.732905815
 UP BND  I11_8  655.732905815
 UP BND  I11_9  655.732905815
 UP BND  I11_10  655.732905815
 UP BND  I11_11  655.732905815
 UP BND  S0_0  108.341774149
 UP BND  H0_0  108.341774149
 UP BND  S0_1  100.883064509
 UP BND  H0_1  100.883064509
 UP BND  S0_2  103.109442128
 UP BND  H0_2  103.109442128
 UP BND  S0_3  161.227940936
 UP BND  H0_3  161.227940936
 UP BND  S0_4  142.320540651
 UP BND  H0_4  142.320540651
 UP BND  S0_5  72.5319196852
 UP BND  H0_5  72.5319196852
 UP BND  S0_6  132.781530371
 UP BND  H0_6  132.781530371
 UP BND  S0_7  49.2971337396
 UP BND  H0_7  49.2971337396
 UP BND  S0_8  67.1606048726
 UP BND  H0_8  67.1606048726
 UP BND  S0_9  147.429000022
 UP BND  H0_9  147.429000022
 UP BND  S0_10  61.3626146092
 UP BND  H0_10  61.3626146092
 UP BND  S0_11  149.20456383
 UP BND  H0_11  149.20456383
 UP BND  S1_0  165.433331896
 UP BND  H1_0  165.433331896
 UP BND  S1_1  103.406211919
 UP BND  H1_1  103.406211919
 UP BND  S1_2  145.64506304
 UP BND  H1_2  145.64506304
 UP BND  S1_3  70.3717968376
 UP BND  H1_3  70.3717968376
 UP BND  S1_4  100.154687299
 UP BND  H1_4  100.154687299
 UP BND  S1_5  74.5388335086
 UP BND  H1_5  74.5388335086
 UP BND  S1_6  95.0552055729
 UP BND  H1_6  95.0552055729
 UP BND  S1_7  169.428360712
 UP BND  H1_7  169.428360712
 UP BND  S1_8  87.9586917897
 UP BND  H1_8  87.9586917897
 UP BND  S1_9  74.2328382762
 UP BND  H1_9  74.2328382762
 UP BND  S1_10  149.89224652
 UP BND  H1_10  149.89224652
 UP BND  S1_11  132.500890202
 UP BND  H1_11  132.500890202
 UP BND  S2_0  68.8011576355
 UP BND  H2_0  68.8011576355
 UP BND  S2_1  98.6044986883
 UP BND  H2_1  98.6044986883
 UP BND  S2_2  45.5835191634
 UP BND  H2_2  45.5835191634
 UP BND  S2_3  85.4880697771
 UP BND  H2_3  85.4880697771
 UP BND  S2_4  106.364551983
 UP BND  H2_4  106.364551983
 UP BND  S2_5  147.878482959
 UP BND  H2_5  147.878482959
 UP BND  S2_6  49.6126736393
 UP BND  H2_6  49.6126736393
 UP BND  S2_7  128.356540208
 UP BND  H2_7  128.356540208
 UP BND  S2_8  106.54801655
 UP BND  H2_8  106.54801655
 UP BND  S2_9  139.42972207
 UP BND  H2_9  139.42972207
 UP BND  S2_10  77.949363154
 UP BND  H2_10  77.949363154
 UP BND  S2_11  76.737816921
 UP BND  H2_11  76.737816921
 UP BND  S3_0  109.685305723
 UP BND  H3_0  109.685305723
 UP BND  S3_1  127.808464788
 UP BND  H3_1  127.808464788
 UP BND  S3_2  158.241249976
 UP BND  H3_2  158.241249976
 UP BND  S3_3  136.551489212
 UP BND  H3_3  136.551489212
 UP BND  S3_4  150.216966993
 UP BND  H3_4  150.216966993
 UP BND  S3_5  89.5204868169
 UP BND  H3_5  89.5204868169
 UP BND  S3_6  55.5585641882
 UP BND  H3_6  55.5585641882
 UP BND  S3_7  97.8955240442
 UP BND  H3_7  97.8955240442
 UP BND  S3_8  41.5900815061
 UP BND  H3_8  41.5900815061
 UP BND  S3_9  98.9851434867
 UP BND  H3_9  98.9851434867
 UP BND  S3_10  107.930820904
 UP BND  H3_10  107.930820904
 UP BND  S3_11  77.6081881056
 UP BND  H3_11  77.6081881056
ENDATA
