NAME          UC1
ROWS
 N  COST
 G  MIN0_0
 L  MAX0_0
 G  MIN0_1
 L  MAX0_1
 L  SU0_1
 L  RU0_1
 L  RD0_1
 G  MIN0_2
 L  MAX0_2
 L  SU0_2
 L  RU0_2
 L  RD0_2
 G  MIN0_3
 L  MAX0_3
 L  SU0_3
 L  RU0_3
 L  RD0_3
 G  MIN0_4
 L  MAX0_4
 L  SU0_4
 L  RU0_4
 L  RD0_4
 G  MIN0_5
 L  MAX0_5
 L  SU0_5
 L  RU0_5
 L  RD0_5
 G  MIN0_6
 L  MAX0_6
 L  SU0_6
 L  RU0_6
 L  RD0_6
 G  MIN0_7
 L  MAX0_7
 L  SU0_7
 L  RU0_7
 L  RD0_7
 G  MIN0_8
 L  MAX0_8
 L  SU0_8
 L  RU0_8
 L  RD0_8
 G  MIN0_9
 L  MAX0_9
 L  SU0_9
 L  RU0_9
 L  RD0_9
 G  MIN0_10
 L  MAX0_10
 L  SU0_10
 L  RU0_10
 L  RD0_10
 G  MIN0_11
 L  MAX0_11
 L  SU0_11
 L  RU0_11
 L  RD0_11
 G  MIN0_12
 L  MAX0_12
 L  SU0_12
 L  RU0_12
 L  RD0_12
 G  MIN0_13
 L  MAX0_13
 L  SU0_13
 L  RU0_13
 L  RD0_13
 G  MIN0_14
 L  MAX0_14
 L  SU0_14
 L  RU0_14
 L  RD0_14
 G  MIN0_15
 L  MAX0_15
 L  SU0_15
 L  RU0_15
 L  RD0_15
 G  MIN0_16
 L  MAX0_16
 L  SU0_16
 L  RU0_16
 L  RD0_16
 G  MIN0_17
 L  MAX0_17
 L  SU0_17
 L  RU0_17
 L  RD0_17
 G  MIN0_18
 L  MAX0_18
 L  SU0_18
 L  RU0_18
 L  RD0_18
 G  MIN0_19
 L  MAX0_19
 L  SU0_19
 L  RU0_19
 L  RD0_19
 G  MIN0_20
 L  MAX0_20
 L  SU0_20
 L  RU0_20
 L  RD0_20
 G  MIN0_21
 L  MAX0_21
 L  SU0_21
 L  RU0_21
 L  RD0_21
 G  MIN0_22
 L  MAX0_22
 L  SU0_22
 L  RU0_22
 L  RD0_22
 G  MIN0_23
 L  MAX0_23
 L  SU0_23
 L  RU0_23
 L  RD0_23
 G  MIN1_0
 L  MAX1_0
 G  MIN1_1
 L  MAX1_1
 L  SU1_1
 L  RU1_1
 L  RD1_1
 G  MIN1_2
 L  MAX1_2
 L  SU1_2
 L  RU1_2
 L  RD1_2
 G  MIN1_3
 L  MAX1_3
 L  SU1_3
 L  RU1_3
 L  RD1_3
 G  MIN1_4
 L  MAX1_4
 L  SU1_4
 L  RU1_4
 L  RD1_4
 G  MIN1_5
 L  MAX1_5
 L  SU1_5
 L  RU1_5
 L  RD1_5
 G  MIN1_6
 L  MAX1_6
 L  SU1_6
 L  RU1_6
 L  RD1_6
 G  MIN1_7
 L  MAX1_7
 L  SU1_7
 L  RU1_7
 L  RD1_7
 G  MIN1_8
 L  MAX1_8
 L  SU1_8
 L  RU1_8
 L  RD1_8
 G  MIN1_9
 L  MAX1_9
 L  SU1_9
 L  RU1_9
 L  RD1_9
 G  MIN1_10
 L  MAX1_10
 L  SU1_10
 L  RU1_10
 L  RD1_10
 G  MIN1_11
 L  MAX1_11
 L  SU1_11
 L  RU1_11
 L  RD1_11
 G  MIN1_12
 L  MAX1_12
 L  SU1_12
 L  RU1_12
 L  RD1_12
 G  MIN1_13
 L  MAX1_13
 L  SU1_13
 L  RU1_13
 L  RD1_13
 G  MIN1_14
 L  MAX1_14
 L  SU1_14
 L  RU1_14
 L  RD1_14
 G  MIN1_15
 L  MAX1_15
 L  SU1_15
 L  RU1_15
 L  RD1_15
 G  MIN1_16
 L  MAX1_16
 L  SU1_16
 L  RU1_16
 L  RD1_16
 G  MIN1_17
 L  MAX1_17
 L  SU1_17
 L  RU1_17
 L  RD1_17
 G  MIN1_18
 L  MAX1_18
 L  SU1_18
 L  RU1_18
 L  RD1_18
 G  MIN1_19
 L  MAX1_19
 L  SU1_19
 L  RU1_19
 L  RD1_19
 G  MIN1_20
 L  MAX1_20
 L  SU1_20
 L  RU1_20
 L  RD1_20
 G  MIN1_21
 L  MAX1_21
 L  SU1_21
 L  RU1_21
 L  RD1_21
 G  MIN1_22
 L  MAX1_22
 L  SU1_22
 L  RU1_22
 L  RD1_22
 G  MIN1_23
 L  MAX1_23
 L  SU1_23
 L  RU1_23
 L  RD1_23
 G  MIN2_0
 L  MAX2_0
 G  MIN2_1
 L  MAX2_1
 L  SU2_1
 L  RU2_1
 L  RD2_1
 G  MIN2_2
 L  MAX2_2
 L  SU2_2
 L  RU2_2
 L  RD2_2
 G  MIN2_3
 L  MAX2_3
 L  SU2_3
 L  RU2_3
 L  RD2_3
 G  MIN2_4
 L  MAX2_4
 L  SU2_4
 L  RU2_4
 L  RD2_4
 G  MIN2_5
 L  MAX2_5
 L  SU2_5
 L  RU2_5
 L  RD2_5
 G  MIN2_6
 L  MAX2_6
 L  SU2_6
 L  RU2_6
 L  RD2_6
 G  MIN2_7
 L  MAX2_7
 L  SU2_7
 L  RU2_7
 L  RD2_7
 G  MIN2_8
 L  MAX2_8
 L  SU2_8
 L  RU2_8
 L  RD2_8
 G  MIN2_9
 L  MAX2_9
 L  SU2_9
 L  RU2_9
 L  RD2_9
 G  MIN2_10
 L  MAX2_10
 L  SU2_10
 L  RU2_10
 L  RD2_10
 G  MIN2_11
 L  MAX2_11
 L  SU2_11
 L  RU2_11
 L  RD2_11
 G  MIN2_12
 L  MAX2_12
 L  SU2_12
 L  RU2_12
 L  RD2_12
 G  MIN2_13
 L  MAX2_13
 L  SU2_13
 L  RU2_13
 L  RD2_13
 G  MIN2_14
 L  MAX2_14
 L  SU2_14
 L  RU2_14
 L  RD2_14
 G  MIN2_15
 L  MAX2_15
 L  SU2_15
 L  RU2_15
 L  RD2_15
 G  MIN2_16
 L  MAX2_16
 L  SU2_16
 L  RU2_16
 L  RD2_16
 G  MIN2_17
 L  MAX2_17
 L  SU2_17
 L  RU2_17
 L  RD2_17
 G  MIN2_18
 L  MAX2_18
 L  SU2_18
 L  RU2_18
 L  RD2_18
 G  MIN2_19
 L  MAX2_19
 L  SU2_19
 L  RU2_19
 L  RD2_19
 G  MIN2_20
 L  MAX2_20
 L  SU2_20
 L  RU2_20
 L  RD2_20
 G  MIN2_21
 L  MAX2_21
 L  SU2_21
 L  RU2_21
 L  RD2_21
 G  MIN2_22
 L  MAX2_22
 L  SU2_22
 L  RU2_22
 L  RD2_22
 G  MIN2_23
 L  MAX2_23
 L  SU2_23
 L  RU2_23
 L  RD2_23
 G  MIN3_0
 L  MAX3_0
 G  MIN3_1
 L  MAX3_1
 L  SU3_1
 L  RU3_1
 L  RD3_1
 G  MIN3_2
 L  MAX3_2
 L  SU3_2
 L  RU3_2
 L  RD3_2
 G  MIN3_3
 L  MAX3_3
 L  SU3_3
 L  RU3_3
 L  RD3_3
 G  MIN3_4
 L  MAX3_4
 L  SU3_4
 L  RU3_4
 L  RD3_4
 G  MIN3_5
 L  MAX3_5
 L  SU3_5
 L  RU3_5
 L  RD3_5
 G  MIN3_6
 L  MAX3_6
 L  SU3_6
 L  RU3_6
 L  RD3_6
 G  MIN3_7
 L  MAX3_7
 L  SU3_7
 L  RU3_7
 L  RD3_7
 G  MIN3_8
 L  MAX3_8
 L  SU3_8
 L  RU3_8
 L  RD3_8
 G  MIN3_9
 L  MAX3_9
 L  SU3_9
 L  RU3_9
 L  RD3_9
 G  MIN3_10
 L  MAX3_10
 L  SU3_10
 L  RU3_10
 L  RD3_10
 G  MIN3_11
 L  MAX3_11
 L  SU3_11
 L  RU3_11
 L  RD3_11
 G  MIN3_12
 L  MAX3_12
 L  SU3_12
 L  RU3_12
 L  RD3_12
 G  MIN3_13
 L  MAX3_13
 L  SU3_13
 L  RU3_13
 L  RD3_13
 G  MIN3_14
 L  MAX3_14
 L  SU3_14
 L  RU3_14
 L  RD3_14
 G  MIN3_15
 L  MAX3_15
 L  SU3_15
 L  RU3_15
 L  RD3_15
 G  MIN3_16
 L  MAX3_16
 L  SU3_16
 L  RU3_16
 L  RD3_16
 G  MIN3_17
 L  MAX3_17
 L  SU3_17
 L  RU3_17
 L  RD3_17
 G  MIN3_18
 L  MAX3_18
 L  SU3_18
 L  RU3_18
 L  RD3_18
 G  MIN3_19
 L  MAX3_19
 L  SU3_19
 L  RU3_19
 L  RD3_19
 G  MIN3_20
 L  MAX3_20
 L  SU3_20
 L  RU3_20
 L  RD3_20
 G  MIN3_21
 L  MAX3_21
 L  SU3_21
 L  RU3_21
 L  RD3_21
 G  MIN3_22
 L  MAX3_22
 L  SU3_22
 L  RU3_22
 L  RD3_22
 G  MIN3_23
 L  MAX3_23
 L  SU3_23
 L  RU3_23
 L  RD3_23
 G  MIN4_0
 L  MAX4_0
 G  MIN4_1
 L  MAX4_1
 L  SU4_1
 L  RU4_1
 L  RD4_1
 G  MIN4_2
 L  MAX4_2
 L  SU4_2
 L  RU4_2
 L  RD4_2
 G  MIN4_3
 L  MAX4_3
 L  SU4_3
 L  RU4_3
 L  RD4_3
 G  MIN4_4
 L  MAX4_4
 L  SU4_4
 L  RU4_4
 L  RD4_4
 G  MIN4_5
 L  MAX4_5
 L  SU4_5
 L  RU4_5
 L  RD4_5
 G  MIN4_6
 L  MAX4_6
 L  SU4_6
 L  RU4_6
 L  RD4_6
 G  MIN4_7
 L  MAX4_7
 L  SU4_7
 L  RU4_7
 L  RD4_7
 G  MIN4_8
 L  MAX4_8
 L  SU4_8
 L  RU4_8
 L  RD4_8
 G  MIN4_9
 L  MAX4_9
 L  SU4_9
 L  RU4_9
 L  RD4_9
 G  MIN4_10
 L  MAX4_10
 L  SU4_10
 L  RU4_10
 L  RD4_10
 G  MIN4_11
 L  MAX4_11
 L  SU4_11
 L  RU4_11
 L  RD4_11
 G  MIN4_12
 L  MAX4_12
 L  SU4_12
 L  RU4_12
 L  RD4_12
 G  MIN4_13
 L  MAX4_13
 L  SU4_13
 L  RU4_13
 L  RD4_13
 G  MIN4_14
 L  MAX4_14
 L  SU4_14
 L  RU4_14
 L  RD4_14
 G  MIN4_15
 L  MAX4_15
 L  SU4_15
 L  RU4_15
 L  RD4_15
 G  MIN4_16
 L  MAX4_16
 L  SU4_16
 L  RU4_16
 L  RD4_16
 G  MIN4_17
 L  MAX4_17
 L  SU4_17
 L  RU4_17
 L  RD4_17
 G  MIN4_18
 L  MAX4_18
 L  SU4_18
 L  RU4_18
 L  RD4_18
 G  MIN4_19
 L  MAX4_19
 L  SU4_19
 L  RU4_19
 L  RD4_19
 G  MIN4_20
 L  MAX4_20
 L  SU4_20
 L  RU4_20
 L  RD4_20
 G  MIN4_21
 L  MAX4_21
 L  SU4_21
 L  RU4_21
 L  RD4_21
 G  MIN4_22
 L  MAX4_22
 L  SU4_22
 L  RU4_22
 L  RD4_22
 G  MIN4_23
 L  MAX4_23
 L  SU4_23
 L  RU4_23
 L  RD4_23
 G  MIN5_0
 L  MAX5_0
 G  MIN5_1
 L  MAX5_1
 L  SU5_1
 L  RU5_1
 L  RD5_1
 G  MIN5_2
 L  MAX5_2
 L  SU5_2
 L  RU5_2
 L  RD5_2
 G  MIN5_3
 L  MAX5_3
 L  SU5_3
 L  RU5_3
 L  RD5_3
 G  MIN5_4
 L  MAX5_4
 L  SU5_4
 L  RU5_4
 L  RD5_4
 G  MIN5_5
 L  MAX5_5
 L  SU5_5
 L  RU5_5
 L  RD5_5
 G  MIN5_6
 L  MAX5_6
 L  SU5_6
 L  RU5_6
 L  RD5_6
 G  MIN5_7
 L  MAX5_7
 L  SU5_7
 L  RU5_7
 L  RD5_7
 G  MIN5_8
 L  MAX5_8
 L  SU5_8
 L  RU5_8
 L  RD5_8
 G  MIN5_9
 L  MAX5_9
 L  SU5_9
 L  RU5_9
 L  RD5_9
 G  MIN5_10
 L  MAX5_10
 L  SU5_10
 L  RU5_10
 L  RD5_10
 G  MIN5_11
 L  MAX5_11
 L  SU5_11
 L  RU5_11
 L  RD5_11
 G  MIN5_12
 L  MAX5_12
 L  SU5_12
 L  RU5_12
 L  RD5_12
 G  MIN5_13
 L  MAX5_13
 L  SU5_13
 L  RU5_13
 L  RD5_13
 G  MIN5_14
 L  MAX5_14
 L  SU5_14
 L  RU5_14
 L  RD5_14
 G  MIN5_15
 L  MAX5_15
 L  SU5_15
 L  RU5_15
 L  RD5_15
 G  MIN5_16
 L  MAX5_16
 L  SU5_16
 L  RU5_16
 L  RD5_16
 G  MIN5_17
 L  MAX5_17
 L  SU5_17
 L  RU5_17
 L  RD5_17
 G  MIN5_18
 L  MAX5_18
 L  SU5_18
 L  RU5_18
 L  RD5_18
 G  MIN5_19
 L  MAX5_19
 L  SU5_19
 L  RU5_19
 L  RD5_19
 G  MIN5_20
 L  MAX5_20
 L  SU5_20
 L  RU5_20
 L  RD5_20
 G  MIN5_21
 L  MAX5_21
 L  SU5_21
 L  RU5_21
 L  RD5_21
 G  MIN5_22
 L  MAX5_22
 L  SU5_22
 L  RU5_22
 L  RD5_22
 G  MIN5_23
 L  MAX5_23
 L  SU5_23
 L  RU5_23
 L  RD5_23
 G  MIN6_0
 L  MAX6_0
 G  MIN6_1
 L  MAX6_1
 L  SU6_1
 L  RU6_1
 L  RD6_1
 G  MIN6_2
 L  MAX6_2
 L  SU6_2
 L  RU6_2
 L  RD6_2
 G  MIN6_3
 L  MAX6_3
 L  SU6_3
 L  RU6_3
 L  RD6_3
 G  MIN6_4
 L  MAX6_4
 L  SU6_4
 L  RU6_4
 L  RD6_4
 G  MIN6_5
 L  MAX6_5
 L  SU6_5
 L  RU6_5
 L  RD6_5
 G  MIN6_6
 L  MAX6_6
 L  SU6_6
 L  RU6_6
 L  RD6_6
 G  MIN6_7
 L  MAX6_7
 L  SU6_7
 L  RU6_7
 L  RD6_7
 G  MIN6_8
 L  MAX6_8
 L  SU6_8
 L  RU6_8
 L  RD6_8
 G  MIN6_9
 L  MAX6_9
 L  SU6_9
 L  RU6_9
 L  RD6_9
 G  MIN6_10
 L  MAX6_10
 L  SU6_10
 L  RU6_10
 L  RD6_10
 G  MIN6_11
 L  MAX6_11
 L  SU6_11
 L  RU6_11
 L  RD6_11
 G  MIN6_12
 L  MAX6_12
 L  SU6_12
 L  RU6_12
 L  RD6_12
 G  MIN6_13
 L  MAX6_13
 L  SU6_13
 L  RU6_13
 L  RD6_13
 G  MIN6_14
 L  MAX6_14
 L  SU6_14
 L  RU6_14
 L  RD6_14
 G  MIN6_15
 L  MAX6_15
 L  SU6_15
 L  RU6_15
 L  RD6_15
 G  MIN6_16
 L  MAX6_16
 L  SU6_16
 L  RU6_16
 L  RD6_16
 G  MIN6_17
 L  MAX6_17
 L  SU6_17
 L  RU6_17
 L  RD6_17
 G  MIN6_18
 L  MAX6_18
 L  SU6_18
 L  RU6_18
 L  RD6_18
 G  MIN6_19
 L  MAX6_19
 L  SU6_19
 L  RU6_19
 L  RD6_19
 G  MIN6_20
 L  MAX6_20
 L  SU6_20
 L  RU6_20
 L  RD6_20
 G  MIN6_21
 L  MAX6_21
 L  SU6_21
 L  RU6_21
 L  RD6_21
 G  MIN6_22
 L  MAX6_22
 L  SU6_22
 L  RU6_22
 L  RD6_22
 G  MIN6_23
 L  MAX6_23
 L  SU6_23
 L  RU6_23
 L  RD6_23
 G  MIN7_0
 L  MAX7_0
 G  MIN7_1
 L  MAX7_1
 L  SU7_1
 L  RU7_1
 L  RD7_1
 G  MIN7_2
 L  MAX7_2
 L  SU7_2
 L  RU7_2
 L  RD7_2
 G  MIN7_3
 L  MAX7_3
 L  SU7_3
 L  RU7_3
 L  RD7_3
 G  MIN7_4
 L  MAX7_4
 L  SU7_4
 L  RU7_4
 L  RD7_4
 G  MIN7_5
 L  MAX7_5
 L  SU7_5
 L  RU7_5
 L  RD7_5
 G  MIN7_6
 L  MAX7_6
 L  SU7_6
 L  RU7_6
 L  RD7_6
 G  MIN7_7
 L  MAX7_7
 L  SU7_7
 L  RU7_7
 L  RD7_7
 G  MIN7_8
 L  MAX7_8
 L  SU7_8
 L  RU7_8
 L  RD7_8
 G  MIN7_9
 L  MAX7_9
 L  SU7_9
 L  RU7_9
 L  RD7_9
 G  MIN7_10
 L  MAX7_10
 L  SU7_10
 L  RU7_10
 L  RD7_10
 G  MIN7_11
 L  MAX7_11
 L  SU7_11
 L  RU7_11
 L  RD7_11
 G  MIN7_12
 L  MAX7_12
 L  SU7_12
 L  RU7_12
 L  RD7_12
 G  MIN7_13
 L  MAX7_13
 L  SU7_13
 L  RU7_13
 L  RD7_13
 G  MIN7_14
 L  MAX7_14
 L  SU7_14
 L  RU7_14
 L  RD7_14
 G  MIN7_15
 L  MAX7_15
 L  SU7_15
 L  RU7_15
 L  RD7_15
 G  MIN7_16
 L  MAX7_16
 L  SU7_16
 L  RU7_16
 L  RD7_16
 G  MIN7_17
 L  MAX7_17
 L  SU7_17
 L  RU7_17
 L  RD7_17
 G  MIN7_18
 L  MAX7_18
 L  SU7_18
 L  RU7_18
 L  RD7_18
 G  MIN7_19
 L  MAX7_19
 L  SU7_19
 L  RU7_19
 L  RD7_19
 G  MIN7_20
 L  MAX7_20
 L  SU7_20
 L  RU7_20
 L  RD7_20
 G  MIN7_21
 L  MAX7_21
 L  SU7_21
 L  RU7_21
 L  RD7_21
 G  MIN7_22
 L  MAX7_22
 L  SU7_22
 L  RU7_22
 L  RD7_22
 G  MIN7_23
 L  MAX7_23
 L  SU7_23
 L  RU7_23
 L  RD7_23
 G  MIN8_0
 L  MAX8_0
 G  MIN8_1
 L  MAX8_1
 L  SU8_1
 L  RU8_1
 L  RD8_1
 G  MIN8_2
 L  MAX8_2
 L  SU8_2
 L  RU8_2
 L  RD8_2
 G  MIN8_3
 L  MAX8_3
 L  SU8_3
 L  RU8_3
 L  RD8_3
 G  MIN8_4
 L  MAX8_4
 L  SU8_4
 L  RU8_4
 L  RD8_4
 G  MIN8_5
 L  MAX8_5
 L  SU8_5
 L  RU8_5
 L  RD8_5
 G  MIN8_6
 L  MAX8_6
 L  SU8_6
 L  RU8_6
 L  RD8_6
 G  MIN8_7
 L  MAX8_7
 L  SU8_7
 L  RU8_7
 L  RD8_7
 G  MIN8_8
 L  MAX8_8
 L  SU8_8
 L  RU8_8
 L  RD8_8
 G  MIN8_9
 L  MAX8_9
 L  SU8_9
 L  RU8_9
 L  RD8_9
 G  MIN8_10
 L  MAX8_10
 L  SU8_10
 L  RU8_10
 L  RD8_10
 G  MIN8_11
 L  MAX8_11
 L  SU8_11
 L  RU8_11
 L  RD8_11
 G  MIN8_12
 L  MAX8_12
 L  SU8_12
 L  RU8_12
 L  RD8_12
 G  MIN8_13
 L  MAX8_13
 L  SU8_13
 L  RU8_13
 L  RD8_13
 G  MIN8_14
 L  MAX8_14
 L  SU8_14
 L  RU8_14
 L  RD8_14
 G  MIN8_15
 L  MAX8_15
 L  SU8_15
 L  RU8_15
 L  RD8_15
 G  MIN8_16
 L  MAX8_16
 L  SU8_16
 L  RU8_16
 L  RD8_16
 G  MIN8_17
 L  MAX8_17
 L  SU8_17
 L  RU8_17
 L  RD8_17
 G  MIN8_18
 L  MAX8_18
 L  SU8_18
 L  RU8_18
 L  RD8_18
 G  MIN8_19
 L  MAX8_19
 L  SU8_19
 L  RU8_19
 L  RD8_19
 G  MIN8_20
 L  MAX8_20
 L  SU8_20
 L  RU8_20
 L  RD8_20
 G  MIN8_21
 L  MAX8_21
 L  SU8_21
 L  RU8_21
 L  RD8_21
 G  MIN8_22
 L  MAX8_22
 L  SU8_22
 L  RU8_22
 L  RD8_22
 G  MIN8_23
 L  MAX8_23
 L  SU8_23
 L  RU8_23
 L  RD8_23
 G  MIN9_0
 L  MAX9_0
 G  MIN9_1
 L  MAX9_1
 L  SU9_1
 L  RU9_1
 L  RD9_1
 G  MIN9_2
 L  MAX9_2
 L  SU9_2
 L  RU9_2
 L  RD9_2
 G  MIN9_3
 L  MAX9_3
 L  SU9_3
 L  RU9_3
 L  RD9_3
 G  MIN9_4
 L  MAX9_4
 L  SU9_4
 L  RU9_4
 L  RD9_4
 G  MIN9_5
 L  MAX9_5
 L  SU9_5
 L  RU9_5
 L  RD9_5
 G  MIN9_6
 L  MAX9_6
 L  SU9_6
 L  RU9_6
 L  RD9_6
 G  MIN9_7
 L  MAX9_7
 L  SU9_7
 L  RU9_7
 L  RD9_7
 G  MIN9_8
 L  MAX9_8
 L  SU9_8
 L  RU9_8
 L  RD9_8
 G  MIN9_9
 L  MAX9_9
 L  SU9_9
 L  RU9_9
 L  RD9_9
 G  MIN9_10
 L  MAX9_10
 L  SU9_10
 L  RU9_10
 L  RD9_10
 G  MIN9_11
 L  MAX9_11
 L  SU9_11
 L  RU9_11
 L  RD9_11
 G  MIN9_12
 L  MAX9_12
 L  SU9_12
 L  RU9_12
 L  RD9_12
 G  MIN9_13
 L  MAX9_13
 L  SU9_13
 L  RU9_13
 L  RD9_13
 G  MIN9_14
 L  MAX9_14
 L  SU9_14
 L  RU9_14
 L  RD9_14
 G  MIN9_15
 L  MAX9_15
 L  SU9_15
 L  RU9_15
 L  RD9_15
 G  MIN9_16
 L  MAX9_16
 L  SU9_16
 L  RU9_16
 L  RD9_16
 G  MIN9_17
 L  MAX9_17
 L  SU9_17
 L  RU9_17
 L  RD9_17
 G  MIN9_18
 L  MAX9_18
 L  SU9_18
 L  RU9_18
 L  RD9_18
 G  MIN9_19
 L  MAX9_19
 L  SU9_19
 L  RU9_19
 L  RD9_19
 G  MIN9_20
 L  MAX9_20
 L  SU9_20
 L  RU9_20
 L  RD9_20
 G  MIN9_21
 L  MAX9_21
 L  SU9_21
 L  RU9_21
 L  RD9_21
 G  MIN9_22
 L  MAX9_22
 L  SU9_22
 L  RU9_22
 L  RD9_22
 G  MIN9_23
 L  MAX9_23
 L  SU9_23
 L  RU9_23
 L  RD9_23
 G  MIN10_0
 L  MAX10_0
 G  MIN10_1
 L  MAX10_1
 L  SU10_1
 L  RU10_1
 L  RD10_1
 G  MIN10_2
 L  MAX10_2
 L  SU10_2
 L  RU10_2
 L  RD10_2
 G  MIN10_3
 L  MAX10_3
 L  SU10_3
 L  RU10_3
 L  RD10_3
 G  MIN10_4
 L  MAX10_4
 L  SU10_4
 L  RU10_4
 L  RD10_4
 G  MIN10_5
 L  MAX10_5
 L  SU10_5
 L  RU10_5
 L  RD10_5
 G  MIN10_6
 L  MAX10_6
 L  SU10_6
 L  RU10_6
 L  RD10_6
 G  MIN10_7
 L  MAX10_7
 L  SU10_7
 L  RU10_7
 L  RD10_7
 G  MIN10_8
 L  MAX10_8
 L  SU10_8
 L  RU10_8
 L  RD10_8
 G  MIN10_9
 L  MAX10_9
 L  SU10_9
 L  RU10_9
 L  RD10_9
 G  MIN10_10
 L  MAX10_10
 L  SU10_10
 L  RU10_10
 L  RD10_10
 G  MIN10_11
 L  MAX10_11
 L  SU10_11
 L  RU10_11
 L  RD10_11
 G  MIN10_12
 L  MAX10_12
 L  SU10_12
 L  RU10_12
 L  RD10_12
 G  MIN10_13
 L  MAX10_13
 L  SU10_13
 L  RU10_13
 L  RD10_13
 G  MIN10_14
 L  MAX10_14
 L  SU10_14
 L  RU10_14
 L  RD10_14
 G  MIN10_15
 L  MAX10_15
 L  SU10_15
 L  RU10_15
 L  RD10_15
 G  MIN10_16
 L  MAX10_16
 L  SU10_16
 L  RU10_16
 L  RD10_16
 G  MIN10_17
 L  MAX10_17
 L  SU10_17
 L  RU10_17
 L  RD10_17
 G  MIN10_18
 L  MAX10_18
 L  SU10_18
 L  RU10_18
 L  RD10_18
 G  MIN10_19
 L  MAX10_19
 L  SU10_19
 L  RU10_19
 L  RD10_19
 G  MIN10_20
 L  MAX10_20
 L  SU10_20
 L  RU10_20
 L  RD10_20
 G  MIN10_21
 L  MAX10_21
 L  SU10_21
 L  RU10_21
 L  RD10_21
 G  MIN10_22
 L  MAX10_22
 L  SU10_22
 L  RU10_22
 L  RD10_22
 G  MIN10_23
 L  MAX10_23
 L  SU10_23
 L  RU10_23
 L  RD10_23
 G  MIN11_0
 L  MAX11_0
 G  MIN11_1
 L  MAX11_1
 L  SU11_1
 L  RU11_1
 L  RD11_1
 G  MIN11_2
 L  MAX11_2
 L  SU11_2
 L  RU11_2
 L  RD11_2
 G  MIN11_3
 L  MAX11_3
 L  SU11_3
 L  RU11_3
 L  RD11_3
 G  MIN11_4
 L  MAX11_4
 L  SU11_4
 L  RU11_4
 L  RD11_4
 G  MIN11_5
 L  MAX11_5
 L  SU11_5
 L  RU11_5
 L  RD11_5
 G  MIN11_6
 L  MAX11_6
 L  SU11_6
 L  RU11_6
 L  RD11_6
 G  MIN11_7
 L  MAX11_7
 L  SU11_7
 L  RU11_7
 L  RD11_7
 G  MIN11_8
 L  MAX11_8
 L  SU11_8
 L  RU11_8
 L  RD11_8
 G  MIN11_9
 L  MAX11_9
 L  SU11_9
 L  RU11_9
 L  RD11_9
 G  MIN11_10
 L  MAX11_10
 L  SU11_10
 L  RU11_10
 L  RD11_10
 G  MIN11_11
 L  MAX11_11
 L  SU11_11
 L  RU11_11
 L  RD11_11
 G  MIN11_12
 L  MAX11_12
 L  SU11_12
 L  RU11_12
 L  RD11_12
 G  MIN11_13
 L  MAX11_13
 L  SU11_13
 L  RU11_13
 L  RD11_13
 G  MIN11_14
 L  MAX11_14
 L  SU11_14
 L  RU11_14
 L  RD11_14
 G  MIN11_15
 L  MAX11_15
 L  SU11_15
 L  RU11_15
 L  RD11_15
 G  MIN11_16
 L  MAX11_16
 L  SU11_16
 L  RU11_16
 L  RD11_16
 G  MIN11_17
 L  MAX11_17
 L  SU11_17
 L  RU11_17
 L  RD11_17
 G  MIN11_18
 L  MAX11_18
 L  SU11_18
 L  RU11_18
 L  RD11_18
 G  MIN11_19
 L  MAX11_19
 L  SU11_19
 L  RU11_19
 L  RD11_19
 G  MIN11_20
 L  MAX11_20
 L  SU11_20
 L  RU11_20
 L  RD11_20
 G  MIN11_21
 L  MAX11_21
 L  SU11_21
 L  RU11_21
 L  RD11_21
 G  MIN11_22
 L  MAX11_22
 L  SU11_22
 L  RU11_22
 L  RD11_22
 G  MIN11_23
 L  MAX11_23
 L  SU11_23
 L  RU11_23
 L  RD11_23
 G  MIN12_0
 L  MAX12_0
 G  MIN12_1
 L  MAX12_1
 L  SU12_1
 L  RU12_1
 L  RD12_1
 G  MIN12_2
 L  MAX12_2
 L  SU12_2
 L  RU12_2
 L  RD12_2
 G  MIN12_3
 L  MAX12_3
 L  SU12_3
 L  RU12_3
 L  RD12_3
 G  MIN12_4
 L  MAX12_4
 L  SU12_4
 L  RU12_4
 L  RD12_4
 G  MIN12_5
 L  MAX12_5
 L  SU12_5
 L  RU12_5
 L  RD12_5
 G  MIN12_6
 L  MAX12_6
 L  SU12_6
 L  RU12_6
 L  RD12_6
 G  MIN12_7
 L  MAX12_7
 L  SU12_7
 L  RU12_7
 L  RD12_7
 G  MIN12_8
 L  MAX12_8
 L  SU12_8
 L  RU12_8
 L  RD12_8
 G  MIN12_9
 L  MAX12_9
 L  SU12_9
 L  RU12_9
 L  RD12_9
 G  MIN12_10
 L  MAX12_10
 L  SU12_10
 L  RU12_10
 L  RD12_10
 G  MIN12_11
 L  MAX12_11
 L  SU12_11
 L  RU12_11
 L  RD12_11
 G  MIN12_12
 L  MAX12_12
 L  SU12_12
 L  RU12_12
 L  RD12_12
 G  MIN12_13
 L  MAX12_13
 L  SU12_13
 L  RU12_13
 L  RD12_13
 G  MIN12_14
 L  MAX12_14
 L  SU12_14
 L  RU12_14
 L  RD12_14
 G  MIN12_15
 L  MAX12_15
 L  SU12_15
 L  RU12_15
 L  RD12_15
 G  MIN12_16
 L  MAX12_16
 L  SU12_16
 L  RU12_16
 L  RD12_16
 G  MIN12_17
 L  MAX12_17
 L  SU12_17
 L  RU12_17
 L  RD12_17
 G  MIN12_18
 L  MAX12_18
 L  SU12_18
 L  RU12_18
 L  RD12_18
 G  MIN12_19
 L  MAX12_19
 L  SU12_19
 L  RU12_19
 L  RD12_19
 G  MIN12_20
 L  MAX12_20
 L  SU12_20
 L  RU12_20
 L  RD12_20
 G  MIN12_21
 L  MAX12_21
 L  SU12_21
 L  RU12_21
 L  RD12_21
 G  MIN12_22
 L  MAX12_22
 L  SU12_22
 L  RU12_22
 L  RD12_22
 G  MIN12_23
 L  MAX12_23
 L  SU12_23
 L  RU12_23
 L  RD12_23
 G  MIN13_0
 L  MAX13_0
 G  MIN13_1
 L  MAX13_1
 L  SU13_1
 L  RU13_1
 L  RD13_1
 G  MIN13_2
 L  MAX13_2
 L  SU13_2
 L  RU13_2
 L  RD13_2
 G  MIN13_3
 L  MAX13_3
 L  SU13_3
 L  RU13_3
 L  RD13_3
 G  MIN13_4
 L  MAX13_4
 L  SU13_4
 L  RU13_4
 L  RD13_4
 G  MIN13_5
 L  MAX13_5
 L  SU13_5
 L  RU13_5
 L  RD13_5
 G  MIN13_6
 L  MAX13_6
 L  SU13_6
 L  RU13_6
 L  RD13_6
 G  MIN13_7
 L  MAX13_7
 L  SU13_7
 L  RU13_7
 L  RD13_7
 G  MIN13_8
 L  MAX13_8
 L  SU13_8
 L  RU13_8
 L  RD13_8
 G  MIN13_9
 L  MAX13_9
 L  SU13_9
 L  RU13_9
 L  RD13_9
 G  MIN13_10
 L  MAX13_10
 L  SU13_10
 L  RU13_10
 L  RD13_10
 G  MIN13_11
 L  MAX13_11
 L  SU13_11
 L  RU13_11
 L  RD13_11
 G  MIN13_12
 L  MAX13_12
 L  SU13_12
 L  RU13_12
 L  RD13_12
 G  MIN13_13
 L  MAX13_13
 L  SU13_13
 L  RU13_13
 L  RD13_13
 G  MIN13_14
 L  MAX13_14
 L  SU13_14
 L  RU13_14
 L  RD13_14
 G  MIN13_15
 L  MAX13_15
 L  SU13_15
 L  RU13_15
 L  RD13_15
 G  MIN13_16
 L  MAX13_16
 L  SU13_16
 L  RU13_16
 L  RD13_16
 G  MIN13_17
 L  MAX13_17
 L  SU13_17
 L  RU13_17
 L  RD13_17
 G  MIN13_18
 L  MAX13_18
 L  SU13_18
 L  RU13_18
 L  RD13_18
 G  MIN13_19
 L  MAX13_19
 L  SU13_19
 L  RU13_19
 L  RD13_19
 G  MIN13_20
 L  MAX13_20
 L  SU13_20
 L  RU13_20
 L  RD13_20
 G  MIN13_21
 L  MAX13_21
 L  SU13_21
 L  RU13_21
 L  RD13_21
 G  MIN13_22
 L  MAX13_22
 L  SU13_22
 L  RU13_22
 L  RD13_22
 G  MIN13_23
 L  MAX13_23
 L  SU13_23
 L  RU13_23
 L  RD13_23
 G  BAL0
 G  RES0
 G  BAL1
 G  RES1
 G  BAL2
 G  RES2
 G  BAL3
 G  RES3
 G  BAL4
 G  RES4
 G  BAL5
 G  RES5
 G  BAL6
 G  RES6
 G  BAL7
 G  RES7
 G  BAL8
 G  RES8
 G  BAL9
 G  RES9
 G  BAL10
 G  RES10
 G  BAL11
 G  RES11
 G  BAL12
 G  RES12
 G  BAL13
 G  RES13
 G  BAL14
 G  RES14
 G  BAL15
 G  RES15
 G  BAL16
 G  RES16
 G  BAL17
 G  RES17
 G  BAL18
 G  RES18
 G  BAL19
 G  RES19
 G  BAL20
 G  RES20
 G  BAL21
 G  RES21
 G  BAL22
 G  RES22
 G  BAL23
 G  RES23
COLUMNS
    MARKER0  'MARKER'  'INTORG'
    U0_0  MIN0_0  -31.1457795996
    U0_0  MAX0_0  -85.0011391908
    U0_0  SU0_1  -1
    U0_0  RES0  85.0011391908
    MARKER1  'MARKER'  'INTEND'
    P0_0  COST  37.8058667296
    P0_0  MIN0_0  1
    P0_0  MAX0_0  1
    P0_0  RU0_1  -1
    P0_0  RD0_1  1
    P0_0  BAL0  1
    MARKER2  'MARKER'  'INTORG'
    V0_0  COST  257.125926736
    U0_1  MIN0_1  -31.1457795996
    U0_1  MAX0_1  -85.0011391908
    U0_1  SU0_1  1
    U0_1  SU0_2  -1
    U0_1  RES1  85.0011391908
    MARKER3  'MARKER'  'INTEND'
    P0_1  COST  37.8058667296
    P0_1  MIN0_1  1
    P0_1  MAX0_1  1
    P0_1  RU0_1  1
    P0_1  RD0_1  -1
    P0_1  RU0_2  -1
    P0_1  RD0_2  1
    P0_1  BAL1  1
    MARKER4  'MARKER'  'INTORG'
    V0_1  COST  257.125926736
    V0_1  SU0_1  -1
    U0_2  MIN0_2  -31.1457795996
    U0_2  MAX0_2  -85.0011391908
    U0_2  SU0_2  1
    U0_2  SU0_3  -1
    U0_2  RES2  85.0011391908
    MARKER5  'MARKER'  'INTEND'
    P0_2  COST  37.8058667296
    P0_2  MIN0_2  1
    P0_2  MAX0_2  1
    P0_2  RU0_2  1
    P0_2  RD0_2  -1
    P0_2  RU0_3  -1
    P0_2  RD0_3  1
    P0_2  BAL2  1
    MARKER6  'MARKER'  'INTORG'
    V0_2  COST  257.125926736
    V0_2  SU0_2  -1
    U0_3  MIN0_3  -31.1457795996
    U0_3  MAX0_3  -85.0011391908
    U0_3  SU0_3  1
    U0_3  SU0_4  -1
    U0_3  RES3  85.0011391908
    MARKER7  'MARKER'  'INTEND'
    P0_3  COST  37.8058667296
    P0_3  MIN0_3  1
    P0_3  MAX0_3  1
    P0_3  RU0_3  1
    P0_3  RD0_3  -1
    P0_3  RU0_4  -1
    P0_3  RD0_4  1
    P0_3  BAL3  1
    MARKER8  'MARKER'  'INTORG'
    V0_3  COST  257.125926736
    V0_3  SU0_3  -1
    U0_4  MIN0_4  -31.1457795996
    U0_4  MAX0_4  -85.0011391908
    U0_4  SU0_4  1
    U0_4  SU0_5  -1
    U0_4  RES4  85.0011391908
    MARKER9  'MARKER'  'INTEND'
    P0_4  COST  37.8058667296
    P0_4  MIN0_4  1
    P0_4  MAX0_4  1
    P0_4  RU0_4  1
    P0_4  RD0_4  -1
    P0_4  RU0_5  -1
    P0_4  RD0_5  1
    P0_4  BAL4  1
    MARKER10  'MARKER'  'INTORG'
    V0_4  COST  257.125926736
    V0_4  SU0_4  -1
    U0_5  MIN0_5  -31.1457795996
    U0_5  MAX0_5  -85.0011391908
    U0_5  SU0_5  1
    U0_5  SU0_6  -1
    U0_5  RES5  85.0011391908
    MARKER11  'MARKER'  'INTEND'
    P0_5  COST  37.8058667296
    P0_5  MIN0_5  1
    P0_5  MAX0_5  1
    P0_5  RU0_5  1
    P0_5  RD0_5  -1
    P0_5  RU0_6  -1
    P0_5  RD0_6  1
    P0_5  BAL5  1
    MARKER12  'MARKER'  'INTORG'
    V0_5  COST  257.125926736
    V0_5  SU0_5  -1
    U0_6  MIN0_6  -31.1457795996
    U0_6  MAX0_6  -85.0011391908
    U0_6  SU0_6  1
    U0_6  SU0_7  -1
    U0_6  RES6  85.0011391908
    MARKER13  'MARKER'  'INTEND'
    P0_6  COST  37.8058667296
    P0_6  MIN0_6  1
    P0_6  MAX0_6  1
    P0_6  RU0_6  1
    P0_6  RD0_6  -1
    P0_6  RU0_7  -1
    P0_6  RD0_7  1
    P0_6  BAL6  1
    MARKER14  'MARKER'  'INTORG'
    V0_6  COST  257.125926736
    V0_6  SU0_6  -1
    U0_7  MIN0_7  -31.1457795996
    U0_7  MAX0_7  -85.0011391908
    U0_7  SU0_7  1
    U0_7  SU0_8  -1
    U0_7  RES7  85.0011391908
    MARKER15  'MARKER'  'INTEND'
    P0_7  COST  37.8058667296
    P0_7  MIN0_7  1
    P0_7  MAX0_7  1
    P0_7  RU0_7  1
    P0_7  RD0_7  -1
    P0_7  RU0_8  -1
    P0_7  RD0_8  1
    P0_7  BAL7  1
    MARKER16  'MARKER'  'INTORG'
    V0_7  COST  257.125926736
    V0_7  SU0_7  -1
    U0_8  MIN0_8  -31.1457795996
    U0_8  MAX0_8  -85.0011391908
    U0_8  SU0_8  1
    U0_8  SU0_9  -1
    U0_8  RES8  85.0011391908
    MARKER17  'MARKER'  'INTEND'
    P0_8  COST  37.8058667296
    P0_8  MIN0_8  1
    P0_8  MAX0_8  1
    P0_8  RU0_8  1
    P0_8  RD0_8  -1
    P0_8  RU0_9  -1
    P0_8  RD0_9  1
    P0_8  BAL8  1
    MARKER18  'MARKER'  'INTORG'
    V0_8  COST  257.125926736
    V0_8  SU0_8  -1
    U0_9  MIN0_9  -31.1457795996
    U0_9  MAX0_9  -85.0011391908
    U0_9  SU0_9  1
    U0_9  SU0_10  -1
    U0_9  RES9  85.0011391908
    MARKER19  'MARKER'  'INTEND'
    P0_9  COST  37.8058667296
    P0_9  MIN0_9  1
    P0_9  MAX0_9  1
    P0_9  RU0_9  1
    P0_9  RD0_9  -1
    P0_9  RU0_10  -1
    P0_9  RD0_10  1
    P0_9  BAL9  1
    MARKER20  'MARKER'  'INTORG'
    V0_9  COST  257.125926736
    V0_9  SU0_9  -1
    U0_10  MIN0_10  -31.1457795996
    U0_10  MAX0_10  -85.0011391908
    U0_10  SU0_10  1
    U0_10  SU0_11  -1
    U0_10  RES10  85.0011391908
    MARKER21  'MARKER'  'INTEND'
    P0_10  COST  37.8058667296
    P0_10  MIN0_10  1
    P0_10  MAX0_10  1
    P0_10  RU0_10  1
    P0_10  RD0_10  -1
    P0_10  RU0_11  -1
    P0_10  RD0_11  1
    P0_10  BAL10  1
    MARKER22  'MARKER'  'INTORG'
    V0_10  COST  257.125926736
    V0_10  SU0_10  -1
    U0_11  MIN0_11  -31.1457795996
    U0_11  MAX0_11  -85.0011391908
    U0_11  SU0_11  1
    U0_11  SU0_12  -1
    U0_11  RES11  85.0011391908
    MARKER23  'MARKER'  'INTEND'
    P0_11  COST  37.8058667296
    P0_11  MIN0_11  1
    P0_11  MAX0_11  1
    P0_11  RU0_11  1
    P0_11  RD0_11  -1
    P0_11  RU0_12  -1
    P0_11  RD0_12  1
    P0_11  BAL11  1
    MARKER24  'MARKER'  'INTORG'
    V0_11  COST  257.125926736
    V0_11  SU0_11  -1
    U0_12  MIN0_12  -31.1457795996
    U0_12  MAX0_12  -85.0011391908
    U0_12  SU0_12  1
    U0_12  SU0_13  -1
    U0_12  RES12  85.0011391908
    MARKER25  'MARKER'  'INTEND'
    P0_12  COST  37.8058667296
    P0_12  MIN0_12  1
    P0_12  MAX0_12  1
    P0_12  RU0_12  1
    P0_12  RD0_12  -1
    P0_12  RU0_13  -1
    P0_12  RD0_13  1
    P0_12  BAL12  1
    MARKER26  'MARKER'  'INTORG'
    V0_12  COST  257.125926736
    V0_12  SU0_12  -1
    U0_13  MIN0_13  -31.1457795996
    U0_13  MAX0_13  -85.0011391908
    U0_13  SU0_13  1
    U0_13  SU0_14  -1
    U0_13  RES13  85.0011391908
    MARKER27  'MARKER'  'INTEND'
    P0_13  COST  37.8058667296
    P0_13  MIN0_13  1
    P0_13  MAX0_13  1
    P0_13  RU0_13  1
    P0_13  RD0_13  -1
    P0_13  RU0_14  -1
    P0_13  RD0_14  1
    P0_13  BAL13  1
    MARKER28  'MARKER'  'INTORG'
    V0_13  COST  257.125926736
    V0_13  SU0_13  -1
    U0_14  MIN0_14  -31.1457795996
    U0_14  MAX0_14  -85.0011391908
    U0_14  SU0_14  1
    U0_14  SU0_15  -1
    U0_14  RES14  85.0011391908
    MARKER29  'MARKER'  'INTEND'
    P0_14  COST  37.8058667296
    P0_14  MIN0_14  1
    P0_14  MAX0_14  1
    P0_14  RU0_14  1
    P0_14  RD0_14  -1
    P0_14  RU0_15  -1
    P0_14  RD0_15  1
    P0_14  BAL14  1
    MARKER30  'MARKER'  'INTORG'
    V0_14  COST  257.125926736
    V0_14  SU0_14  -1
    U0_15  MIN0_15  -31.1457795996
    U0_15  MAX0_15  -85.0011391908
    U0_15  SU0_15  1
    U0_15  SU0_16  -1
    U0_15  RES15  85.0011391908
    MARKER31  'MARKER'  'INTEND'
    P0_15  COST  37.8058667296
    P0_15  MIN0_15  1
    P0_15  MAX0_15  1
    P0_15  RU0_15  1
    P0_15  RD0_15  -1
    P0_15  RU0_16  -1
    P0_15  RD0_16  1
    P0_15  BAL15  1
    MARKER32  'MARKER'  'INTORG'
    V0_15  COST  257.125926736
    V0_15  SU0_15  -1
    U0_16  MIN0_16  -31.1457795996
    U0_16  MAX0_16  -85.0011391908
    U0_16  SU0_16  1
    U0_16  SU0_17  -1
    U0_16  RES16  85.0011391908
    MARKER33  'MARKER'  'INTEND'
    P0_16  COST  37.8058667296
    P0_16  MIN0_16  1
    P0_16  MAX0_16  1
    P0_16  RU0_16  1
    P0_16  RD0_16  -1
    P0_16  RU0_17  -1
    P0_16  RD0_17  1
    P0_16  BAL16  1
    MARKER34  'MARKER'  'INTORG'
    V0_16  COST  257.125926736
    V0_16  SU0_16  -1
    U0_17  MIN0_17  -31.1457795996
    U0_17  MAX0_17  -85.0011391908
    U0_17  SU0_17  1
    U0_17  SU0_18  -1
    U0_17  RES17  85.0011391908
    MARKER35  'MARKER'  'INTEND'
    P0_17  COST  37.8058667296
    P0_17  MIN0_17  1
    P0_17  MAX0_17  1
    P0_17  RU0_17  1
    P0_17  RD0_17  -1
    P0_17  RU0_18  -1
    P0_17  RD0_18  1
    P0_17  BAL17  1
    MARKER36  'MARKER'  'INTORG'
    V0_17  COST  257.125926736
    V0_17  SU0_17  -1
    U0_18  MIN0_18  -31.1457795996
    U0_18  MAX0_18  -85.0011391908
    U0_18  SU0_18  1
    U0_18  SU0_19  -1
    U0_18  RES18  85.0011391908
    MARKER37  'MARKER'  'INTEND'
    P0_18  COST  37.8058667296
    P0_18  MIN0_18  1
    P0_18  MAX0_18  1
    P0_18  RU0_18  1
    P0_18  RD0_18  -1
    P0_18  RU0_19  -1
    P0_18  RD0_19  1
    P0_18  BAL18  1
    MARKER38  'MARKER'  'INTORG'
    V0_18  COST  257.125926736
    V0_18  SU0_18  -1
    U0_19  MIN0_19  -31.1457795996
    U0_19  MAX0_19  -85.0011391908
    U0_19  SU0_19  1
    U0_19  SU0_20  -1
    U0_19  RES19  85.0011391908
    MARKER39  'MARKER'  'INTEND'
    P0_19  COST  37.8058667296
    P0_19  MIN0_19  1
    P0_19  MAX0_19  1
    P0_19  RU0_19  1
    P0_19  RD0_19  -1
    P0_19  RU0_20  -1
    P0_19  RD0_20  1
    P0_19  BAL19  1
    MARKER40  'MARKER'  'INTORG'
    V0_19  COST  257.125926736
    V0_19  SU0_19  -1
    U0_20  MIN0_20  -31.1457795996
    U0_20  MAX0_20  -85.0011391908
    U0_20  SU0_20  1
    U0_20  SU0_21  -1
    U0_20  RES20  85.0011391908
    MARKER41  'MARKER'  'INTEND'
    P0_20  COST  37.8058667296
    P0_20  MIN0_20  1
    P0_20  MAX0_20  1
    P0_20  RU0_20  1
    P0_20  RD0_20  -1
    P0_20  RU0_21  -1
    P0_20  RD0_21  1
    P0_20  BAL20  1
    MARKER42  'MARKER'  'INTORG'
    V0_20  COST  257.125926736
    V0_20  SU0_20  -1
    U0_21  MIN0_21  -31.1457795996
    U0_21  MAX0_21  -85.0011391908
    U0_21  SU0_21  1
    U0_21  SU0_22  -1
    U0_21  RES21  85.0011391908
    MARKER43  'MARKER'  'INTEND'
    P0_21  COST  37.8058667296
    P0_21  MIN0_21  1
    P0_21  MAX0_21  1
    P0_21  RU0_21  1
    P0_21  RD0_21  -1
    P0_21  RU0_22  -1
    P0_21  RD0_22  1
    P0_21  BAL21  1
    MARKER44  'MARKER'  'INTORG'
    V0_21  COST  257.125926736
    V0_21  SU0_21  -1
    U0_22  MIN0_22  -31.1457795996
    U0_22  MAX0_22  -85.0011391908
    U0_22  SU0_22  1
    U0_22  SU0_23  -1
    U0_22  RES22  85.0011391908
    MARKER45  'MARKER'  'INTEND'
    P0_22  COST  37.8058667296
    P0_22  MIN0_22  1
    P0_22  MAX0_22  1
    P0_22  RU0_22  1
    P0_22  RD0_22  -1
    P0_22  RU0_23  -1
    P0_22  RD0_23  1
    P0_22  BAL22  1
    MARKER46  'MARKER'  'INTORG'
    V0_22  COST  257.125926736
    V0_22  SU0_22  -1
    U0_23  MIN0_23  -31.1457795996
    U0_23  MAX0_23  -85.0011391908
    U0_23  SU0_23  1
    U0_23  RES23  85.0011391908
    MARKER47  'MARKER'  'INTEND'
    P0_23  COST  37.8058667296
    P0_23  MIN0_23  1
    P0_23  MAX0_23  1
    P0_23  RU0_23  1
    P0_23  RD0_23  -1
    P0_23  BAL23  1
    MARKER48  'MARKER'  'INTORG'
    V0_23  COST  257.125926736
    V0_23  SU0_23  -1
    U1_0  MIN1_0  -37.9723066357
    U1_0  MAX1_0  -196.410895794
    U1_0  SU1_1  -1
    U1_0  RES0  196.410895794
    MARKER49  'MARKER'  'INTEND'
    P1_0  COST  41.5852238655
    P1_0  MIN1_0  1
    P1_0  MAX1_0  1
    P1_0  RU1_1  -1
    P1_0  RD1_1  1
    P1_0  BAL0  1
    MARKER50  'MARKER'  'INTORG'
    V1_0  COST  430.885572314
    U1_1  MIN1_1  -37.9723066357
    U1_1  MAX1_1  -196.410895794
    U1_1  SU1_1  1
    U1_1  SU1_2  -1
    U1_1  RES1  196.410895794
    MARKER51  'MARKER'  'INTEND'
    P1_1  COST  41.5852238655
    P1_1  MIN1_1  1
    P1_1  MAX1_1  1
    P1_1  RU1_1  1
    P1_1  RD1_1  -1
    P1_1  RU1_2  -1
    P1_1  RD1_2  1
    P1_1  BAL1  1
    MARKER52  'MARKER'  'INTORG'
    V1_1  COST  430.885572314
    V1_1  SU1_1  -1
    U1_2  MIN1_2  -37.9723066357
    U1_2  MAX1_2  -196.410895794
    U1_2  SU1_2  1
    U1_2  SU1_3  -1
    U1_2  RES2  196.410895794
    MARKER53  'MARKER'  'INTEND'
    P1_2  COST  41.5852238655
    P1_2  MIN1_2  1
    P1_2  MAX1_2  1
    P1_2  RU1_2  1
    P1_2  RD1_2  -1
    P1_2  RU1_3  -1
    P1_2  RD1_3  1
    P1_2  BAL2  1
    MARKER54  'MARKER'  'INTORG'
    V1_2  COST  430.885572314
    V1_2  SU1_2  -1
    U1_3  MIN1_3  -37.9723066357
    U1_3  MAX1_3  -196.410895794
    U1_3  SU1_3  1
    U1_3  SU1_4  -1
    U1_3  RES3  196.410895794
    MARKER55  'MARKER'  'INTEND'
    P1_3  COST  41.5852238655
    P1_3  MIN1_3  1
    P1_3  MAX1_3  1
    P1_3  RU1_3  1
    P1_3  RD1_3  -1
    P1_3  RU1_4  -1
    P1_3  RD1_4  1
    P1_3  BAL3  1
    MARKER56  'MARKER'  'INTORG'
    V1_3  COST  430.885572314
    V1_3  SU1_3  -1
    U1_4  MIN1_4  -37.9723066357
    U1_4  MAX1_4  -196.410895794
    U1_4  SU1_4  1
    U1_4  SU1_5  -1
    U1_4  RES4  196.410895794
    MARKER57  'MARKER'  'INTEND'
    P1_4  COST  41.5852238655
    P1_4  MIN1_4  1
    P1_4  MAX1_4  1
    P1_4  RU1_4  1
    P1_4  RD1_4  -1
    P1_4  RU1_5  -1
    P1_4  RD1_5  1
    P1_4  BAL4  1
    MARKER58  'MARKER'  'INTORG'
    V1_4  COST  430.885572314
    V1_4  SU1_4  -1
    U1_5  MIN1_5  -37.9723066357
    U1_5  MAX1_5  -196.410895794
    U1_5  SU1_5  1
    U1_5  SU1_6  -1
    U1_5  RES5  196.410895794
    MARKER59  'MARKER'  'INTEND'
    P1_5  COST  41.5852238655
    P1_5  MIN1_5  1
    P1_5  MAX1_5  1
    P1_5  RU1_5  1
    P1_5  RD1_5  -1
    P1_5  RU1_6  -1
    P1_5  RD1_6  1
    P1_5  BAL5  1
    MARKER60  'MARKER'  'INTORG'
    V1_5  COST  430.885572314
    V1_5  SU1_5  -1
    U1_6  MIN1_6  -37.9723066357
    U1_6  MAX1_6  -196.410895794
    U1_6  SU1_6  1
    U1_6  SU1_7  -1
    U1_6  RES6  196.410895794
    MARKER61  'MARKER'  'INTEND'
    P1_6  COST  41.5852238655
    P1_6  MIN1_6  1
    P1_6  MAX1_6  1
    P1_6  RU1_6  1
    P1_6  RD1_6  -1
    P1_6  RU1_7  -1
    P1_6  RD1_7  1
    P1_6  BAL6  1
    MARKER62  'MARKER'  'INTORG'
    V1_6  COST  430.885572314
    V1_6  SU1_6  -1
    U1_7  MIN1_7  -37.9723066357
    U1_7  MAX1_7  -196.410895794
    U1_7  SU1_7  1
    U1_7  SU1_8  -1
    U1_7  RES7  196.410895794
    MARKER63  'MARKER'  'INTEND'
    P1_7  COST  41.5852238655
    P1_7  MIN1_7  1
    P1_7  MAX1_7  1
    P1_7  RU1_7  1
    P1_7  RD1_7  -1
    P1_7  RU1_8  -1
    P1_7  RD1_8  1
    P1_7  BAL7  1
    MARKER64  'MARKER'  'INTORG'
    V1_7  COST  430.885572314
    V1_7  SU1_7  -1
    U1_8  MIN1_8  -37.9723066357
    U1_8  MAX1_8  -196.410895794
    U1_8  SU1_8  1
    U1_8  SU1_9  -1
    U1_8  RES8  196.410895794
    MARKER65  'MARKER'  'INTEND'
    P1_8  COST  41.5852238655
    P1_8  MIN1_8  1
    P1_8  MAX1_8  1
    P1_8  RU1_8  1
    P1_8  RD1_8  -1
    P1_8  RU1_9  -1
    P1_8  RD1_9  1
    P1_8  BAL8  1
    MARKER66  'MARKER'  'INTORG'
    V1_8  COST  430.885572314
    V1_8  SU1_8  -1
    U1_9  MIN1_9  -37.9723066357
    U1_9  MAX1_9  -196.410895794
    U1_9  SU1_9  1
    U1_9  SU1_10  -1
    U1_9  RES9  196.410895794
    MARKER67  'MARKER'  'INTEND'
    P1_9  COST  41.5852238655
    P1_9  MIN1_9  1
    P1_9  MAX1_9  1
    P1_9  RU1_9  1
    P1_9  RD1_9  -1
    P1_9  RU1_10  -1
    P1_9  RD1_10  1
    P1_9  BAL9  1
    MARKER68  'MARKER'  'INTORG'
    V1_9  COST  430.885572314
    V1_9  SU1_9  -1
    U1_10  MIN1_10  -37.9723066357
    U1_10  MAX1_10  -196.410895794
    U1_10  SU1_10  1
    U1_10  SU1_11  -1
    U1_10  RES10  196.410895794
    MARKER69  'MARKER'  'INTEND'
    P1_10  COST  41.5852238655
    P1_10  MIN1_10  1
    P1_10  MAX1_10  1
    P1_10  RU1_10  1
    P1_10  RD1_10  -1
    P1_10  RU1_11  -1
    P1_10  RD1_11  1
    P1_10  BAL10  1
    MARKER70  'MARKER'  'INTORG'
    V1_10  COST  430.885572314
    V1_10  SU1_10  -1
    U1_11  MIN1_11  -37.9723066357
    U1_11  MAX1_11  -196.410895794
    U1_11  SU1_11  1
    U1_11  SU1_12  -1
    U1_11  RES11  196.410895794
    MARKER71  'MARKER'  'INTEND'
    P1_11  COST  41.5852238655
    P1_11  MIN1_11  1
    P1_11  MAX1_11  1
    P1_11  RU1_11  1
    P1_11  RD1_11  -1
    P1_11  RU1_12  -1
    P1_11  RD1_12  1
    P1_11  BAL11  1
    MARKER72  'MARKER'  'INTORG'
    V1_11  COST  430.885572314
    V1_11  SU1_11  -1
    U1_12  MIN1_12  -37.9723066357
    U1_12  MAX1_12  -196.410895794
    U1_12  SU1_12  1
    U1_12  SU1_13  -1
    U1_12  RES12  196.410895794
    MARKER73  'MARKER'  'INTEND'
    P1_12  COST  41.5852238655
    P1_12  MIN1_12  1
    P1_12  MAX1_12  1
    P1_12  RU1_12  1
    P1_12  RD1_12  -1
    P1_12  RU1_13  -1
    P1_12  RD1_13  1
    P1_12  BAL12  1
    MARKER74  'MARKER'  'INTORG'
    V1_12  COST  430.885572314
    V1_12  SU1_12  -1
    U1_13  MIN1_13  -37.9723066357
    U1_13  MAX1_13  -196.410895794
    U1_13  SU1_13  1
    U1_13  SU1_14  -1
    U1_13  RES13  196.410895794
    MARKER75  'MARKER'  'INTEND'
    P1_13  COST  41.5852238655
    P1_13  MIN1_13  1
    P1_13  MAX1_13  1
    P1_13  RU1_13  1
    P1_13  RD1_13  -1
    P1_13  RU1_14  -1
    P1_13  RD1_14  1
    P1_13  BAL13  1
    MARKER76  'MARKER'  'INTORG'
    V1_13  COST  430.885572314
    V1_13  SU1_13  -1
    U1_14  MIN1_14  -37.9723066357
    U1_14  MAX1_14  -196.410895794
    U1_14  SU1_14  1
    U1_14  SU1_15  -1
    U1_14  RES14  196.410895794
    MARKER77  'MARKER'  'INTEND'
    P1_14  COST  41.5852238655
    P1_14  MIN1_14  1
    P1_14  MAX1_14  1
    P1_14  RU1_14  1
    P1_14  RD1_14  -1
    P1_14  RU1_15  -1
    P1_14  RD1_15  1
    P1_14  BAL14  1
    MARKER78  'MARKER'  'INTORG'
    V1_14  COST  430.885572314
    V1_14  SU1_14  -1
    U1_15  MIN1_15  -37.9723066357
    U1_15  MAX1_15  -196.410895794
    U1_15  SU1_15  1
    U1_15  SU1_16  -1
    U1_15  RES15  196.410895794
    MARKER79  'MARKER'  'INTEND'
    P1_15  COST  41.5852238655
    P1_15  MIN1_15  1
    P1_15  MAX1_15  1
    P1_15  RU1_15  1
    P1_15  RD1_15  -1
    P1_15  RU1_16  -1
    P1_15  RD1_16  1
    P1_15  BAL15  1
    MARKER80  'MARKER'  'INTORG'
    V1_15  COST  430.885572314
    V1_15  SU1_15  -1
    U1_16  MIN1_16  -37.9723066357
    U1_16  MAX1_16  -196.410895794
    U1_16  SU1_16  1
    U1_16  SU1_17  -1
    U1_16  RES16  196.410895794
    MARKER81  'MARKER'  'INTEND'
    P1_16  COST  41.5852238655
    P1_16  MIN1_16  1
    P1_16  MAX1_16  1
    P1_16  RU1_16  1
    P1_16  RD1_16  -1
    P1_16  RU1_17  -1
    P1_16  RD1_17  1
    P1_16  BAL16  1
    MARKER82  'MARKER'  'INTORG'
    V1_16  COST  430.885572314
    V1_16  SU1_16  -1
    U1_17  MIN1_17  -37.9723066357
    U1_17  MAX1_17  -196.410895794
    U1_17  SU1_17  1
    U1_17  SU1_18  -1
    U1_17  RES17  196.410895794
    MARKER83  'MARKER'  'INTEND'
    P1_17  COST  41.5852238655
    P1_17  MIN1_17  1
    P1_17  MAX1_17  1
    P1_17  RU1_17  1
    P1_17  RD1_17  -1
    P1_17  RU1_18  -1
    P1_17  RD1_18  1
    P1_17  BAL17  1
    MARKER84  'MARKER'  'INTORG'
    V1_17  COST  430.885572314
    V1_17  SU1_17  -1
    U1_18  MIN1_18  -37.9723066357
    U1_18  MAX1_18  -196.410895794
    U1_18  SU1_18  1
    U1_18  SU1_19  -1
    U1_18  RES18  196.410895794
    MARKER85  'MARKER'  'INTEND'
    P1_18  COST  41.5852238655
    P1_18  MIN1_18  1
    P1_18  MAX1_18  1
    P1_18  RU1_18  1
    P1_18  RD1_18  -1
    P1_18  RU1_19  -1
    P1_18  RD1_19  1
    P1_18  BAL18  1
    MARKER86  'MARKER'  'INTORG'
    V1_18  COST  430.885572314
    V1_18  SU1_18  -1
    U1_19  MIN1_19  -37.9723066357
    U1_19  MAX1_19  -196.410895794
    U1_19  SU1_19  1
    U1_19  SU1_20  -1
    U1_19  RES19  196.410895794
    MARKER87  'MARKER'  'INTEND'
    P1_19  COST  41.5852238655
    P1_19  MIN1_19  1
    P1_19  MAX1_19  1
    P1_19  RU1_19  1
    P1_19  RD1_19  -1
    P1_19  RU1_20  -1
    P1_19  RD1_20  1
    P1_19  BAL19  1
    MARKER88  'MARKER'  'INTORG'
    V1_19  COST  430.885572314
    V1_19  SU1_19  -1
    U1_20  MIN1_20  -37.9723066357
    U1_20  MAX1_20  -196.410895794
    U1_20  SU1_20  1
    U1_20  SU1_21  -1
    U1_20  RES20  196.410895794
    MARKER89  'MARKER'  'INTEND'
    P1_20  COST  41.5852238655
    P1_20  MIN1_20  1
    P1_20  MAX1_20  1
    P1_20  RU1_20  1
    P1_20  RD1_20  -1
    P1_20  RU1_21  -1
    P1_20  RD1_21  1
    P1_20  BAL20  1
    MARKER90  'MARKER'  'INTORG'
    V1_20  COST  430.885572314
    V1_20  SU1_20  -1
    U1_21  MIN1_21  -37.9723066357
    U1_21  MAX1_21  -196.410895794
    U1_21  SU1_21  1
    U1_21  SU1_22  -1
    U1_21  RES21  196.410895794
    MARKER91  'MARKER'  'INTEND'
    P1_21  COST  41.5852238655
    P1_21  MIN1_21  1
    P1_21  MAX1_21  1
    P1_21  RU1_21  1
    P1_21  RD1_21  -1
    P1_21  RU1_22  -1
    P1_21  RD1_22  1
    P1_21  BAL21  1
    MARKER92  'MARKER'  'INTORG'
    V1_21  COST  430.885572314
    V1_21  SU1_21  -1
    U1_22  MIN1_22  -37.9723066357
    U1_22  MAX1_22  -196.410895794
    U1_22  SU1_22  1
    U1_22  SU1_23  -1
    U1_22  RES22  196.410895794
    MARKER93  'MARKER'  'INTEND'
    P1_22  COST  41.5852238655
    P1_22  MIN1_22  1
    P1_22  MAX1_22  1
    P1_22  RU1_22  1
    P1_22  RD1_22  -1
    P1_22  RU1_23  -1
    P1_22  RD1_23  1
    P1_22  BAL22  1
    MARKER94  'MARKER'  'INTORG'
    V1_22  COST  430.885572314
    V1_22  SU1_22  -1
    U1_23  MIN1_23  -37.9723066357
    U1_23  MAX1_23  -196.410895794
    U1_23  SU1_23  1
    U1_23  RES23  196.410895794
    MARKER95  'MARKER'  'INTEND'
    P1_23  COST  41.5852238655
    P1_23  MIN1_23  1
    P1_23  MAX1_23  1
    P1_23  RU1_23  1
    P1_23  RD1_23  -1
    P1_23  BAL23  1
    MARKER96  'MARKER'  'INTORG'
    V1_23  COST  430.885572314
    V1_23  SU1_23  -1
    U2_0  MIN2_0  -19.2613332354
    U2_0  MAX2_0  -127.253546745
    U2_0  SU2_1  -1
    U2_0  RES0  127.253546745
    MARKER97  'MARKER'  'INTEND'
    P2_0  COST  27.8033890188
    P2_0  MIN2_0  1
    P2_0  MAX2_0  1
    P2_0  RU2_1  -1
    P2_0  RD2_1  1
    P2_0  BAL0  1
    MARKER98  'MARKER'  'INTORG'
    V2_0  COST  411.937850852
    U2_1  MIN2_1  -19.2613332354
    U2_1  MAX2_1  -127.253546745
    U2_1  SU2_1  1
    U2_1  SU2_2  -1
    U2_1  RES1  127.253546745
    MARKER99  'MARKER'  'INTEND'
    P2_1  COST  27.8033890188
    P2_1  MIN2_1  1
    P2_1  MAX2_1  1
    P2_1  RU2_1  1
    P2_1  RD2_1  -1
    P2_1  RU2_2  -1
    P2_1  RD2_2  1
    P2_1  BAL1  1
    MARKER100  'MARKER'  'INTORG'
    V2_1  COST  411.937850852
    V2_1  SU2_1  -1
    U2_2  MIN2_2  -19.2613332354
    U2_2  MAX2_2  -127.253546745
    U2_2  SU2_2  1
    U2_2  SU2_3  -1
    U2_2  RES2  127.253546745
    MARKER101  'MARKER'  'INTEND'
    P2_2  COST  27.8033890188
    P2_2  MIN2_2  1
    P2_2  MAX2_2  1
    P2_2  RU2_2  1
    P2_2  RD2_2  -1
    P2_2  RU2_3  -1
    P2_2  RD2_3  1
    P2_2  BAL2  1
    MARKER102  'MARKER'  'INTORG'
    V2_2  COST  411.937850852
    V2_2  SU2_2  -1
    U2_3  MIN2_3  -19.2613332354
    U2_3  MAX2_3  -127.253546745
    U2_3  SU2_3  1
    U2_3  SU2_4  -1
    U2_3  RES3  127.253546745
    MARKER103  'MARKER'  'INTEND'
    P2_3  COST  27.8033890188
    P2_3  MIN2_3  1
    P2_3  MAX2_3  1
    P2_3  RU2_3  1
    P2_3  RD2_3  -1
    P2_3  RU2_4  -1
    P2_3  RD2_4  1
    P2_3  BAL3  1
    MARKER104  'MARKER'  'INTORG'
    V2_3  COST  411.937850852
    V2_3  SU2_3  -1
    U2_4  MIN2_4  -19.2613332354
    U2_4  MAX2_4  -127.253546745
    U2_4  SU2_4  1
    U2_4  SU2_5  -1
    U2_4  RES4  127.253546745
    MARKER105  'MARKER'  'INTEND'
    P2_4  COST  27.8033890188
    P2_4  MIN2_4  1
    P2_4  MAX2_4  1
    P2_4  RU2_4  1
    P2_4  RD2_4  -1
    P2_4  RU2_5  -1
    P2_4  RD2_5  1
    P2_4  BAL4  1
    MARKER106  'MARKER'  'INTORG'
    V2_4  COST  411.937850852
    V2_4  SU2_4  -1
    U2_5  MIN2_5  -19.2613332354
    U2_5  MAX2_5  -127.253546745
    U2_5  SU2_5  1
    U2_5  SU2_6  -1
    U2_5  RES5  127.253546745
    MARKER107  'MARKER'  'INTEND'
    P2_5  COST  27.8033890188
    P2_5  MIN2_5  1
    P2_5  MAX2_5  1
    P2_5  RU2_5  1
    P2_5  RD2_5  -1
    P2_5  RU2_6  -1
    P2_5  RD2_6  1
    P2_5  BAL5  1
    MARKER108  'MARKER'  'INTORG'
    V2_5  COST  411.937850852
    V2_5  SU2_5  -1
    U2_6  MIN2_6  -19.2613332354
    U2_6  MAX2_6  -127.253546745
    U2_6  SU2_6  1
    U2_6  SU2_7  -1
    U2_6  RES6  127.253546745
    MARKER109  'MARKER'  'INTEND'
    P2_6  COST  27.8033890188
    P2_6  MIN2_6  1
    P2_6  MAX2_6  1
    P2_6  RU2_6  1
    P2_6  RD2_6  -1
    P2_6  RU2_7  -1
    P2_6  RD2_7  1
    P2_6  BAL6  1
    MARKER110  'MARKER'  'INTORG'
    V2_6  COST  411.937850852
    V2_6  SU2_6  -1
    U2_7  MIN2_7  -19.2613332354
    U2_7  MAX2_7  -127.253546745
    U2_7  SU2_7  1
    U2_7  SU2_8  -1
    U2_7  RES7  127.253546745
    MARKER111  'MARKER'  'INTEND'
    P2_7  COST  27.8033890188
    P2_7  MIN2_7  1
    P2_7  MAX2_7  1
    P2_7  RU2_7  1
    P2_7  RD2_7  -1
    P2_7  RU2_8  -1
    P2_7  RD2_8  1
    P2_7  BAL7  1
    MARKER112  'MARKER'  'INTORG'
    V2_7  COST  411.937850852
    V2_7  SU2_7  -1
    U2_8  MIN2_8  -19.2613332354
    U2_8  MAX2_8  -127.253546745
    U2_8  SU2_8  1
    U2_8  SU2_9  -1
    U2_8  RES8  127.253546745
    MARKER113  'MARKER'  'INTEND'
    P2_8  COST  27.8033890188
    P2_8  MIN2_8  1
    P2_8  MAX2_8  1
    P2_8  RU2_8  1
    P2_8  RD2_8  -1
    P2_8  RU2_9  -1
    P2_8  RD2_9  1
    P2_8  BAL8  1
    MARKER114  'MARKER'  'INTORG'
    V2_8  COST  411.937850852
    V2_8  SU2_8  -1
    U2_9  MIN2_9  -19.2613332354
    U2_9  MAX2_9  -127.253546745
    U2_9  SU2_9  1
    U2_9  SU2_10  -1
    U2_9  RES9  127.253546745
    MARKER115  'MARKER'  'INTEND'
    P2_9  COST  27.8033890188
    P2_9  MIN2_9  1
    P2_9  MAX2_9  1
    P2_9  RU2_9  1
    P2_9  RD2_9  -1
    P2_9  RU2_10  -1
    P2_9  RD2_10  1
    P2_9  BAL9  1
    MARKER116  'MARKER'  'INTORG'
    V2_9  COST  411.937850852
    V2_9  SU2_9  -1
    U2_10  MIN2_10  -19.2613332354
    U2_10  MAX2_10  -127.253546745
    U2_10  SU2_10  1
    U2_10  SU2_11  -1
    U2_10  RES10  127.253546745
    MARKER117  'MARKER'  'INTEND'
    P2_10  COST  27.8033890188
    P2_10  MIN2_10  1
    P2_10  MAX2_10  1
    P2_10  RU2_10  1
    P2_10  RD2_10  -1
    P2_10  RU2_11  -1
    P2_10  RD2_11  1
    P2_10  BAL10  1
    MARKER118  'MARKER'  'INTORG'
    V2_10  COST  411.937850852
    V2_10  SU2_10  -1
    U2_11  MIN2_11  -19.2613332354
    U2_11  MAX2_11  -127.253546745
    U2_11  SU2_11  1
    U2_11  SU2_12  -1
    U2_11  RES11  127.253546745
    MARKER119  'MARKER'  'INTEND'
    P2_11  COST  27.8033890188
    P2_11  MIN2_11  1
    P2_11  MAX2_11  1
    P2_11  RU2_11  1
    P2_11  RD2_11  -1
    P2_11  RU2_12  -1
    P2_11  RD2_12  1
    P2_11  BAL11  1
    MARKER120  'MARKER'  'INTORG'
    V2_11  COST  411.937850852
    V2_11  SU2_11  -1
    U2_12  MIN2_12  -19.2613332354
    U2_12  MAX2_12  -127.253546745
    U2_12  SU2_12  1
    U2_12  SU2_13  -1
    U2_12  RES12  127.253546745
    MARKER121  'MARKER'  'INTEND'
    P2_12  COST  27.8033890188
    P2_12  MIN2_12  1
    P2_12  MAX2_12  1
    P2_12  RU2_12  1
    P2_12  RD2_12  -1
    P2_12  RU2_13  -1
    P2_12  RD2_13  1
    P2_12  BAL12  1
    MARKER122  'MARKER'  'INTORG'
    V2_12  COST  411.937850852
    V2_12  SU2_12  -1
    U2_13  MIN2_13  -19.2613332354
    U2_13  MAX2_13  -127.253546745
    U2_13  SU2_13  1
    U2_13  SU2_14  -1
    U2_13  RES13  127.253546745
    MARKER123  'MARKER'  'INTEND'
    P2_13  COST  27.8033890188
    P2_13  MIN2_13  1
    P2_13  MAX2_13  1
    P2_13  RU2_13  1
    P2_13  RD2_13  -1
    P2_13  RU2_14  -1
    P2_13  RD2_14  1
    P2_13  BAL13  1
    MARKER124  'MARKER'  'INTORG'
    V2_13  COST  411.937850852
    V2_13  SU2_13  -1
    U2_14  MIN2_14  -19.2613332354
    U2_14  MAX2_14  -127.253546745
    U2_14  SU2_14  1
    U2_14  SU2_15  -1
    U2_14  RES14  127.253546745
    MARKER125  'MARKER'  'INTEND'
    P2_14  COST  27.8033890188
    P2_14  MIN2_14  1
    P2_14  MAX2_14  1
    P2_14  RU2_14  1
    P2_14  RD2_14  -1
    P2_14  RU2_15  -1
    P2_14  RD2_15  1
    P2_14  BAL14  1
    MARKER126  'MARKER'  'INTORG'
    V2_14  COST  411.937850852
    V2_14  SU2_14  -1
    U2_15  MIN2_15  -19.2613332354
    U2_15  MAX2_15  -127.253546745
    U2_15  SU2_15  1
    U2_15  SU2_16  -1
    U2_15  RES15  127.253546745
    MARKER127  'MARKER'  'INTEND'
    P2_15  COST  27.8033890188
    P2_15  MIN2_15  1
    P2_15  MAX2_15  1
    P2_15  RU2_15  1
    P2_15  RD2_15  -1
    P2_15  RU2_16  -1
    P2_15  RD2_16  1
    P2_15  BAL15  1
    MARKER128  'MARKER'  'INTORG'
    V2_15  COST  411.937850852
    V2_15  SU2_15  -1
    U2_16  MIN2_16  -19.2613332354
    U2_16  MAX2_16  -127.253546745
    U2_16  SU2_16  1
    U2_16  SU2_17  -1
    U2_16  RES16  127.253546745
    MARKER129  'MARKER'  'INTEND'
    P2_16  COST  27.8033890188
    P2_16  MIN2_16  1
    P2_16  MAX2_16  1
    P2_16  RU2_16  1
    P2_16  RD2_16  -1
    P2_16  RU2_17  -1
    P2_16  RD2_17  1
    P2_16  BAL16  1
    MARKER130  'MARKER'  'INTORG'
    V2_16  COST  411.937850852
    V2_16  SU2_16  -1
    U2_17  MIN2_17  -19.2613332354
    U2_17  MAX2_17  -127.253546745
    U2_17  SU2_17  1
    U2_17  SU2_18  -1
    U2_17  RES17  127.253546745
    MARKER131  'MARKER'  'INTEND'
    P2_17  COST  27.8033890188
    P2_17  MIN2_17  1
    P2_17  MAX2_17  1
    P2_17  RU2_17  1
    P2_17  RD2_17  -1
    P2_17  RU2_18  -1
    P2_17  RD2_18  1
    P2_17  BAL17  1
    MARKER132  'MARKER'  'INTORG'
    V2_17  COST  411.937850852
    V2_17  SU2_17  -1
    U2_18  MIN2_18  -19.2613332354
    U2_18  MAX2_18  -127.253546745
    U2_18  SU2_18  1
    U2_18  SU2_19  -1
    U2_18  RES18  127.253546745
    MARKER133  'MARKER'  'INTEND'
    P2_18  COST  27.8033890188
    P2_18  MIN2_18  1
    P2_18  MAX2_18  1
    P2_18  RU2_18  1
    P2_18  RD2_18  -1
    P2_18  RU2_19  -1
    P2_18  RD2_19  1
    P2_18  BAL18  1
    MARKER134  'MARKER'  'INTORG'
    V2_18  COST  411.937850852
    V2_18  SU2_18  -1
    U2_19  MIN2_19  -19.2613332354
    U2_19  MAX2_19  -127.253546745
    U2_19  SU2_19  1
    U2_19  SU2_20  -1
    U2_19  RES19  127.253546745
    MARKER135  'MARKER'  'INTEND'
    P2_19  COST  27.8033890188
    P2_19  MIN2_19  1
    P2_19  MAX2_19  1
    P2_19  RU2_19  1
    P2_19  RD2_19  -1
    P2_19  RU2_20  -1
    P2_19  RD2_20  1
    P2_19  BAL19  1
    MARKER136  'MARKER'  'INTORG'
    V2_19  COST  411.937850852
    V2_19  SU2_19  -1
    U2_20  MIN2_20  -19.2613332354
    U2_20  MAX2_20  -127.253546745
    U2_20  SU2_20  1
    U2_20  SU2_21  -1
    U2_20  RES20  127.253546745
    MARKER137  'MARKER'  'INTEND'
    P2_20  COST  27.8033890188
    P2_20  MIN2_20  1
    P2_20  MAX2_20  1
    P2_20  RU2_20  1
    P2_20  RD2_20  -1
    P2_20  RU2_21  -1
    P2_20  RD2_21  1
    P2_20  BAL20  1
    MARKER138  'MARKER'  'INTORG'
    V2_20  COST  411.937850852
    V2_20  SU2_20  -1
    U2_21  MIN2_21  -19.2613332354
    U2_21  MAX2_21  -127.253546745
    U2_21  SU2_21  1
    U2_21  SU2_22  -1
    U2_21  RES21  127.253546745
    MARKER139  'MARKER'  'INTEND'
    P2_21  COST  27.8033890188
    P2_21  MIN2_21  1
    P2_21  MAX2_21  1
    P2_21  RU2_21  1
    P2_21  RD2_21  -1
    P2_21  RU2_22  -1
    P2_21  RD2_22  1
    P2_21  BAL21  1
    MARKER140  'MARKER'  'INTORG'
    V2_21  COST  411.937850852
    V2_21  SU2_21  -1
    U2_22  MIN2_22  -19.2613332354
    U2_22  MAX2_22  -127.253546745
    U2_22  SU2_22  1
    U2_22  SU2_23  -1
    U2_22  RES22  127.253546745
    MARKER141  'MARKER'  'INTEND'
    P2_22  COST  27.8033890188
    P2_22  MIN2_22  1
    P2_22  MAX2_22  1
    P2_22  RU2_22  1
    P2_22  RD2_22  -1
    P2_22  RU2_23  -1
    P2_22  RD2_23  1
    P2_22  BAL22  1
    MARKER142  'MARKER'  'INTORG'
    V2_22  COST  411.937850852
    V2_22  SU2_22  -1
    U2_23  MIN2_23  -19.2613332354
    U2_23  MAX2_23  -127.253546745
    U2_23  SU2_23  1
    U2_23  RES23  127.253546745
    MARKER143  'MARKER'  'INTEND'
    P2_23  COST  27.8033890188
    P2_23  MIN2_23  1
    P2_23  MAX2_23  1
    P2_23  RU2_23  1
    P2_23  RD2_23  -1
    P2_23  BAL23  1
    MARKER144  'MARKER'  'INTORG'
    V2_23  COST  411.937850852
    V2_23  SU2_23  -1
    U3_0  MIN3_0  -35.3355738623
    U3_0  MAX3_0  -123.321381144
    U3_0  SU3_1  -1
    U3_0  RES0  123.321381144
    MARKER145  'MARKER'  'INTEND'
    P3_0  COST  38.2382337649
    P3_0  MIN3_0  1
    P3_0  MAX3_0  1
    P3_0  RU3_1  -1
    P3_0  RD3_1  1
    P3_0  BAL0  1
    MARKER146  'MARKER'  'INTORG'
    V3_0  COST  588.570645342
    U3_1  MIN3_1  -35.3355738623
    U3_1  MAX3_1  -123.321381144
    U3_1  SU3_1  1
    U3_1  SU3_2  -1
    U3_1  RES1  123.321381144
    MARKER147  'MARKER'  'INTEND'
    P3_1  COST  38.2382337649
    P3_1  MIN3_1  1
    P3_1  MAX3_1  1
    P3_1  RU3_1  1
    P3_1  RD3_1  -1
    P3_1  RU3_2  -1
    P3_1  RD3_2  1
    P3_1  BAL1  1
    MARKER148  'MARKER'  'INTORG'
    V3_1  COST  588.570645342
    V3_1  SU3_1  -1
    U3_2  MIN3_2  -35.3355738623
    U3_2  MAX3_2  -123.321381144
    U3_2  SU3_2  1
    U3_2  SU3_3  -1
    U3_2  RES2  123.321381144
    MARKER149  'MARKER'  'INTEND'
    P3_2  COST  38.2382337649
    P3_2  MIN3_2  1
    P3_2  MAX3_2  1
    P3_2  RU3_2  1
    P3_2  RD3_2  -1
    P3_2  RU3_3  -1
    P3_2  RD3_3  1
    P3_2  BAL2  1
    MARKER150  'MARKER'  'INTORG'
    V3_2  COST  588.570645342
    V3_2  SU3_2  -1
    U3_3  MIN3_3  -35.3355738623
    U3_3  MAX3_3  -123.321381144
    U3_3  SU3_3  1
    U3_3  SU3_4  -1
    U3_3  RES3  123.321381144
    MARKER151  'MARKER'  'INTEND'
    P3_3  COST  38.2382337649
    P3_3  MIN3_3  1
    P3_3  MAX3_3  1
    P3_3  RU3_3  1
    P3_3  RD3_3  -1
    P3_3  RU3_4  -1
    P3_3  RD3_4  1
    P3_3  BAL3  1
    MARKER152  'MARKER'  'INTORG'
    V3_3  COST  588.570645342
    V3_3  SU3_3  -1
    U3_4  MIN3_4  -35.3355738623
    U3_4  MAX3_4  -123.321381144
    U3_4  SU3_4  1
    U3_4  SU3_5  -1
    U3_4  RES4  123.321381144
    MARKER153  'MARKER'  'INTEND'
    P3_4  COST  38.2382337649
    P3_4  MIN3_4  1
    P3_4  MAX3_4  1
    P3_4  RU3_4  1
    P3_4  RD3_4  -1
    P3_4  RU3_5  -1
    P3_4  RD3_5  1
    P3_4  BAL4  1
    MARKER154  'MARKER'  'INTORG'
    V3_4  COST  588.570645342
    V3_4  SU3_4  -1
    U3_5  MIN3_5  -35.3355738623
    U3_5  MAX3_5  -123.321381144
    U3_5  SU3_5  1
    U3_5  SU3_6  -1
    U3_5  RES5  123.321381144
    MARKER155  'MARKER'  'INTEND'
    P3_5  COST  38.2382337649
    P3_5  MIN3_5  1
    P3_5  MAX3_5  1
    P3_5  RU3_5  1
    P3_5  RD3_5  -1
    P3_5  RU3_6  -1
    P3_5  RD3_6  1
    P3_5  BAL5  1
    MARKER156  'MARKER'  'INTORG'
    V3_5  COST  588.570645342
    V3_5  SU3_5  -1
    U3_6  MIN3_6  -35.3355738623
    U3_6  MAX3_6  -123.321381144
    U3_6  SU3_6  1
    U3_6  SU3_7  -1
    U3_6  RES6  123.321381144
    MARKER157  'MARKER'  'INTEND'
    P3_6  COST  38.2382337649
    P3_6  MIN3_6  1
    P3_6  MAX3_6  1
    P3_6  RU3_6  1
    P3_6  RD3_6  -1
    P3_6  RU3_7  -1
    P3_6  RD3_7  1
    P3_6  BAL6  1
    MARKER158  'MARKER'  'INTORG'
    V3_6  COST  588.570645342
    V3_6  SU3_6  -1
    U3_7  MIN3_7  -35.3355738623
    U3_7  MAX3_7  -123.321381144
    U3_7  SU3_7  1
    U3_7  SU3_8  -1
    U3_7  RES7  123.321381144
    MARKER159  'MARKER'  'INTEND'
    P3_7  COST  38.2382337649
    P3_7  MIN3_7  1
    P3_7  MAX3_7  1
    P3_7  RU3_7  1
    P3_7  RD3_7  -1
    P3_7  RU3_8  -1
    P3_7  RD3_8  1
    P3_7  BAL7  1
    MARKER160  'MARKER'  'INTORG'
    V3_7  COST  588.570645342
    V3_7  SU3_7  -1
    U3_8  MIN3_8  -35.3355738623
    U3_8  MAX3_8  -123.321381144
    U3_8  SU3_8  1
    U3_8  SU3_9  -1
    U3_8  RES8  123.321381144
    MARKER161  'MARKER'  'INTEND'
    P3_8  COST  38.2382337649
    P3_8  MIN3_8  1
    P3_8  MAX3_8  1
    P3_8  RU3_8  1
    P3_8  RD3_8  -1
    P3_8  RU3_9  -1
    P3_8  RD3_9  1
    P3_8  BAL8  1
    MARKER162  'MARKER'  'INTORG'
    V3_8  COST  588.570645342
    V3_8  SU3_8  -1
    U3_9  MIN3_9  -35.3355738623
    U3_9  MAX3_9  -123.321381144
    U3_9  SU3_9  1
    U3_9  SU3_10  -1
    U3_9  RES9  123.321381144
    MARKER163  'MARKER'  'INTEND'
    P3_9  COST  38.2382337649
    P3_9  MIN3_9  1
    P3_9  MAX3_9  1
    P3_9  RU3_9  1
    P3_9  RD3_9  -1
    P3_9  RU3_10  -1
    P3_9  RD3_10  1
    P3_9  BAL9  1
    MARKER164  'MARKER'  'INTORG'
    V3_9  COST  588.570645342
    V3_9  SU3_9  -1
    U3_10  MIN3_10  -35.3355738623
    U3_10  MAX3_10  -123.321381144
    U3_10  SU3_10  1
    U3_10  SU3_11  -1
    U3_10  RES10  123.321381144
    MARKER165  'MARKER'  'INTEND'
    P3_10  COST  38.2382337649
    P3_10  MIN3_10  1
    P3_10  MAX3_10  1
    P3_10  RU3_10  1
    P3_10  RD3_10  -1
    P3_10  RU3_11  -1
    P3_10  RD3_11  1
    P3_10  BAL10  1
    MARKER166  'MARKER'  'INTORG'
    V3_10  COST  588.570645342
    V3_10  SU3_10  -1
    U3_11  MIN3_11  -35.3355738623
    U3_11  MAX3_11  -123.321381144
    U3_11  SU3_11  1
    U3_11  SU3_12  -1
    U3_11  RES11  123.321381144
    MARKER167  'MARKER'  'INTEND'
    P3_11  COST  38.2382337649
    P3_11  MIN3_11  1
    P3_11  MAX3_11  1
    P3_11  RU3_11  1
    P3_11  RD3_11  -1
    P3_11  RU3_12  -1
    P3_11  RD3_12  1
    P3_11  BAL11  1
    MARKER168  'MARKER'  'INTORG'
    V3_11  COST  588.570645342
    V3_11  SU3_11  -1
    U3_12  MIN3_12  -35.3355738623
    U3_12  MAX3_12  -123.321381144
    U3_12  SU3_12  1
    U3_12  SU3_13  -1
    U3_12  RES12  123.321381144
    MARKER169  'MARKER'  'INTEND'
    P3_12  COST  38.2382337649
    P3_12  MIN3_12  1
    P3_12  MAX3_12  1
    P3_12  RU3_12  1
    P3_12  RD3_12  -1
    P3_12  RU3_13  -1
    P3_12  RD3_13  1
    P3_12  BAL12  1
    MARKER170  'MARKER'  'INTORG'
    V3_12  COST  588.570645342
    V3_12  SU3_12  -1
    U3_13  MIN3_13  -35.3355738623
    U3_13  MAX3_13  -123.321381144
    U3_13  SU3_13  1
    U3_13  SU3_14  -1
    U3_13  RES13  123.321381144
    MARKER171  'MARKER'  'INTEND'
    P3_13  COST  38.2382337649
    P3_13  MIN3_13  1
    P3_13  MAX3_13  1
    P3_13  RU3_13  1
    P3_13  RD3_13  -1
    P3_13  RU3_14  -1
    P3_13  RD3_14  1
    P3_13  BAL13  1
    MARKER172  'MARKER'  'INTORG'
    V3_13  COST  588.570645342
    V3_13  SU3_13  -1
    U3_14  MIN3_14  -35.3355738623
    U3_14  MAX3_14  -123.321381144
    U3_14  SU3_14  1
    U3_14  SU3_15  -1
    U3_14  RES14  123.321381144
    MARKER173  'MARKER'  'INTEND'
    P3_14  COST  38.2382337649
    P3_14  MIN3_14  1
    P3_14  MAX3_14  1
    P3_14  RU3_14  1
    P3_14  RD3_14  -1
    P3_14  RU3_15  -1
    P3_14  RD3_15  1
    P3_14  BAL14  1
    MARKER174  'MARKER'  'INTORG'
    V3_14  COST  588.570645342
    V3_14  SU3_14  -1
    U3_15  MIN3_15  -35.3355738623
    U3_15  MAX3_15  -123.321381144
    U3_15  SU3_15  1
    U3_15  SU3_16  -1
    U3_15  RES15  123.321381144
    MARKER175  'MARKER'  'INTEND'
    P3_15  COST  38.2382337649
    P3_15  MIN3_15  1
    P3_15  MAX3_15  1
    P3_15  RU3_15  1
    P3_15  RD3_15  -1
    P3_15  RU3_16  -1
    P3_15  RD3_16  1
    P3_15  BAL15  1
    MARKER176  'MARKER'  'INTORG'
    V3_15  COST  588.570645342
    V3_15  SU3_15  -1
    U3_16  MIN3_16  -35.3355738623
    U3_16  MAX3_16  -123.321381144
    U3_16  SU3_16  1
    U3_16  SU3_17  -1
    U3_16  RES16  123.321381144
    MARKER177  'MARKER'  'INTEND'
    P3_16  COST  38.2382337649
    P3_16  MIN3_16  1
    P3_16  MAX3_16  1
    P3_16  RU3_16  1
    P3_16  RD3_16  -1
    P3_16  RU3_17  -1
    P3_16  RD3_17  1
    P3_16  BAL16  1
    MARKER178  'MARKER'  'INTORG'
    V3_16  COST  588.570645342
    V3_16  SU3_16  -1
    U3_17  MIN3_17  -35.3355738623
    U3_17  MAX3_17  -123.321381144
    U3_17  SU3_17  1
    U3_17  SU3_18  -1
    U3_17  RES17  123.321381144
    MARKER179  'MARKER'  'INTEND'
    P3_17  COST  38.2382337649
    P3_17  MIN3_17  1
    P3_17  MAX3_17  1
    P3_17  RU3_17  1
    P3_17  RD3_17  -1
    P3_17  RU3_18  -1
    P3_17  RD3_18  1
    P3_17  BAL17  1
    MARKER180  'MARKER'  'INTORG'
    V3_17  COST  588.570645342
    V3_17  SU3_17  -1
    U3_18  MIN3_18  -35.3355738623
    U3_18  MAX3_18  -123.321381144
    U3_18  SU3_18  1
    U3_18  SU3_19  -1
    U3_18  RES18  123.321381144
    MARKER181  'MARKER'  'INTEND'
    P3_18  COST  38.2382337649
    P3_18  MIN3_18  1
    P3_18  MAX3_18  1
    P3_18  RU3_18  1
    P3_18  RD3_18  -1
    P3_18  RU3_19  -1
    P3_18  RD3_19  1
    P3_18  BAL18  1
    MARKER182  'MARKER'  'INTORG'
    V3_18  COST  588.570645342
    V3_18  SU3_18  -1
    U3_19  MIN3_19  -35.3355738623
    U3_19  MAX3_19  -123.321381144
    U3_19  SU3_19  1
    U3_19  SU3_20  -1
    U3_19  RES19  123.321381144
    MARKER183  'MARKER'  'INTEND'
    P3_19  COST  38.2382337649
    P3_19  MIN3_19  1
    P3_19  MAX3_19  1
    P3_19  RU3_19  1
    P3_19  RD3_19  -1
    P3_19  RU3_20  -1
    P3_19  RD3_20  1
    P3_19  BAL19  1
    MARKER184  'MARKER'  'INTORG'
    V3_19  COST  588.570645342
    V3_19  SU3_19  -1
    U3_20  MIN3_20  -35.3355738623
    U3_20  MAX3_20  -123.321381144
    U3_20  SU3_20  1
    U3_20  SU3_21  -1
    U3_20  RES20  123.321381144
    MARKER185  'MARKER'  'INTEND'
    P3_20  COST  38.2382337649
    P3_20  MIN3_20  1
    P3_20  MAX3_20  1
    P3_20  RU3_20  1
    P3_20  RD3_20  -1
    P3_20  RU3_21  -1
    P3_20  RD3_21  1
    P3_20  BAL20  1
    MARKER186  'MARKER'  'INTORG'
    V3_20  COST  588.570645342
    V3_20  SU3_20  -1
    U3_21  MIN3_21  -35.3355738623
    U3_21  MAX3_21  -123.321381144
    U3_21  SU3_21  1
    U3_21  SU3_22  -1
    U3_21  RES21  123.321381144
    MARKER187  'MARKER'  'INTEND'
    P3_21  COST  38.2382337649
    P3_21  MIN3_21  1
    P3_21  MAX3_21  1
    P3_21  RU3_21  1
    P3_21  RD3_21  -1
    P3_21  RU3_22  -1
    P3_21  RD3_22  1
    P3_21  BAL21  1
    MARKER188  'MARKER'  'INTORG'
    V3_21  COST  588.570645342
    V3_21  SU3_21  -1
    U3_22  MIN3_22  -35.3355738623
    U3_22  MAX3_22  -123.321381144
    U3_22  SU3_22  1
    U3_22  SU3_23  -1
    U3_22  RES22  123.321381144
    MARKER189  'MARKER'  'INTEND'
    P3_22  COST  38.2382337649
    P3_22  MIN3_22  1
    P3_22  MAX3_22  1
    P3_22  RU3_22  1
    P3_22  RD3_22  -1
    P3_22  RU3_23  -1
    P3_22  RD3_23  1
    P3_22  BAL22  1
    MARKER190  'MARKER'  'INTORG'
    V3_22  COST  588.570645342
    V3_22  SU3_22  -1
    U3_23  MIN3_23  -35.3355738623
    U3_23  MAX3_23  -123.321381144
    U3_23  SU3_23  1
    U3_23  RES23  123.321381144
    MARKER191  'MARKER'  'INTEND'
    P3_23  COST  38.2382337649
    P3_23  MIN3_23  1
    P3_23  MAX3_23  1
    P3_23  RU3_23  1
    P3_23  RD3_23  -1
    P3_23  BAL23  1
    MARKER192  'MARKER'  'INTORG'
    V3_23  COST  588.570645342
    V3_23  SU3_23  -1
    U4_0  MIN4_0  -26.7530357092
    U4_0  MAX4_0  -122.844497362
    U4_0  SU4_1  -1
    U4_0  RES0  122.844497362
    MARKER193  'MARKER'  'INTEND'
    P4_0  COST  19.0298033491
    P4_0  MIN4_0  1
    P4_0  MAX4_0  1
    P4_0  RU4_1  -1
    P4_0  RD4_1  1
    P4_0  BAL0  1
    MARKER194  'MARKER'  'INTORG'
    V4_0  COST  469.841562386
    U4_1  MIN4_1  -26.7530357092
    U4_1  MAX4_1  -122.844497362
    U4_1  SU4_1  1
    U4_1  SU4_2  -1
    U4_1  RES1  122.844497362
    MARKER195  'MARKER'  'INTEND'
    P4_1  COST  19.0298033491
    P4_1  MIN4_1  1
    P4_1  MAX4_1  1
    P4_1  RU4_1  1
    P4_1  RD4_1  -1
    P4_1  RU4_2  -1
    P4_1  RD4_2  1
    P4_1  BAL1  1
    MARKER196  'MARKER'  'INTORG'
    V4_1  COST  469.841562386
    V4_1  SU4_1  -1
    U4_2  MIN4_2  -26.7530357092
    U4_2  MAX4_2  -122.844497362
    U4_2  SU4_2  1
    U4_2  SU4_3  -1
    U4_2  RES2  122.844497362
    MARKER197  'MARKER'  'INTEND'
    P4_2  COST  19.0298033491
    P4_2  MIN4_2  1
    P4_2  MAX4_2  1
    P4_2  RU4_2  1
    P4_2  RD4_2  -1
    P4_2  RU4_3  -1
    P4_2  RD4_3  1
    P4_2  BAL2  1
    MARKER198  'MARKER'  'INTORG'
    V4_2  COST  469.841562386
    V4_2  SU4_2  -1
    U4_3  MIN4_3  -26.7530357092
    U4_3  MAX4_3  -122.844497362
    U4_3  SU4_3  1
    U4_3  SU4_4  -1
    U4_3  RES3  122.844497362
    MARKER199  'MARKER'  'INTEND'
    P4_3  COST  19.0298033491
    P4_3  MIN4_3  1
    P4_3  MAX4_3  1
    P4_3  RU4_3  1
    P4_3  RD4_3  -1
    P4_3  RU4_4  -1
    P4_3  RD4_4  1
    P4_3  BAL3  1
    MARKER200  'MARKER'  'INTORG'
    V4_3  COST  469.841562386
    V4_3  SU4_3  -1
    U4_4  MIN4_4  -26.7530357092
    U4_4  MAX4_4  -122.844497362
    U4_4  SU4_4  1
    U4_4  SU4_5  -1
    U4_4  RES4  122.844497362
    MARKER201  'MARKER'  'INTEND'
    P4_4  COST  19.0298033491
    P4_4  MIN4_4  1
    P4_4  MAX4_4  1
    P4_4  RU4_4  1
    P4_4  RD4_4  -1
    P4_4  RU4_5  -1
    P4_4  RD4_5  1
    P4_4  BAL4  1
    MARKER202  'MARKER'  'INTORG'
    V4_4  COST  469.841562386
    V4_4  SU4_4  -1
    U4_5  MIN4_5  -26.7530357092
    U4_5  MAX4_5  -122.844497362
    U4_5  SU4_5  1
    U4_5  SU4_6  -1
    U4_5  RES5  122.844497362
    MARKER203  'MARKER'  'INTEND'
    P4_5  COST  19.0298033491
    P4_5  MIN4_5  1
    P4_5  MAX4_5  1
    P4_5  RU4_5  1
    P4_5  RD4_5  -1
    P4_5  RU4_6  -1
    P4_5  RD4_6  1
    P4_5  BAL5  1
    MARKER204  'MARKER'  'INTORG'
    V4_5  COST  469.841562386
    V4_5  SU4_5  -1
    U4_6  MIN4_6  -26.7530357092
    U4_6  MAX4_6  -122.844497362
    U4_6  SU4_6  1
    U4_6  SU4_7  -1
    U4_6  RES6  122.844497362
    MARKER205  'MARKER'  'INTEND'
    P4_6  COST  19.0298033491
    P4_6  MIN4_6  1
    P4_6  MAX4_6  1
    P4_6  RU4_6  1
    P4_6  RD4_6  -1
    P4_6  RU4_7  -1
    P4_6  RD4_7  1
    P4_6  BAL6  1
    MARKER206  'MARKER'  'INTORG'
    V4_6  COST  469.841562386
    V4_6  SU4_6  -1
    U4_7  MIN4_7  -26.7530357092
    U4_7  MAX4_7  -122.844497362
    U4_7  SU4_7  1
    U4_7  SU4_8  -1
    U4_7  RES7  122.844497362
    MARKER207  'MARKER'  'INTEND'
    P4_7  COST  19.0298033491
    P4_7  MIN4_7  1
    P4_7  MAX4_7  1
    P4_7  RU4_7  1
    P4_7  RD4_7  -1
    P4_7  RU4_8  -1
    P4_7  RD4_8  1
    P4_7  BAL7  1
    MARKER208  'MARKER'  'INTORG'
    V4_7  COST  469.841562386
    V4_7  SU4_7  -1
    U4_8  MIN4_8  -26.7530357092
    U4_8  MAX4_8  -122.844497362
    U4_8  SU4_8  1
    U4_8  SU4_9  -1
    U4_8  RES8  122.844497362
    MARKER209  'MARKER'  'INTEND'
    P4_8  COST  19.0298033491
    P4_8  MIN4_8  1
    P4_8  MAX4_8  1
    P4_8  RU4_8  1
    P4_8  RD4_8  -1
    P4_8  RU4_9  -1
    P4_8  RD4_9  1
    P4_8  BAL8  1
    MARKER210  'MARKER'  'INTORG'
    V4_8  COST  469.841562386
    V4_8  SU4_8  -1
    U4_9  MIN4_9  -26.7530357092
    U4_9  MAX4_9  -122.844497362
    U4_9  SU4_9  1
    U4_9  SU4_10  -1
    U4_9  RES9  122.844497362
    MARKER211  'MARKER'  'INTEND'
    P4_9  COST  19.0298033491
    P4_9  MIN4_9  1
    P4_9  MAX4_9  1
    P4_9  RU4_9  1
    P4_9  RD4_9  -1
    P4_9  RU4_10  -1
    P4_9  RD4_10  1
    P4_9  BAL9  1
    MARKER212  'MARKER'  'INTORG'
    V4_9  COST  469.841562386
    V4_9  SU4_9  -1
    U4_10  MIN4_10  -26.7530357092
    U4_10  MAX4_10  -122.844497362
    U4_10  SU4_10  1
    U4_10  SU4_11  -1
    U4_10  RES10  122.844497362
    MARKER213  'MARKER'  'INTEND'
    P4_10  COST  19.0298033491
    P4_10  MIN4_10  1
    P4_10  MAX4_10  1
    P4_10  RU4_10  1
    P4_10  RD4_10  -1
    P4_10  RU4_11  -1
    P4_10  RD4_11  1
    P4_10  BAL10  1
    MARKER214  'MARKER'  'INTORG'
    V4_10  COST  469.841562386
    V4_10  SU4_10  -1
    U4_11  MIN4_11  -26.7530357092
    U4_11  MAX4_11  -122.844497362
    U4_11  SU4_11  1
    U4_11  SU4_12  -1
    U4_11  RES11  122.844497362
    MARKER215  'MARKER'  'INTEND'
    P4_11  COST  19.0298033491
    P4_11  MIN4_11  1
    P4_11  MAX4_11  1
    P4_11  RU4_11  1
    P4_11  RD4_11  -1
    P4_11  RU4_12  -1
    P4_11  RD4_12  1
    P4_11  BAL11  1
    MARKER216  'MARKER'  'INTORG'
    V4_11  COST  469.841562386
    V4_11  SU4_11  -1
    U4_12  MIN4_12  -26.7530357092
    U4_12  MAX4_12  -122.844497362
    U4_12  SU4_12  1
    U4_12  SU4_13  -1
    U4_12  RES12  122.844497362
    MARKER217  'MARKER'  'INTEND'
    P4_12  COST  19.0298033491
    P4_12  MIN4_12  1
    P4_12  MAX4_12  1
    P4_12  RU4_12  1
    P4_12  RD4_12  -1
    P4_12  RU4_13  -1
    P4_12  RD4_13  1
    P4_12  BAL12  1
    MARKER218  'MARKER'  'INTORG'
    V4_12  COST  469.841562386
    V4_12  SU4_12  -1
    U4_13  MIN4_13  -26.7530357092
    U4_13  MAX4_13  -122.844497362
    U4_13  SU4_13  1
    U4_13  SU4_14  -1
    U4_13  RES13  122.844497362
    MARKER219  'MARKER'  'INTEND'
    P4_13  COST  19.0298033491
    P4_13  MIN4_13  1
    P4_13  MAX4_13  1
    P4_13  RU4_13  1
    P4_13  RD4_13  -1
    P4_13  RU4_14  -1
    P4_13  RD4_14  1
    P4_13  BAL13  1
    MARKER220  'MARKER'  'INTORG'
    V4_13  COST  469.841562386
    V4_13  SU4_13  -1
    U4_14  MIN4_14  -26.7530357092
    U4_14  MAX4_14  -122.844497362
    U4_14  SU4_14  1
    U4_14  SU4_15  -1
    U4_14  RES14  122.844497362
    MARKER221  'MARKER'  'INTEND'
    P4_14  COST  19.0298033491
    P4_14  MIN4_14  1
    P4_14  MAX4_14  1
    P4_14  RU4_14  1
    P4_14  RD4_14  -1
    P4_14  RU4_15  -1
    P4_14  RD4_15  1
    P4_14  BAL14  1
    MARKER222  'MARKER'  'INTORG'
    V4_14  COST  469.841562386
    V4_14  SU4_14  -1
    U4_15  MIN4_15  -26.7530357092
    U4_15  MAX4_15  -122.844497362
    U4_15  SU4_15  1
    U4_15  SU4_16  -1
    U4_15  RES15  122.844497362
    MARKER223  'MARKER'  'INTEND'
    P4_15  COST  19.0298033491
    P4_15  MIN4_15  1
    P4_15  MAX4_15  1
    P4_15  RU4_15  1
    P4_15  RD4_15  -1
    P4_15  RU4_16  -1
    P4_15  RD4_16  1
    P4_15  BAL15  1
    MARKER224  'MARKER'  'INTORG'
    V4_15  COST  469.841562386
    V4_15  SU4_15  -1
    U4_16  MIN4_16  -26.7530357092
    U4_16  MAX4_16  -122.844497362
    U4_16  SU4_16  1
    U4_16  SU4_17  -1
    U4_16  RES16  122.844497362
    MARKER225  'MARKER'  'INTEND'
    P4_16  COST  19.0298033491
    P4_16  MIN4_16  1
    P4_16  MAX4_16  1
    P4_16  RU4_16  1
    P4_16  RD4_16  -1
    P4_16  RU4_17  -1
    P4_16  RD4_17  1
    P4_16  BAL16  1
    MARKER226  'MARKER'  'INTORG'
    V4_16  COST  469.841562386
    V4_16  SU4_16  -1
    U4_17  MIN4_17  -26.7530357092
    U4_17  MAX4_17  -122.844497362
    U4_17  SU4_17  1
    U4_17  SU4_18  -1
    U4_17  RES17  122.844497362
    MARKER227  'MARKER'  'INTEND'
    P4_17  COST  19.0298033491
    P4_17  MIN4_17  1
    P4_17  MAX4_17  1
    P4_17  RU4_17  1
    P4_17  RD4_17  -1
    P4_17  RU4_18  -1
    P4_17  RD4_18  1
    P4_17  BAL17  1
    MARKER228  'MARKER'  'INTORG'
    V4_17  COST  469.841562386
    V4_17  SU4_17  -1
    U4_18  MIN4_18  -26.7530357092
    U4_18  MAX4_18  -122.844497362
    U4_18  SU4_18  1
    U4_18  SU4_19  -1
    U4_18  RES18  122.844497362
    MARKER229  'MARKER'  'INTEND'
    P4_18  COST  19.0298033491
    P4_18  MIN4_18  1
    P4_18  MAX4_18  1
    P4_18  RU4_18  1
    P4_18  RD4_18  -1
    P4_18  RU4_19  -1
    P4_18  RD4_19  1
    P4_18  BAL18  1
    MARKER230  'MARKER'  'INTORG'
    V4_18  COST  469.841562386
    V4_18  SU4_18  -1
    U4_19  MIN4_19  -26.7530357092
    U4_19  MAX4_19  -122.844497362
    U4_19  SU4_19  1
    U4_19  SU4_20  -1
    U4_19  RES19  122.844497362
    MARKER231  'MARKER'  'INTEND'
    P4_19  COST  19.0298033491
    P4_19  MIN4_19  1
    P4_19  MAX4_19  1
    P4_19  RU4_19  1
    P4_19  RD4_19  -1
    P4_19  RU4_20  -1
    P4_19  RD4_20  1
    P4_19  BAL19  1
    MARKER232  'MARKER'  'INTORG'
    V4_19  COST  469.841562386
    V4_19  SU4_19  -1
    U4_20  MIN4_20  -26.7530357092
    U4_20  MAX4_20  -122.844497362
    U4_20  SU4_20  1
    U4_20  SU4_21  -1
    U4_20  RES20  122.844497362
    MARKER233  'MARKER'  'INTEND'
    P4_20  COST  19.0298033491
    P4_20  MIN4_20  1
    P4_20  MAX4_20  1
    P4_20  RU4_20  1
    P4_20  RD4_20  -1
    P4_20  RU4_21  -1
    P4_20  RD4_21  1
    P4_20  BAL20  1
    MARKER234  'MARKER'  'INTORG'
    V4_20  COST  469.841562386
    V4_20  SU4_20  -1
    U4_21  MIN4_21  -26.7530357092
    U4_21  MAX4_21  -122.844497362
    U4_21  SU4_21  1
    U4_21  SU4_22  -1
    U4_21  RES21  122.844497362
    MARKER235  'MARKER'  'INTEND'
    P4_21  COST  19.0298033491
    P4_21  MIN4_21  1
    P4_21  MAX4_21  1
    P4_21  RU4_21  1
    P4_21  RD4_21  -1
    P4_21  RU4_22  -1
    P4_21  RD4_22  1
    P4_21  BAL21  1
    MARKER236  'MARKER'  'INTORG'
    V4_21  COST  469.841562386
    V4_21  SU4_21  -1
    U4_22  MIN4_22  -26.7530357092
    U4_22  MAX4_22  -122.844497362
    U4_22  SU4_22  1
    U4_22  SU4_23  -1
    U4_22  RES22  122.844497362
    MARKER237  'MARKER'  'INTEND'
    P4_22  COST  19.0298033491
    P4_22  MIN4_22  1
    P4_22  MAX4_22  1
    P4_22  RU4_22  1
    P4_22  RD4_22  -1
    P4_22  RU4_23  -1
    P4_22  RD4_23  1
    P4_22  BAL22  1
    MARKER238  'MARKER'  'INTORG'
    V4_22  COST  469.841562386
    V4_22  SU4_22  -1
    U4_23  MIN4_23  -26.7530357092
    U4_23  MAX4_23  -122.844497362
    U4_23  SU4_23  1
    U4_23  RES23  122.844497362
    MARKER239  'MARKER'  'INTEND'
    P4_23  COST  19.0298033491
    P4_23  MIN4_23  1
    P4_23  MAX4_23  1
    P4_23  RU4_23  1
    P4_23  RD4_23  -1
    P4_23  BAL23  1
    MARKER240  'MARKER'  'INTORG'
    V4_23  COST  469.841562386
    V4_23  SU4_23  -1
    U5_0  MIN5_0  -13.4894194569
    U5_0  MAX5_0  -173.199059933
    U5_0  SU5_1  -1
    U5_0  RES0  173.199059933
    MARKER241  'MARKER'  'INTEND'
    P5_0  COST  37.2706458174
    P5_0  MIN5_0  1
    P5_0  MAX5_0  1
    P5_0  RU5_1  -1
    P5_0  RD5_1  1
    P5_0  BAL0  1
    MARKER242  'MARKER'  'INTORG'
    V5_0  COST  438.857772573
    U5_1  MIN5_1  -13.4894194569
    U5_1  MAX5_1  -173.199059933
    U5_1  SU5_1  1
    U5_1  SU5_2  -1
    U5_1  RES1  173.199059933
    MARKER243  'MARKER'  'INTEND'
    P5_1  COST  37.2706458174
    P5_1  MIN5_1  1
    P5_1  MAX5_1  1
    P5_1  RU5_1  1
    P5_1  RD5_1  -1
    P5_1  RU5_2  -1
    P5_1  RD5_2  1
    P5_1  BAL1  1
    MARKER244  'MARKER'  'INTORG'
    V5_1  COST  438.857772573
    V5_1  SU5_1  -1
    U5_2  MIN5_2  -13.4894194569
    U5_2  MAX5_2  -173.199059933
    U5_2  SU5_2  1
    U5_2  SU5_3  -1
    U5_2  RES2  173.199059933
    MARKER245  'MARKER'  'INTEND'
    P5_2  COST  37.2706458174
    P5_2  MIN5_2  1
    P5_2  MAX5_2  1
    P5_2  RU5_2  1
    P5_2  RD5_2  -1
    P5_2  RU5_3  -1
    P5_2  RD5_3  1
    P5_2  BAL2  1
    MARKER246  'MARKER'  'INTORG'
    V5_2  COST  438.857772573
    V5_2  SU5_2  -1
    U5_3  MIN5_3  -13.4894194569
    U5_3  MAX5_3  -173.199059933
    U5_3  SU5_3  1
    U5_3  SU5_4  -1
    U5_3  RES3  173.199059933
    MARKER247  'MARKER'  'INTEND'
    P5_3  COST  37.2706458174
    P5_3  MIN5_3  1
    P5_3  MAX5_3  1
    P5_3  RU5_3  1
    P5_3  RD5_3  -1
    P5_3  RU5_4  -1
    P5_3  RD5_4  1
    P5_3  BAL3  1
    MARKER248  'MARKER'  'INTORG'
    V5_3  COST  438.857772573
    V5_3  SU5_3  -1
    U5_4  MIN5_4  -13.4894194569
    U5_4  MAX5_4  -173.199059933
    U5_4  SU5_4  1
    U5_4  SU5_5  -1
    U5_4  RES4  173.199059933
    MARKER249  'MARKER'  'INTEND'
    P5_4  COST  37.2706458174
    P5_4  MIN5_4  1
    P5_4  MAX5_4  1
    P5_4  RU5_4  1
    P5_4  RD5_4  -1
    P5_4  RU5_5  -1
    P5_4  RD5_5  1
    P5_4  BAL4  1
    MARKER250  'MARKER'  'INTORG'
    V5_4  COST  438.857772573
    V5_4  SU5_4  -1
    U5_5  MIN5_5  -13.4894194569
    U5_5  MAX5_5  -173.199059933
    U5_5  SU5_5  1
    U5_5  SU5_6  -1
    U5_5  RES5  173.199059933
    MARKER251  'MARKER'  'INTEND'
    P5_5  COST  37.2706458174
    P5_5  MIN5_5  1
    P5_5  MAX5_5  1
    P5_5  RU5_5  1
    P5_5  RD5_5  -1
    P5_5  RU5_6  -1
    P5_5  RD5_6  1
    P5_5  BAL5  1
    MARKER252  'MARKER'  'INTORG'
    V5_5  COST  438.857772573
    V5_5  SU5_5  -1
    U5_6  MIN5_6  -13.4894194569
    U5_6  MAX5_6  -173.199059933
    U5_6  SU5_6  1
    U5_6  SU5_7  -1
    U5_6  RES6  173.199059933
    MARKER253  'MARKER'  'INTEND'
    P5_6  COST  37.2706458174
    P5_6  MIN5_6  1
    P5_6  MAX5_6  1
    P5_6  RU5_6  1
    P5_6  RD5_6  -1
    P5_6  RU5_7  -1
    P5_6  RD5_7  1
    P5_6  BAL6  1
    MARKER254  'MARKER'  'INTORG'
    V5_6  COST  438.857772573
    V5_6  SU5_6  -1
    U5_7  MIN5_7  -13.4894194569
    U5_7  MAX5_7  -173.199059933
    U5_7  SU5_7  1
    U5_7  SU5_8  -1
    U5_7  RES7  173.199059933
    MARKER255  'MARKER'  'INTEND'
    P5_7  COST  37.2706458174
    P5_7  MIN5_7  1
    P5_7  MAX5_7  1
    P5_7  RU5_7  1
    P5_7  RD5_7  -1
    P5_7  RU5_8  -1
    P5_7  RD5_8  1
    P5_7  BAL7  1
    MARKER256  'MARKER'  'INTORG'
    V5_7  COST  438.857772573
    V5_7  SU5_7  -1
    U5_8  MIN5_8  -13.4894194569
    U5_8  MAX5_8  -173.199059933
    U5_8  SU5_8  1
    U5_8  SU5_9  -1
    U5_8  RES8  173.199059933
    MARKER257  'MARKER'  'INTEND'
    P5_8  COST  37.2706458174
    P5_8  MIN5_8  1
    P5_8  MAX5_8  1
    P5_8  RU5_8  1
    P5_8  RD5_8  -1
    P5_8  RU5_9  -1
    P5_8  RD5_9  1
    P5_8  BAL8  1
    MARKER258  'MARKER'  'INTORG'
    V5_8  COST  438.857772573
    V5_8  SU5_8  -1
    U5_9  MIN5_9  -13.4894194569
    U5_9  MAX5_9  -173.199059933
    U5_9  SU5_9  1
    U5_9  SU5_10  -1
    U5_9  RES9  173.199059933
    MARKER259  'MARKER'  'INTEND'
    P5_9  COST  37.2706458174
    P5_9  MIN5_9  1
    P5_9  MAX5_9  1
    P5_9  RU5_9  1
    P5_9  RD5_9  -1
    P5_9  RU5_10  -1
    P5_9  RD5_10  1
    P5_9  BAL9  1
    MARKER260  'MARKER'  'INTORG'
    V5_9  COST  438.857772573
    V5_9  SU5_9  -1
    U5_10  MIN5_10  -13.4894194569
    U5_10  MAX5_10  -173.199059933
    U5_10  SU5_10  1
    U5_10  SU5_11  -1
    U5_10  RES10  173.199059933
    MARKER261  'MARKER'  'INTEND'
    P5_10  COST  37.2706458174
    P5_10  MIN5_10  1
    P5_10  MAX5_10  1
    P5_10  RU5_10  1
    P5_10  RD5_10  -1
    P5_10  RU5_11  -1
    P5_10  RD5_11  1
    P5_10  BAL10  1
    MARKER262  'MARKER'  'INTORG'
    V5_10  COST  438.857772573
    V5_10  SU5_10  -1
    U5_11  MIN5_11  -13.4894194569
    U5_11  MAX5_11  -173.199059933
    U5_11  SU5_11  1
    U5_11  SU5_12  -1
    U5_11  RES11  173.199059933
    MARKER263  'MARKER'  'INTEND'
    P5_11  COST  37.2706458174
    P5_11  MIN5_11  1
    P5_11  MAX5_11  1
    P5_11  RU5_11  1
    P5_11  RD5_11  -1
    P5_11  RU5_12  -1
    P5_11  RD5_12  1
    P5_11  BAL11  1
    MARKER264  'MARKER'  'INTORG'
    V5_11  COST  438.857772573
    V5_11  SU5_11  -1
    U5_12  MIN5_12  -13.4894194569
    U5_12  MAX5_12  -173.199059933
    U5_12  SU5_12  1
    U5_12  SU5_13  -1
    U5_12  RES12  173.199059933
    MARKER265  'MARKER'  'INTEND'
    P5_12  COST  37.2706458174
    P5_12  MIN5_12  1
    P5_12  MAX5_12  1
    P5_12  RU5_12  1
    P5_12  RD5_12  -1
    P5_12  RU5_13  -1
    P5_12  RD5_13  1
    P5_12  BAL12  1
    MARKER266  'MARKER'  'INTORG'
    V5_12  COST  438.857772573
    V5_12  SU5_12  -1
    U5_13  MIN5_13  -13.4894194569
    U5_13  MAX5_13  -173.199059933
    U5_13  SU5_13  1
    U5_13  SU5_14  -1
    U5_13  RES13  173.199059933
    MARKER267  'MARKER'  'INTEND'
    P5_13  COST  37.2706458174
    P5_13  MIN5_13  1
    P5_13  MAX5_13  1
    P5_13  RU5_13  1
    P5_13  RD5_13  -1
    P5_13  RU5_14  -1
    P5_13  RD5_14  1
    P5_13  BAL13  1
    MARKER268  'MARKER'  'INTORG'
    V5_13  COST  438.857772573
    V5_13  SU5_13  -1
    U5_14  MIN5_14  -13.4894194569
    U5_14  MAX5_14  -173.199059933
    U5_14  SU5_14  1
    U5_14  SU5_15  -1
    U5_14  RES14  173.199059933
    MARKER269  'MARKER'  'INTEND'
    P5_14  COST  37.2706458174
    P5_14  MIN5_14  1
    P5_14  MAX5_14  1
    P5_14  RU5_14  1
    P5_14  RD5_14  -1
    P5_14  RU5_15  -1
    P5_14  RD5_15  1
    P5_14  BAL14  1
    MARKER270  'MARKER'  'INTORG'
    V5_14  COST  438.857772573
    V5_14  SU5_14  -1
    U5_15  MIN5_15  -13.4894194569
    U5_15  MAX5_15  -173.199059933
    U5_15  SU5_15  1
    U5_15  SU5_16  -1
    U5_15  RES15  173.199059933
    MARKER271  'MARKER'  'INTEND'
    P5_15  COST  37.2706458174
    P5_15  MIN5_15  1
    P5_15  MAX5_15  1
    P5_15  RU5_15  1
    P5_15  RD5_15  -1
    P5_15  RU5_16  -1
    P5_15  RD5_16  1
    P5_15  BAL15  1
    MARKER272  'MARKER'  'INTORG'
    V5_15  COST  438.857772573
    V5_15  SU5_15  -1
    U5_16  MIN5_16  -13.4894194569
    U5_16  MAX5_16  -173.199059933
    U5_16  SU5_16  1
    U5_16  SU5_17  -1
    U5_16  RES16  173.199059933
    MARKER273  'MARKER'  'INTEND'
    P5_16  COST  37.2706458174
    P5_16  MIN5_16  1
    P5_16  MAX5_16  1
    P5_16  RU5_16  1
    P5_16  RD5_16  -1
    P5_16  RU5_17  -1
    P5_16  RD5_17  1
    P5_16  BAL16  1
    MARKER274  'MARKER'  'INTORG'
    V5_16  COST  438.857772573
    V5_16  SU5_16  -1
    U5_17  MIN5_17  -13.4894194569
    U5_17  MAX5_17  -173.199059933
    U5_17  SU5_17  1
    U5_17  SU5_18  -1
    U5_17  RES17  173.199059933
    MARKER275  'MARKER'  'INTEND'
    P5_17  COST  37.2706458174
    P5_17  MIN5_17  1
    P5_17  MAX5_17  1
    P5_17  RU5_17  1
    P5_17  RD5_17  -1
    P5_17  RU5_18  -1
    P5_17  RD5_18  1
    P5_17  BAL17  1
    MARKER276  'MARKER'  'INTORG'
    V5_17  COST  438.857772573
    V5_17  SU5_17  -1
    U5_18  MIN5_18  -13.4894194569
    U5_18  MAX5_18  -173.199059933
    U5_18  SU5_18  1
    U5_18  SU5_19  -1
    U5_18  RES18  173.199059933
    MARKER277  'MARKER'  'INTEND'
    P5_18  COST  37.2706458174
    P5_18  MIN5_18  1
    P5_18  MAX5_18  1
    P5_18  RU5_18  1
    P5_18  RD5_18  -1
    P5_18  RU5_19  -1
    P5_18  RD5_19  1
    P5_18  BAL18  1
    MARKER278  'MARKER'  'INTORG'
    V5_18  COST  438.857772573
    V5_18  SU5_18  -1
    U5_19  MIN5_19  -13.4894194569
    U5_19  MAX5_19  -173.199059933
    U5_19  SU5_19  1
    U5_19  SU5_20  -1
    U5_19  RES19  173.199059933
    MARKER279  'MARKER'  'INTEND'
    P5_19  COST  37.2706458174
    P5_19  MIN5_19  1
    P5_19  MAX5_19  1
    P5_19  RU5_19  1
    P5_19  RD5_19  -1
    P5_19  RU5_20  -1
    P5_19  RD5_20  1
    P5_19  BAL19  1
    MARKER280  'MARKER'  'INTORG'
    V5_19  COST  438.857772573
    V5_19  SU5_19  -1
    U5_20  MIN5_20  -13.4894194569
    U5_20  MAX5_20  -173.199059933
    U5_20  SU5_20  1
    U5_20  SU5_21  -1
    U5_20  RES20  173.199059933
    MARKER281  'MARKER'  'INTEND'
    P5_20  COST  37.2706458174
    P5_20  MIN5_20  1
    P5_20  MAX5_20  1
    P5_20  RU5_20  1
    P5_20  RD5_20  -1
    P5_20  RU5_21  -1
    P5_20  RD5_21  1
    P5_20  BAL20  1
    MARKER282  'MARKER'  'INTORG'
    V5_20  COST  438.857772573
    V5_20  SU5_20  -1
    U5_21  MIN5_21  -13.4894194569
    U5_21  MAX5_21  -173.199059933
    U5_21  SU5_21  1
    U5_21  SU5_22  -1
    U5_21  RES21  173.199059933
    MARKER283  'MARKER'  'INTEND'
    P5_21  COST  37.2706458174
    P5_21  MIN5_21  1
    P5_21  MAX5_21  1
    P5_21  RU5_21  1
    P5_21  RD5_21  -1
    P5_21  RU5_22  -1
    P5_21  RD5_22  1
    P5_21  BAL21  1
    MARKER284  'MARKER'  'INTORG'
    V5_21  COST  438.857772573
    V5_21  SU5_21  -1
    U5_22  MIN5_22  -13.4894194569
    U5_22  MAX5_22  -173.199059933
    U5_22  SU5_22  1
    U5_22  SU5_23  -1
    U5_22  RES22  173.199059933
    MARKER285  'MARKER'  'INTEND'
    P5_22  COST  37.2706458174
    P5_22  MIN5_22  1
    P5_22  MAX5_22  1
    P5_22  RU5_22  1
    P5_22  RD5_22  -1
    P5_22  RU5_23  -1
    P5_22  RD5_23  1
    P5_22  BAL22  1
    MARKER286  'MARKER'  'INTORG'
    V5_22  COST  438.857772573
    V5_22  SU5_22  -1
    U5_23  MIN5_23  -13.4894194569
    U5_23  MAX5_23  -173.199059933
    U5_23  SU5_23  1
    U5_23  RES23  173.199059933
    MARKER287  'MARKER'  'INTEND'
    P5_23  COST  37.2706458174
    P5_23  MIN5_23  1
    P5_23  MAX5_23  1
    P5_23  RU5_23  1
    P5_23  RD5_23  -1
    P5_23  BAL23  1
    MARKER288  'MARKER'  'INTORG'
    V5_23  COST  438.857772573
    V5_23  SU5_23  -1
    U6_0  MIN6_0  -33.5515425123
    U6_0  MAX6_0  -84.7779598454
    U6_0  SU6_1  -1
    U6_0  RES0  84.7779598454
    MARKER289  'MARKER'  'INTEND'
    P6_0  COST  17.1000675907
    P6_0  MIN6_0  1
    P6_0  MAX6_0  1
    P6_0  RU6_1  -1
    P6_0  RD6_1  1
    P6_0  BAL0  1
    MARKER290  'MARKER'  'INTORG'
    V6_0  COST  559.06764687
    U6_1  MIN6_1  -33.5515425123
    U6_1  MAX6_1  -84.7779598454
    U6_1  SU6_1  1
    U6_1  SU6_2  -1
    U6_1  RES1  84.7779598454
    MARKER291  'MARKER'  'INTEND'
    P6_1  COST  17.1000675907
    P6_1  MIN6_1  1
    P6_1  MAX6_1  1
    P6_1  RU6_1  1
    P6_1  RD6_1  -1
    P6_1  RU6_2  -1
    P6_1  RD6_2  1
    P6_1  BAL1  1
    MARKER292  'MARKER'  'INTORG'
    V6_1  COST  559.06764687
    V6_1  SU6_1  -1
    U6_2  MIN6_2  -33.5515425123
    U6_2  MAX6_2  -84.7779598454
    U6_2  SU6_2  1
    U6_2  SU6_3  -1
    U6_2  RES2  84.7779598454
    MARKER293  'MARKER'  'INTEND'
    P6_2  COST  17.1000675907
    P6_2  MIN6_2  1
    P6_2  MAX6_2  1
    P6_2  RU6_2  1
    P6_2  RD6_2  -1
    P6_2  RU6_3  -1
    P6_2  RD6_3  1
    P6_2  BAL2  1
    MARKER294  'MARKER'  'INTORG'
    V6_2  COST  559.06764687
    V6_2  SU6_2  -1
    U6_3  MIN6_3  -33.5515425123
    U6_3  MAX6_3  -84.7779598454
    U6_3  SU6_3  1
    U6_3  SU6_4  -1
    U6_3  RES3  84.7779598454
    MARKER295  'MARKER'  'INTEND'
    P6_3  COST  17.1000675907
    P6_3  MIN6_3  1
    P6_3  MAX6_3  1
    P6_3  RU6_3  1
    P6_3  RD6_3  -1
    P6_3  RU6_4  -1
    P6_3  RD6_4  1
    P6_3  BAL3  1
    MARKER296  'MARKER'  'INTORG'
    V6_3  COST  559.06764687
    V6_3  SU6_3  -1
    U6_4  MIN6_4  -33.5515425123
    U6_4  MAX6_4  -84.7779598454
    U6_4  SU6_4  1
    U6_4  SU6_5  -1
    U6_4  RES4  84.7779598454
    MARKER297  'MARKER'  'INTEND'
    P6_4  COST  17.1000675907
    P6_4  MIN6_4  1
    P6_4  MAX6_4  1
    P6_4  RU6_4  1
    P6_4  RD6_4  -1
    P6_4  RU6_5  -1
    P6_4  RD6_5  1
    P6_4  BAL4  1
    MARKER298  'MARKER'  'INTORG'
    V6_4  COST  559.06764687
    V6_4  SU6_4  -1
    U6_5  MIN6_5  -33.5515425123
    U6_5  MAX6_5  -84.7779598454
    U6_5  SU6_5  1
    U6_5  SU6_6  -1
    U6_5  RES5  84.7779598454
    MARKER299  'MARKER'  'INTEND'
    P6_5  COST  17.1000675907
    P6_5  MIN6_5  1
    P6_5  MAX6_5  1
    P6_5  RU6_5  1
    P6_5  RD6_5  -1
    P6_5  RU6_6  -1
    P6_5  RD6_6  1
    P6_5  BAL5  1
    MARKER300  'MARKER'  'INTORG'
    V6_5  COST  559.06764687
    V6_5  SU6_5  -1
    U6_6  MIN6_6  -33.5515425123
    U6_6  MAX6_6  -84.7779598454
    U6_6  SU6_6  1
    U6_6  SU6_7  -1
    U6_6  RES6  84.7779598454
    MARKER301  'MARKER'  'INTEND'
    P6_6  COST  17.1000675907
    P6_6  MIN6_6  1
    P6_6  MAX6_6  1
    P6_6  RU6_6  1
    P6_6  RD6_6  -1
    P6_6  RU6_7  -1
    P6_6  RD6_7  1
    P6_6  BAL6  1
    MARKER302  'MARKER'  'INTORG'
    V6_6  COST  559.06764687
    V6_6  SU6_6  -1
    U6_7  MIN6_7  -33.5515425123
    U6_7  MAX6_7  -84.7779598454
    U6_7  SU6_7  1
    U6_7  SU6_8  -1
    U6_7  RES7  84.7779598454
    MARKER303  'MARKER'  'INTEND'
    P6_7  COST  17.1000675907
    P6_7  MIN6_7  1
    P6_7  MAX6_7  1
    P6_7  RU6_7  1
    P6_7  RD6_7  -1
    P6_7  RU6_8  -1
    P6_7  RD6_8  1
    P6_7  BAL7  1
    MARKER304  'MARKER'  'INTORG'
    V6_7  COST  559.06764687
    V6_7  SU6_7  -1
    U6_8  MIN6_8  -33.5515425123
    U6_8  MAX6_8  -84.7779598454
    U6_8  SU6_8  1
    U6_8  SU6_9  -1
    U6_8  RES8  84.7779598454
    MARKER305  'MARKER'  'INTEND'
    P6_8  COST  17.1000675907
    P6_8  MIN6_8  1
    P6_8  MAX6_8  1
    P6_8  RU6_8  1
    P6_8  RD6_8  -1
    P6_8  RU6_9  -1
    P6_8  RD6_9  1
    P6_8  BAL8  1
    MARKER306  'MARKER'  'INTORG'
    V6_8  COST  559.06764687
    V6_8  SU6_8  -1
    U6_9  MIN6_9  -33.5515425123
    U6_9  MAX6_9  -84.7779598454
    U6_9  SU6_9  1
    U6_9  SU6_10  -1
    U6_9  RES9  84.7779598454
    MARKER307  'MARKER'  'INTEND'
    P6_9  COST  17.1000675907
    P6_9  MIN6_9  1
    P6_9  MAX6_9  1
    P6_9  RU6_9  1
    P6_9  RD6_9  -1
    P6_9  RU6_10  -1
    P6_9  RD6_10  1
    P6_9  BAL9  1
    MARKER308  'MARKER'  'INTORG'
    V6_9  COST  559.06764687
    V6_9  SU6_9  -1
    U6_10  MIN6_10  -33.5515425123
    U6_10  MAX6_10  -84.7779598454
    U6_10  SU6_10  1
    U6_10  SU6_11  -1
    U6_10  RES10  84.7779598454
    MARKER309  'MARKER'  'INTEND'
    P6_10  COST  17.1000675907
    P6_10  MIN6_10  1
    P6_10  MAX6_10  1
    P6_10  RU6_10  1
    P6_10  RD6_10  -1
    P6_10  RU6_11  -1
    P6_10  RD6_11  1
    P6_10  BAL10  1
    MARKER310  'MARKER'  'INTORG'
    V6_10  COST  559.06764687
    V6_10  SU6_10  -1
    U6_11  MIN6_11  -33.5515425123
    U6_11  MAX6_11  -84.7779598454
    U6_11  SU6_11  1
    U6_11  SU6_12  -1
    U6_11  RES11  84.7779598454
    MARKER311  'MARKER'  'INTEND'
    P6_11  COST  17.1000675907
    P6_11  MIN6_11  1
    P6_11  MAX6_11  1
    P6_11  RU6_11  1
    P6_11  RD6_11  -1
    P6_11  RU6_12  -1
    P6_11  RD6_12  1
    P6_11  BAL11  1
    MARKER312  'MARKER'  'INTORG'
    V6_11  COST  559.06764687
    V6_11  SU6_11  -1
    U6_12  MIN6_12  -33.5515425123
    U6_12  MAX6_12  -84.7779598454
    U6_12  SU6_12  1
    U6_12  SU6_13  -1
    U6_12  RES12  84.7779598454
    MARKER313  'MARKER'  'INTEND'
    P6_12  COST  17.1000675907
    P6_12  MIN6_12  1
    P6_12  MAX6_12  1
    P6_12  RU6_12  1
    P6_12  RD6_12  -1
    P6_12  RU6_13  -1
    P6_12  RD6_13  1
    P6_12  BAL12  1
    MARKER314  'MARKER'  'INTORG'
    V6_12  COST  559.06764687
    V6_12  SU6_12  -1
    U6_13  MIN6_13  -33.5515425123
    U6_13  MAX6_13  -84.7779598454
    U6_13  SU6_13  1
    U6_13  SU6_14  -1
    U6_13  RES13  84.7779598454
    MARKER315  'MARKER'  'INTEND'
    P6_13  COST  17.1000675907
    P6_13  MIN6_13  1
    P6_13  MAX6_13  1
    P6_13  RU6_13  1
    P6_13  RD6_13  -1
    P6_13  RU6_14  -1
    P6_13  RD6_14  1
    P6_13  BAL13  1
    MARKER316  'MARKER'  'INTORG'
    V6_13  COST  559.06764687
    V6_13  SU6_13  -1
    U6_14  MIN6_14  -33.5515425123
    U6_14  MAX6_14  -84.7779598454
    U6_14  SU6_14  1
    U6_14  SU6_15  -1
    U6_14  RES14  84.7779598454
    MARKER317  'MARKER'  'INTEND'
    P6_14  COST  17.1000675907
    P6_14  MIN6_14  1
    P6_14  MAX6_14  1
    P6_14  RU6_14  1
    P6_14  RD6_14  -1
    P6_14  RU6_15  -1
    P6_14  RD6_15  1
    P6_14  BAL14  1
    MARKER318  'MARKER'  'INTORG'
    V6_14  COST  559.06764687
    V6_14  SU6_14  -1
    U6_15  MIN6_15  -33.5515425123
    U6_15  MAX6_15  -84.7779598454
    U6_15  SU6_15  1
    U6_15  SU6_16  -1
    U6_15  RES15  84.7779598454
    MARKER319  'MARKER'  'INTEND'
    P6_15  COST  17.1000675907
    P6_15  MIN6_15  1
    P6_15  MAX6_15  1
    P6_15  RU6_15  1
    P6_15  RD6_15  -1
    P6_15  RU6_16  -1
    P6_15  RD6_16  1
    P6_15  BAL15  1
    MARKER320  'MARKER'  'INTORG'
    V6_15  COST  559.06764687
    V6_15  SU6_15  -1
    U6_16  MIN6_16  -33.5515425123
    U6_16  MAX6_16  -84.7779598454
    U6_16  SU6_16  1
    U6_16  SU6_17  -1
    U6_16  RES16  84.7779598454
    MARKER321  'MARKER'  'INTEND'
    P6_16  COST  17.1000675907
    P6_16  MIN6_16  1
    P6_16  MAX6_16  1
    P6_16  RU6_16  1
    P6_16  RD6_16  -1
    P6_16  RU6_17  -1
    P6_16  RD6_17  1
    P6_16  BAL16  1
    MARKER322  'MARKER'  'INTORG'
    V6_16  COST  559.06764687
    V6_16  SU6_16  -1
    U6_17  MIN6_17  -33.5515425123
    U6_17  MAX6_17  -84.7779598454
    U6_17  SU6_17  1
    U6_17  SU6_18  -1
    U6_17  RES17  84.7779598454
    MARKER323  'MARKER'  'INTEND'
    P6_17  COST  17.1000675907
    P6_17  MIN6_17  1
    P6_17  MAX6_17  1
    P6_17  RU6_17  1
    P6_17  RD6_17  -1
    P6_17  RU6_18  -1
    P6_17  RD6_18  1
    P6_17  BAL17  1
    MARKER324  'MARKER'  'INTORG'
    V6_17  COST  559.06764687
    V6_17  SU6_17  -1
    U6_18  MIN6_18  -33.5515425123
    U6_18  MAX6_18  -84.7779598454
    U6_18  SU6_18  1
    U6_18  SU6_19  -1
    U6_18  RES18  84.7779598454
    MARKER325  'MARKER'  'INTEND'
    P6_18  COST  17.1000675907
    P6_18  MIN6_18  1
    P6_18  MAX6_18  1
    P6_18  RU6_18  1
    P6_18  RD6_18  -1
    P6_18  RU6_19  -1
    P6_18  RD6_19  1
    P6_18  BAL18  1
    MARKER326  'MARKER'  'INTORG'
    V6_18  COST  559.06764687
    V6_18  SU6_18  -1
    U6_19  MIN6_19  -33.5515425123
    U6_19  MAX6_19  -84.7779598454
    U6_19  SU6_19  1
    U6_19  SU6_20  -1
    U6_19  RES19  84.7779598454
    MARKER327  'MARKER'  'INTEND'
    P6_19  COST  17.1000675907
    P6_19  MIN6_19  1
    P6_19  MAX6_19  1
    P6_19  RU6_19  1
    P6_19  RD6_19  -1
    P6_19  RU6_20  -1
    P6_19  RD6_20  1
    P6_19  BAL19  1
    MARKER328  'MARKER'  'INTORG'
    V6_19  COST  559.06764687
    V6_19  SU6_19  -1
    U6_20  MIN6_20  -33.5515425123
    U6_20  MAX6_20  -84.7779598454
    U6_20  SU6_20  1
    U6_20  SU6_21  -1
    U6_20  RES20  84.7779598454
    MARKER329  'MARKER'  'INTEND'
    P6_20  COST  17.1000675907
    P6_20  MIN6_20  1
    P6_20  MAX6_20  1
    P6_20  RU6_20  1
    P6_20  RD6_20  -1
    P6_20  RU6_21  -1
    P6_20  RD6_21  1
    P6_20  BAL20  1
    MARKER330  'MARKER'  'INTORG'
    V6_20  COST  559.06764687
    V6_20  SU6_20  -1
    U6_21  MIN6_21  -33.5515425123
    U6_21  MAX6_21  -84.7779598454
    U6_21  SU6_21  1
    U6_21  SU6_22  -1
    U6_21  RES21  84.7779598454
    MARKER331  'MARKER'  'INTEND'
    P6_21  COST  17.1000675907
    P6_21  MIN6_21  1
    P6_21  MAX6_21  1
    P6_21  RU6_21  1
    P6_21  RD6_21  -1
    P6_21  RU6_22  -1
    P6_21  RD6_22  1
    P6_21  BAL21  1
    MARKER332  'MARKER'  'INTORG'
    V6_21  COST  559.06764687
    V6_21  SU6_21  -1
    U6_22  MIN6_22  -33.5515425123
    U6_22  MAX6_22  -84.7779598454
    U6_22  SU6_22  1
    U6_22  SU6_23  -1
    U6_22  RES22  84.7779598454
    MARKER333  'MARKER'  'INTEND'
    P6_22  COST  17.1000675907
    P6_22  MIN6_22  1
    P6_22  MAX6_22  1
    P6_22  RU6_22  1
    P6_22  RD6_22  -1
    P6_22  RU6_23  -1
    P6_22  RD6_23  1
    P6_22  BAL22  1
    MARKER334  'MARKER'  'INTORG'
    V6_22  COST  559.06764687
    V6_22  SU6_22  -1
    U6_23  MIN6_23  -33.5515425123
    U6_23  MAX6_23  -84.7779598454
    U6_23  SU6_23  1
    U6_23  RES23  84.7779598454
    MARKER335  'MARKER'  'INTEND'
    P6_23  COST  17.1000675907
    P6_23  MIN6_23  1
    P6_23  MAX6_23  1
    P6_23  RU6_23  1
    P6_23  RD6_23  -1
    P6_23  BAL23  1
    MARKER336  'MARKER'  'INTORG'
    V6_23  COST  559.06764687
    V6_23  SU6_23  -1
    U7_0  MIN7_0  -9.13579530191
    U7_0  MAX7_0  -120.453665276
    U7_0  SU7_1  -1
    U7_0  RES0  120.453665276
    MARKER337  'MARKER'  'INTEND'
    P7_0  COST  23.5919067806
    P7_0  MIN7_0  1
    P7_0  MAX7_0  1
    P7_0  RU7_1  -1
    P7_0  RD7_1  1
    P7_0  BAL0  1
    MARKER338  'MARKER'  'INTORG'
    V7_0  COST  487.494336933
    U7_1  MIN7_1  -9.13579530191
    U7_1  MAX7_1  -120.453665276
    U7_1  SU7_1  1
    U7_1  SU7_2  -1
    U7_1  RES1  120.453665276
    MARKER339  'MARKER'  'INTEND'
    P7_1  COST  23.5919067806
    P7_1  MIN7_1  1
    P7_1  MAX7_1  1
    P7_1  RU7_1  1
    P7_1  RD7_1  -1
    P7_1  RU7_2  -1
    P7_1  RD7_2  1
    P7_1  BAL1  1
    MARKER340  'MARKER'  'INTORG'
    V7_1  COST  487.494336933
    V7_1  SU7_1  -1
    U7_2  MIN7_2  -9.13579530191
    U7_2  MAX7_2  -120.453665276
    U7_2  SU7_2  1
    U7_2  SU7_3  -1
    U7_2  RES2  120.453665276
    MARKER341  'MARKER'  'INTEND'
    P7_2  COST  23.5919067806
    P7_2  MIN7_2  1
    P7_2  MAX7_2  1
    P7_2  RU7_2  1
    P7_2  RD7_2  -1
    P7_2  RU7_3  -1
    P7_2  RD7_3  1
    P7_2  BAL2  1
    MARKER342  'MARKER'  'INTORG'
    V7_2  COST  487.494336933
    V7_2  SU7_2  -1
    U7_3  MIN7_3  -9.13579530191
    U7_3  MAX7_3  -120.453665276
    U7_3  SU7_3  1
    U7_3  SU7_4  -1
    U7_3  RES3  120.453665276
    MARKER343  'MARKER'  'INTEND'
    P7_3  COST  23.5919067806
    P7_3  MIN7_3  1
    P7_3  MAX7_3  1
    P7_3  RU7_3  1
    P7_3  RD7_3  -1
    P7_3  RU7_4  -1
    P7_3  RD7_4  1
    P7_3  BAL3  1
    MARKER344  'MARKER'  'INTORG'
    V7_3  COST  487.494336933
    V7_3  SU7_3  -1
    U7_4  MIN7_4  -9.13579530191
    U7_4  MAX7_4  -120.453665276
    U7_4  SU7_4  1
    U7_4  SU7_5  -1
    U7_4  RES4  120.453665276
    MARKER345  'MARKER'  'INTEND'
    P7_4  COST  23.5919067806
    P7_4  MIN7_4  1
    P7_4  MAX7_4  1
    P7_4  RU7_4  1
    P7_4  RD7_4  -1
    P7_4  RU7_5  -1
    P7_4  RD7_5  1
    P7_4  BAL4  1
    MARKER346  'MARKER'  'INTORG'
    V7_4  COST  487.494336933
    V7_4  SU7_4  -1
    U7_5  MIN7_5  -9.13579530191
    U7_5  MAX7_5  -120.453665276
    U7_5  SU7_5  1
    U7_5  SU7_6  -1
    U7_5  RES5  120.453665276
    MARKER347  'MARKER'  'INTEND'
    P7_5  COST  23.5919067806
    P7_5  MIN7_5  1
    P7_5  MAX7_5  1
    P7_5  RU7_5  1
    P7_5  RD7_5  -1
    P7_5  RU7_6  -1
    P7_5  RD7_6  1
    P7_5  BAL5  1
    MARKER348  'MARKER'  'INTORG'
    V7_5  COST  487.494336933
    V7_5  SU7_5  -1
    U7_6  MIN7_6  -9.13579530191
    U7_6  MAX7_6  -120.453665276
    U7_6  SU7_6  1
    U7_6  SU7_7  -1
    U7_6  RES6  120.453665276
    MARKER349  'MARKER'  'INTEND'
    P7_6  COST  23.5919067806
    P7_6  MIN7_6  1
    P7_6  MAX7_6  1
    P7_6  RU7_6  1
    P7_6  RD7_6  -1
    P7_6  RU7_7  -1
    P7_6  RD7_7  1
    P7_6  BAL6  1
    MARKER350  'MARKER'  'INTORG'
    V7_6  COST  487.494336933
    V7_6  SU7_6  -1
    U7_7  MIN7_7  -9.13579530191
    U7_7  MAX7_7  -120.453665276
    U7_7  SU7_7  1
    U7_7  SU7_8  -1
    U7_7  RES7  120.453665276
    MARKER351  'MARKER'  'INTEND'
    P7_7  COST  23.5919067806
    P7_7  MIN7_7  1
    P7_7  MAX7_7  1
    P7_7  RU7_7  1
    P7_7  RD7_7  -1
    P7_7  RU7_8  -1
    P7_7  RD7_8  1
    P7_7  BAL7  1
    MARKER352  'MARKER'  'INTORG'
    V7_7  COST  487.494336933
    V7_7  SU7_7  -1
    U7_8  MIN7_8  -9.13579530191
    U7_8  MAX7_8  -120.453665276
    U7_8  SU7_8  1
    U7_8  SU7_9  -1
    U7_8  RES8  120.453665276
    MARKER353  'MARKER'  'INTEND'
    P7_8  COST  23.5919067806
    P7_8  MIN7_8  1
    P7_8  MAX7_8  1
    P7_8  RU7_8  1
    P7_8  RD7_8  -1
    P7_8  RU7_9  -1
    P7_8  RD7_9  1
    P7_8  BAL8  1
    MARKER354  'MARKER'  'INTORG'
    V7_8  COST  487.494336933
    V7_8  SU7_8  -1
    U7_9  MIN7_9  -9.13579530191
    U7_9  MAX7_9  -120.453665276
    U7_9  SU7_9  1
    U7_9  SU7_10  -1
    U7_9  RES9  120.453665276
    MARKER355  'MARKER'  'INTEND'
    P7_9  COST  23.5919067806
    P7_9  MIN7_9  1
    P7_9  MAX7_9  1
    P7_9  RU7_9  1
    P7_9  RD7_9  -1
    P7_9  RU7_10  -1
    P7_9  RD7_10  1
    P7_9  BAL9  1
    MARKER356  'MARKER'  'INTORG'
    V7_9  COST  487.494336933
    V7_9  SU7_9  -1
    U7_10  MIN7_10  -9.13579530191
    U7_10  MAX7_10  -120.453665276
    U7_10  SU7_10  1
    U7_10  SU7_11  -1
    U7_10  RES10  120.453665276
    MARKER357  'MARKER'  'INTEND'
    P7_10  COST  23.5919067806
    P7_10  MIN7_10  1
    P7_10  MAX7_10  1
    P7_10  RU7_10  1
    P7_10  RD7_10  -1
    P7_10  RU7_11  -1
    P7_10  RD7_11  1
    P7_10  BAL10  1
    MARKER358  'MARKER'  'INTORG'
    V7_10  COST  487.494336933
    V7_10  SU7_10  -1
    U7_11  MIN7_11  -9.13579530191
    U7_11  MAX7_11  -120.453665276
    U7_11  SU7_11  1
    U7_11  SU7_12  -1
    U7_11  RES11  120.453665276
    MARKER359  'MARKER'  'INTEND'
    P7_11  COST  23.5919067806
    P7_11  MIN7_11  1
    P7_11  MAX7_11  1
    P7_11  RU7_11  1
    P7_11  RD7_11  -1
    P7_11  RU7_12  -1
    P7_11  RD7_12  1
    P7_11  BAL11  1
    MARKER360  'MARKER'  'INTORG'
    V7_11  COST  487.494336933
    V7_11  SU7_11  -1
    U7_12  MIN7_12  -9.13579530191
    U7_12  MAX7_12  -120.453665276
    U7_12  SU7_12  1
    U7_12  SU7_13  -1
    U7_12  RES12  120.453665276
    MARKER361  'MARKER'  'INTEND'
    P7_12  COST  23.5919067806
    P7_12  MIN7_12  1
    P7_12  MAX7_12  1
    P7_12  RU7_12  1
    P7_12  RD7_12  -1
    P7_12  RU7_13  -1
    P7_12  RD7_13  1
    P7_12  BAL12  1
    MARKER362  'MARKER'  'INTORG'
    V7_12  COST  487.494336933
    V7_12  SU7_12  -1
    U7_13  MIN7_13  -9.13579530191
    U7_13  MAX7_13  -120.453665276
    U7_13  SU7_13  1
    U7_13  SU7_14  -1
    U7_13  RES13  120.453665276
    MARKER363  'MARKER'  'INTEND'
    P7_13  COST  23.5919067806
    P7_13  MIN7_13  1
    P7_13  MAX7_13  1
    P7_13  RU7_13  1
    P7_13  RD7_13  -1
    P7_13  RU7_14  -1
    P7_13  RD7_14  1
    P7_13  BAL13  1
    MARKER364  'MARKER'  'INTORG'
    V7_13  COST  487.494336933
    V7_13  SU7_13  -1
    U7_14  MIN7_14  -9.13579530191
    U7_14  MAX7_14  -120.453665276
    U7_14  SU7_14  1
    U7_14  SU7_15  -1
    U7_14  RES14  120.453665276
    MARKER365  'MARKER'  'INTEND'
    P7_14  COST  23.5919067806
    P7_14  MIN7_14  1
    P7_14  MAX7_14  1
    P7_14  RU7_14  1
    P7_14  RD7_14  -1
    P7_14  RU7_15  -1
    P7_14  RD7_15  1
    P7_14  BAL14  1
    MARKER366  'MARKER'  'INTORG'
    V7_14  COST  487.494336933
    V7_14  SU7_14  -1
    U7_15  MIN7_15  -9.13579530191
    U7_15  MAX7_15  -120.453665276
    U7_15  SU7_15  1
    U7_15  SU7_16  -1
    U7_15  RES15  120.453665276
    MARKER367  'MARKER'  'INTEND'
    P7_15  COST  23.5919067806
    P7_15  MIN7_15  1
    P7_15  MAX7_15  1
    P7_15  RU7_15  1
    P7_15  RD7_15  -1
    P7_15  RU7_16  -1
    P7_15  RD7_16  1
    P7_15  BAL15  1
    MARKER368  'MARKER'  'INTORG'
    V7_15  COST  487.494336933
    V7_15  SU7_15  -1
    U7_16  MIN7_16  -9.13579530191
    U7_16  MAX7_16  -120.453665276
    U7_16  SU7_16  1
    U7_16  SU7_17  -1
    U7_16  RES16  120.453665276
    MARKER369  'MARKER'  'INTEND'
    P7_16  COST  23.5919067806
    P7_16  MIN7_16  1
    P7_16  MAX7_16  1
    P7_16  RU7_16  1
    P7_16  RD7_16  -1
    P7_16  RU7_17  -1
    P7_16  RD7_17  1
    P7_16  BAL16  1
    MARKER370  'MARKER'  'INTORG'
    V7_16  COST  487.494336933
    V7_16  SU7_16  -1
    U7_17  MIN7_17  -9.13579530191
    U7_17  MAX7_17  -120.453665276
    U7_17  SU7_17  1
    U7_17  SU7_18  -1
    U7_17  RES17  120.453665276
    MARKER371  'MARKER'  'INTEND'
    P7_17  COST  23.5919067806
    P7_17  MIN7_17  1
    P7_17  MAX7_17  1
    P7_17  RU7_17  1
    P7_17  RD7_17  -1
    P7_17  RU7_18  -1
    P7_17  RD7_18  1
    P7_17  BAL17  1
    MARKER372  'MARKER'  'INTORG'
    V7_17  COST  487.494336933
    V7_17  SU7_17  -1
    U7_18  MIN7_18  -9.13579530191
    U7_18  MAX7_18  -120.453665276
    U7_18  SU7_18  1
    U7_18  SU7_19  -1
    U7_18  RES18  120.453665276
    MARKER373  'MARKER'  'INTEND'
    P7_18  COST  23.5919067806
    P7_18  MIN7_18  1
    P7_18  MAX7_18  1
    P7_18  RU7_18  1
    P7_18  RD7_18  -1
    P7_18  RU7_19  -1
    P7_18  RD7_19  1
    P7_18  BAL18  1
    MARKER374  'MARKER'  'INTORG'
    V7_18  COST  487.494336933
    V7_18  SU7_18  -1
    U7_19  MIN7_19  -9.13579530191
    U7_19  MAX7_19  -120.453665276
    U7_19  SU7_19  1
    U7_19  SU7_20  -1
    U7_19  RES19  120.453665276
    MARKER375  'MARKER'  'INTEND'
    P7_19  COST  23.5919067806
    P7_19  MIN7_19  1
    P7_19  MAX7_19  1
    P7_19  RU7_19  1
    P7_19  RD7_19  -1
    P7_19  RU7_20  -1
    P7_19  RD7_20  1
    P7_19  BAL19  1
    MARKER376  'MARKER'  'INTORG'
    V7_19  COST  487.494336933
    V7_19  SU7_19  -1
    U7_20  MIN7_20  -9.13579530191
    U7_20  MAX7_20  -120.453665276
    U7_20  SU7_20  1
    U7_20  SU7_21  -1
    U7_20  RES20  120.453665276
    MARKER377  'MARKER'  'INTEND'
    P7_20  COST  23.5919067806
    P7_20  MIN7_20  1
    P7_20  MAX7_20  1
    P7_20  RU7_20  1
    P7_20  RD7_20  -1
    P7_20  RU7_21  -1
    P7_20  RD7_21  1
    P7_20  BAL20  1
    MARKER378  'MARKER'  'INTORG'
    V7_20  COST  487.494336933
    V7_20  SU7_20  -1
    U7_21  MIN7_21  -9.13579530191
    U7_21  MAX7_21  -120.453665276
    U7_21  SU7_21  1
    U7_21  SU7_22  -1
    U7_21  RES21  120.453665276
    MARKER379  'MARKER'  'INTEND'
    P7_21  COST  23.5919067806
    P7_21  MIN7_21  1
    P7_21  MAX7_21  1
    P7_21  RU7_21  1
    P7_21  RD7_21  -1
    P7_21  RU7_22  -1
    P7_21  RD7_22  1
    P7_21  BAL21  1
    MARKER380  'MARKER'  'INTORG'
    V7_21  COST  487.494336933
    V7_21  SU7_21  -1
    U7_22  MIN7_22  -9.13579530191
    U7_22  MAX7_22  -120.453665276
    U7_22  SU7_22  1
    U7_22  SU7_23  -1
    U7_22  RES22  120.453665276
    MARKER381  'MARKER'  'INTEND'
    P7_22  COST  23.5919067806
    P7_22  MIN7_22  1
    P7_22  MAX7_22  1
    P7_22  RU7_22  1
    P7_22  RD7_22  -1
    P7_22  RU7_23  -1
    P7_22  RD7_23  1
    P7_22  BAL22  1
    MARKER382  'MARKER'  'INTORG'
    V7_22  COST  487.494336933
    V7_22  SU7_22  -1
    U7_23  MIN7_23  -9.13579530191
    U7_23  MAX7_23  -120.453665276
    U7_23  SU7_23  1
    U7_23  RES23  120.453665276
    MARKER383  'MARKER'  'INTEND'
    P7_23  COST  23.5919067806
    P7_23  MIN7_23  1
    P7_23  MAX7_23  1
    P7_23  RU7_23  1
    P7_23  RD7_23  -1
    P7_23  BAL23  1
    MARKER384  'MARKER'  'INTORG'
    V7_23  COST  487.494336933
    V7_23  SU7_23  -1
    U8_0  MIN8_0  -17.8712056885
    U8_0  MAX8_0  -137.740851049
    U8_0  SU8_1  -1
    U8_0  RES0  137.740851049
    MARKER385  'MARKER'  'INTEND'
    P8_0  COST  26.647709164
    P8_0  MIN8_0  1
    P8_0  MAX8_0  1
    P8_0  RU8_1  -1
    P8_0  RD8_1  1
    P8_0  BAL0  1
    MARKER386  'MARKER'  'INTORG'
    V8_0  COST  154.914478821
    U8_1  MIN8_1  -17.8712056885
    U8_1  MAX8_1  -137.740851049
    U8_1  SU8_1  1
    U8_1  SU8_2  -1
    U8_1  RES1  137.740851049
    MARKER387  'MARKER'  'INTEND'
    P8_1  COST  26.647709164
    P8_1  MIN8_1  1
    P8_1  MAX8_1  1
    P8_1  RU8_1  1
    P8_1  RD8_1  -1
    P8_1  RU8_2  -1
    P8_1  RD8_2  1
    P8_1  BAL1  1
    MARKER388  'MARKER'  'INTORG'
    V8_1  COST  154.914478821
    V8_1  SU8_1  -1
    U8_2  MIN8_2  -17.8712056885
    U8_2  MAX8_2  -137.740851049
    U8_2  SU8_2  1
    U8_2  SU8_3  -1
    U8_2  RES2  137.740851049
    MARKER389  'MARKER'  'INTEND'
    P8_2  COST  26.647709164
    P8_2  MIN8_2  1
    P8_2  MAX8_2  1
    P8_2  RU8_2  1
    P8_2  RD8_2  -1
    P8_2  RU8_3  -1
    P8_2  RD8_3  1
    P8_2  BAL2  1
    MARKER390  'MARKER'  'INTORG'
    V8_2  COST  154.914478821
    V8_2  SU8_2  -1
    U8_3  MIN8_3  -17.8712056885
    U8_3  MAX8_3  -137.740851049
    U8_3  SU8_3  1
    U8_3  SU8_4  -1
    U8_3  RES3  137.740851049
    MARKER391  'MARKER'  'INTEND'
    P8_3  COST  26.647709164
    P8_3  MIN8_3  1
    P8_3  MAX8_3  1
    P8_3  RU8_3  1
    P8_3  RD8_3  -1
    P8_3  RU8_4  -1
    P8_3  RD8_4  1
    P8_3  BAL3  1
    MARKER392  'MARKER'  'INTORG'
    V8_3  COST  154.914478821
    V8_3  SU8_3  -1
    U8_4  MIN8_4  -17.8712056885
    U8_4  MAX8_4  -137.740851049
    U8_4  SU8_4  1
    U8_4  SU8_5  -1
    U8_4  RES4  137.740851049
    MARKER393  'MARKER'  'INTEND'
    P8_4  COST  26.647709164
    P8_4  MIN8_4  1
    P8_4  MAX8_4  1
    P8_4  RU8_4  1
    P8_4  RD8_4  -1
    P8_4  RU8_5  -1
    P8_4  RD8_5  1
    P8_4  BAL4  1
    MARKER394  'MARKER'  'INTORG'
    V8_4  COST  154.914478821
    V8_4  SU8_4  -1
    U8_5  MIN8_5  -17.8712056885
    U8_5  MAX8_5  -137.740851049
    U8_5  SU8_5  1
    U8_5  SU8_6  -1
    U8_5  RES5  137.740851049
    MARKER395  'MARKER'  'INTEND'
    P8_5  COST  26.647709164
    P8_5  MIN8_5  1
    P8_5  MAX8_5  1
    P8_5  RU8_5  1
    P8_5  RD8_5  -1
    P8_5  RU8_6  -1
    P8_5  RD8_6  1
    P8_5  BAL5  1
    MARKER396  'MARKER'  'INTORG'
    V8_5  COST  154.914478821
    V8_5  SU8_5  -1
    U8_6  MIN8_6  -17.8712056885
    U8_6  MAX8_6  -137.740851049
    U8_6  SU8_6  1
    U8_6  SU8_7  -1
    U8_6  RES6  137.740851049
    MARKER397  'MARKER'  'INTEND'
    P8_6  COST  26.647709164
    P8_6  MIN8_6  1
    P8_6  MAX8_6  1
    P8_6  RU8_6  1
    P8_6  RD8_6  -1
    P8_6  RU8_7  -1
    P8_6  RD8_7  1
    P8_6  BAL6  1
    MARKER398  'MARKER'  'INTORG'
    V8_6  COST  154.914478821
    V8_6  SU8_6  -1
    U8_7  MIN8_7  -17.8712056885
    U8_7  MAX8_7  -137.740851049
    U8_7  SU8_7  1
    U8_7  SU8_8  -1
    U8_7  RES7  137.740851049
    MARKER399  'MARKER'  'INTEND'
    P8_7  COST  26.647709164
    P8_7  MIN8_7  1
    P8_7  MAX8_7  1
    P8_7  RU8_7  1
    P8_7  RD8_7  -1
    P8_7  RU8_8  -1
    P8_7  RD8_8  1
    P8_7  BAL7  1
    MARKER400  'MARKER'  'INTORG'
    V8_7  COST  154.914478821
    V8_7  SU8_7  -1
    U8_8  MIN8_8  -17.8712056885
    U8_8  MAX8_8  -137.740851049
    U8_8  SU8_8  1
    U8_8  SU8_9  -1
    U8_8  RES8  137.740851049
    MARKER401  'MARKER'  'INTEND'
    P8_8  COST  26.647709164
    P8_8  MIN8_8  1
    P8_8  MAX8_8  1
    P8_8  RU8_8  1
    P8_8  RD8_8  -1
    P8_8  RU8_9  -1
    P8_8  RD8_9  1
    P8_8  BAL8  1
    MARKER402  'MARKER'  'INTORG'
    V8_8  COST  154.914478821
    V8_8  SU8_8  -1
    U8_9  MIN8_9  -17.8712056885
    U8_9  MAX8_9  -137.740851049
    U8_9  SU8_9  1
    U8_9  SU8_10  -1
    U8_9  RES9  137.740851049
    MARKER403  'MARKER'  'INTEND'
    P8_9  COST  26.647709164
    P8_9  MIN8_9  1
    P8_9  MAX8_9  1
    P8_9  RU8_9  1
    P8_9  RD8_9  -1
    P8_9  RU8_10  -1
    P8_9  RD8_10  1
    P8_9  BAL9  1
    MARKER404  'MARKER'  'INTORG'
    V8_9  COST  154.914478821
    V8_9  SU8_9  -1
    U8_10  MIN8_10  -17.8712056885
    U8_10  MAX8_10  -137.740851049
    U8_10  SU8_10  1
    U8_10  SU8_11  -1
    U8_10  RES10  137.740851049
    MARKER405  'MARKER'  'INTEND'
    P8_10  COST  26.647709164
    P8_10  MIN8_10  1
    P8_10  MAX8_10  1
    P8_10  RU8_10  1
    P8_10  RD8_10  -1
    P8_10  RU8_11  -1
    P8_10  RD8_11  1
    P8_10  BAL10  1
    MARKER406  'MARKER'  'INTORG'
    V8_10  COST  154.914478821
    V8_10  SU8_10  -1
    U8_11  MIN8_11  -17.8712056885
    U8_11  MAX8_11  -137.740851049
    U8_11  SU8_11  1
    U8_11  SU8_12  -1
    U8_11  RES11  137.740851049
    MARKER407  'MARKER'  'INTEND'
    P8_11  COST  26.647709164
    P8_11  MIN8_11  1
    P8_11  MAX8_11  1
    P8_11  RU8_11  1
    P8_11  RD8_11  -1
    P8_11  RU8_12  -1
    P8_11  RD8_12  1
    P8_11  BAL11  1
    MARKER408  'MARKER'  'INTORG'
    V8_11  COST  154.914478821
    V8_11  SU8_11  -1
    U8_12  MIN8_12  -17.8712056885
    U8_12  MAX8_12  -137.740851049
    U8_12  SU8_12  1
    U8_12  SU8_13  -1
    U8_12  RES12  137.740851049
    MARKER409  'MARKER'  'INTEND'
    P8_12  COST  26.647709164
    P8_12  MIN8_12  1
    P8_12  MAX8_12  1
    P8_12  RU8_12  1
    P8_12  RD8_12  -1
    P8_12  RU8_13  -1
    P8_12  RD8_13  1
    P8_12  BAL12  1
    MARKER410  'MARKER'  'INTORG'
    V8_12  COST  154.914478821
    V8_12  SU8_12  -1
    U8_13  MIN8_13  -17.8712056885
    U8_13  MAX8_13  -137.740851049
    U8_13  SU8_13  1
    U8_13  SU8_14  -1
    U8_13  RES13  137.740851049
    MARKER411  'MARKER'  'INTEND'
    P8_13  COST  26.647709164
    P8_13  MIN8_13  1
    P8_13  MAX8_13  1
    P8_13  RU8_13  1
    P8_13  RD8_13  -1
    P8_13  RU8_14  -1
    P8_13  RD8_14  1
    P8_13  BAL13  1
    MARKER412  'MARKER'  'INTORG'
    V8_13  COST  154.914478821
    V8_13  SU8_13  -1
    U8_14  MIN8_14  -17.8712056885
    U8_14  MAX8_14  -137.740851049
    U8_14  SU8_14  1
    U8_14  SU8_15  -1
    U8_14  RES14  137.740851049
    MARKER413  'MARKER'  'INTEND'
    P8_14  COST  26.647709164
    P8_14  MIN8_14  1
    P8_14  MAX8_14  1
    P8_14  RU8_14  1
    P8_14  RD8_14  -1
    P8_14  RU8_15  -1
    P8_14  RD8_15  1
    P8_14  BAL14  1
    MARKER414  'MARKER'  'INTORG'
    V8_14  COST  154.914478821
    V8_14  SU8_14  -1
    U8_15  MIN8_15  -17.8712056885
    U8_15  MAX8_15  -137.740851049
    U8_15  SU8_15  1
    U8_15  SU8_16  -1
    U8_15  RES15  137.740851049
    MARKER415  'MARKER'  'INTEND'
    P8_15  COST  26.647709164
    P8_15  MIN8_15  1
    P8_15  MAX8_15  1
    P8_15  RU8_15  1
    P8_15  RD8_15  -1
    P8_15  RU8_16  -1
    P8_15  RD8_16  1
    P8_15  BAL15  1
    MARKER416  'MARKER'  'INTORG'
    V8_15  COST  154.914478821
    V8_15  SU8_15  -1
    U8_16  MIN8_16  -17.8712056885
    U8_16  MAX8_16  -137.740851049
    U8_16  SU8_16  1
    U8_16  SU8_17  -1
    U8_16  RES16  137.740851049
    MARKER417  'MARKER'  'INTEND'
    P8_16  COST  26.647709164
    P8_16  MIN8_16  1
    P8_16  MAX8_16  1
    P8_16  RU8_16  1
    P8_16  RD8_16  -1
    P8_16  RU8_17  -1
    P8_16  RD8_17  1
    P8_16  BAL16  1
    MARKER418  'MARKER'  'INTORG'
    V8_16  COST  154.914478821
    V8_16  SU8_16  -1
    U8_17  MIN8_17  -17.8712056885
    U8_17  MAX8_17  -137.740851049
    U8_17  SU8_17  1
    U8_17  SU8_18  -1
    U8_17  RES17  137.740851049
    MARKER419  'MARKER'  'INTEND'
    P8_17  COST  26.647709164
    P8_17  MIN8_17  1
    P8_17  MAX8_17  1
    P8_17  RU8_17  1
    P8_17  RD8_17  -1
    P8_17  RU8_18  -1
    P8_17  RD8_18  1
    P8_17  BAL17  1
    MARKER420  'MARKER'  'INTORG'
    V8_17  COST  154.914478821
    V8_17  SU8_17  -1
    U8_18  MIN8_18  -17.8712056885
    U8_18  MAX8_18  -137.740851049
    U8_18  SU8_18  1
    U8_18  SU8_19  -1
    U8_18  RES18  137.740851049
    MARKER421  'MARKER'  'INTEND'
    P8_18  COST  26.647709164
    P8_18  MIN8_18  1
    P8_18  MAX8_18  1
    P8_18  RU8_18  1
    P8_18  RD8_18  -1
    P8_18  RU8_19  -1
    P8_18  RD8_19  1
    P8_18  BAL18  1
    MARKER422  'MARKER'  'INTORG'
    V8_18  COST  154.914478821
    V8_18  SU8_18  -1
    U8_19  MIN8_19  -17.8712056885
    U8_19  MAX8_19  -137.740851049
    U8_19  SU8_19  1
    U8_19  SU8_20  -1
    U8_19  RES19  137.740851049
    MARKER423  'MARKER'  'INTEND'
    P8_19  COST  26.647709164
    P8_19  MIN8_19  1
    P8_19  MAX8_19  1
    P8_19  RU8_19  1
    P8_19  RD8_19  -1
    P8_19  RU8_20  -1
    P8_19  RD8_20  1
    P8_19  BAL19  1
    MARKER424  'MARKER'  'INTORG'
    V8_19  COST  154.914478821
    V8_19  SU8_19  -1
    U8_20  MIN8_20  -17.8712056885
    U8_20  MAX8_20  -137.740851049
    U8_20  SU8_20  1
    U8_20  SU8_21  -1
    U8_20  RES20  137.740851049
    MARKER425  'MARKER'  'INTEND'
    P8_20  COST  26.647709164
    P8_20  MIN8_20  1
    P8_20  MAX8_20  1
    P8_20  RU8_20  1
    P8_20  RD8_20  -1
    P8_20  RU8_21  -1
    P8_20  RD8_21  1
    P8_20  BAL20  1
    MARKER426  'MARKER'  'INTORG'
    V8_20  COST  154.914478821
    V8_20  SU8_20  -1
    U8_21  MIN8_21  -17.8712056885
    U8_21  MAX8_21  -137.740851049
    U8_21  SU8_21  1
    U8_21  SU8_22  -1
    U8_21  RES21  137.740851049
    MARKER427  'MARKER'  'INTEND'
    P8_21  COST  26.647709164
    P8_21  MIN8_21  1
    P8_21  MAX8_21  1
    P8_21  RU8_21  1
    P8_21  RD8_21  -1
    P8_21  RU8_22  -1
    P8_21  RD8_22  1
    P8_21  BAL21  1
    MARKER428  'MARKER'  'INTORG'
    V8_21  COST  154.914478821
    V8_21  SU8_21  -1
    U8_22  MIN8_22  -17.8712056885
    U8_22  MAX8_22  -137.740851049
    U8_22  SU8_22  1
    U8_22  SU8_23  -1
    U8_22  RES22  137.740851049
    MARKER429  'MARKER'  'INTEND'
    P8_22  COST  26.647709164
    P8_22  MIN8_22  1
    P8_22  MAX8_22  1
    P8_22  RU8_22  1
    P8_22  RD8_22  -1
    P8_22  RU8_23  -1
    P8_22  RD8_23  1
    P8_22  BAL22  1
    MARKER430  'MARKER'  'INTORG'
    V8_22  COST  154.914478821
    V8_22  SU8_22  -1
    U8_23  MIN8_23  -17.8712056885
    U8_23  MAX8_23  -137.740851049
    U8_23  SU8_23  1
    U8_23  RES23  137.740851049
    MARKER431  'MARKER'  'INTEND'
    P8_23  COST  26.647709164
    P8_23  MIN8_23  1
    P8_23  MAX8_23  1
    P8_23  RU8_23  1
    P8_23  RD8_23  -1
    P8_23  BAL23  1
    MARKER432  'MARKER'  'INTORG'
    V8_23  COST  154.914478821
    V8_23  SU8_23  -1
    U9_0  MIN9_0  -12.1196555978
    U9_0  MAX9_0  -135.768565843
    U9_0  SU9_1  -1
    U9_0  RES0  135.768565843
    MARKER433  'MARKER'  'INTEND'
    P9_0  COST  15.8440489117
    P9_0  MIN9_0  1
    P9_0  MAX9_0  1
    P9_0  RU9_1  -1
    P9_0  RD9_1  1
    P9_0  BAL0  1
    MARKER434  'MARKER'  'INTORG'
    V9_0  COST  479.307575752
    U9_1  MIN9_1  -12.1196555978
    U9_1  MAX9_1  -135.768565843
    U9_1  SU9_1  1
    U9_1  SU9_2  -1
    U9_1  RES1  135.768565843
    MARKER435  'MARKER'  'INTEND'
    P9_1  COST  15.8440489117
    P9_1  MIN9_1  1
    P9_1  MAX9_1  1
    P9_1  RU9_1  1
    P9_1  RD9_1  -1
    P9_1  RU9_2  -1
    P9_1  RD9_2  1
    P9_1  BAL1  1
    MARKER436  'MARKER'  'INTORG'
    V9_1  COST  479.307575752
    V9_1  SU9_1  -1
    U9_2  MIN9_2  -12.1196555978
    U9_2  MAX9_2  -135.768565843
    U9_2  SU9_2  1
    U9_2  SU9_3  -1
    U9_2  RES2  135.768565843
    MARKER437  'MARKER'  'INTEND'
    P9_2  COST  15.8440489117
    P9_2  MIN9_2  1
    P9_2  MAX9_2  1
    P9_2  RU9_2  1
    P9_2  RD9_2  -1
    P9_2  RU9_3  -1
    P9_2  RD9_3  1
    P9_2  BAL2  1
    MARKER438  'MARKER'  'INTORG'
    V9_2  COST  479.307575752
    V9_2  SU9_2  -1
    U9_3  MIN9_3  -12.1196555978
    U9_3  MAX9_3  -135.768565843
    U9_3  SU9_3  1
    U9_3  SU9_4  -1
    U9_3  RES3  135.768565843
    MARKER439  'MARKER'  'INTEND'
    P9_3  COST  15.8440489117
    P9_3  MIN9_3  1
    P9_3  MAX9_3  1
    P9_3  RU9_3  1
    P9_3  RD9_3  -1
    P9_3  RU9_4  -1
    P9_3  RD9_4  1
    P9_3  BAL3  1
    MARKER440  'MARKER'  'INTORG'
    V9_3  COST  479.307575752
    V9_3  SU9_3  -1
    U9_4  MIN9_4  -12.1196555978
    U9_4  MAX9_4  -135.768565843
    U9_4  SU9_4  1
    U9_4  SU9_5  -1
    U9_4  RES4  135.768565843
    MARKER441  'MARKER'  'INTEND'
    P9_4  COST  15.8440489117
    P9_4  MIN9_4  1
    P9_4  MAX9_4  1
    P9_4  RU9_4  1
    P9_4  RD9_4  -1
    P9_4  RU9_5  -1
    P9_4  RD9_5  1
    P9_4  BAL4  1
    MARKER442  'MARKER'  'INTORG'
    V9_4  COST  479.307575752
    V9_4  SU9_4  -1
    U9_5  MIN9_5  -12.1196555978
    U9_5  MAX9_5  -135.768565843
    U9_5  SU9_5  1
    U9_5  SU9_6  -1
    U9_5  RES5  135.768565843
    MARKER443  'MARKER'  'INTEND'
    P9_5  COST  15.8440489117
    P9_5  MIN9_5  1
    P9_5  MAX9_5  1
    P9_5  RU9_5  1
    P9_5  RD9_5  -1
    P9_5  RU9_6  -1
    P9_5  RD9_6  1
    P9_5  BAL5  1
    MARKER444  'MARKER'  'INTORG'
    V9_5  COST  479.307575752
    V9_5  SU9_5  -1
    U9_6  MIN9_6  -12.1196555978
    U9_6  MAX9_6  -135.768565843
    U9_6  SU9_6  1
    U9_6  SU9_7  -1
    U9_6  RES6  135.768565843
    MARKER445  'MARKER'  'INTEND'
    P9_6  COST  15.8440489117
    P9_6  MIN9_6  1
    P9_6  MAX9_6  1
    P9_6  RU9_6  1
    P9_6  RD9_6  -1
    P9_6  RU9_7  -1
    P9_6  RD9_7  1
    P9_6  BAL6  1
    MARKER446  'MARKER'  'INTORG'
    V9_6  COST  479.307575752
    V9_6  SU9_6  -1
    U9_7  MIN9_7  -12.1196555978
    U9_7  MAX9_7  -135.768565843
    U9_7  SU9_7  1
    U9_7  SU9_8  -1
    U9_7  RES7  135.768565843
    MARKER447  'MARKER'  'INTEND'
    P9_7  COST  15.8440489117
    P9_7  MIN9_7  1
    P9_7  MAX9_7  1
    P9_7  RU9_7  1
    P9_7  RD9_7  -1
    P9_7  RU9_8  -1
    P9_7  RD9_8  1
    P9_7  BAL7  1
    MARKER448  'MARKER'  'INTORG'
    V9_7  COST  479.307575752
    V9_7  SU9_7  -1
    U9_8  MIN9_8  -12.1196555978
    U9_8  MAX9_8  -135.768565843
    U9_8  SU9_8  1
    U9_8  SU9_9  -1
    U9_8  RES8  135.768565843
    MARKER449  'MARKER'  'INTEND'
    P9_8  COST  15.8440489117
    P9_8  MIN9_8  1
    P9_8  MAX9_8  1
    P9_8  RU9_8  1
    P9_8  RD9_8  -1
    P9_8  RU9_9  -1
    P9_8  RD9_9  1
    P9_8  BAL8  1
    MARKER450  'MARKER'  'INTORG'
    V9_8  COST  479.307575752
    V9_8  SU9_8  -1
    U9_9  MIN9_9  -12.1196555978
    U9_9  MAX9_9  -135.768565843
    U9_9  SU9_9  1
    U9_9  SU9_10  -1
    U9_9  RES9  135.768565843
    MARKER451  'MARKER'  'INTEND'
    P9_9  COST  15.8440489117
    P9_9  MIN9_9  1
    P9_9  MAX9_9  1
    P9_9  RU9_9  1
    P9_9  RD9_9  -1
    P9_9  RU9_10  -1
    P9_9  RD9_10  1
    P9_9  BAL9  1
    MARKER452  'MARKER'  'INTORG'
    V9_9  COST  479.307575752
    V9_9  SU9_9  -1
    U9_10  MIN9_10  -12.1196555978
    U9_10  MAX9_10  -135.768565843
    U9_10  SU9_10  1
    U9_10  SU9_11  -1
    U9_10  RES10  135.768565843
    MARKER453  'MARKER'  'INTEND'
    P9_10  COST  15.8440489117
    P9_10  MIN9_10  1
    P9_10  MAX9_10  1
    P9_10  RU9_10  1
    P9_10  RD9_10  -1
    P9_10  RU9_11  -1
    P9_10  RD9_11  1
    P9_10  BAL10  1
    MARKER454  'MARKER'  'INTORG'
    V9_10  COST  479.307575752
    V9_10  SU9_10  -1
    U9_11  MIN9_11  -12.1196555978
    U9_11  MAX9_11  -135.768565843
    U9_11  SU9_11  1
    U9_11  SU9_12  -1
    U9_11  RES11  135.768565843
    MARKER455  'MARKER'  'INTEND'
    P9_11  COST  15.8440489117
    P9_11  MIN9_11  1
    P9_11  MAX9_11  1
    P9_11  RU9_11  1
    P9_11  RD9_11  -1
    P9_11  RU9_12  -1
    P9_11  RD9_12  1
    P9_11  BAL11  1
    MARKER456  'MARKER'  'INTORG'
    V9_11  COST  479.307575752
    V9_11  SU9_11  -1
    U9_12  MIN9_12  -12.1196555978
    U9_12  MAX9_12  -135.768565843
    U9_12  SU9_12  1
    U9_12  SU9_13  -1
    U9_12  RES12  135.768565843
    MARKER457  'MARKER'  'INTEND'
    P9_12  COST  15.8440489117
    P9_12  MIN9_12  1
    P9_12  MAX9_12  1
    P9_12  RU9_12  1
    P9_12  RD9_12  -1
    P9_12  RU9_13  -1
    P9_12  RD9_13  1
    P9_12  BAL12  1
    MARKER458  'MARKER'  'INTORG'
    V9_12  COST  479.307575752
    V9_12  SU9_12  -1
    U9_13  MIN9_13  -12.1196555978
    U9_13  MAX9_13  -135.768565843
    U9_13  SU9_13  1
    U9_13  SU9_14  -1
    U9_13  RES13  135.768565843
    MARKER459  'MARKER'  'INTEND'
    P9_13  COST  15.8440489117
    P9_13  MIN9_13  1
    P9_13  MAX9_13  1
    P9_13  RU9_13  1
    P9_13  RD9_13  -1
    P9_13  RU9_14  -1
    P9_13  RD9_14  1
    P9_13  BAL13  1
    MARKER460  'MARKER'  'INTORG'
    V9_13  COST  479.307575752
    V9_13  SU9_13  -1
    U9_14  MIN9_14  -12.1196555978
    U9_14  MAX9_14  -135.768565843
    U9_14  SU9_14  1
    U9_14  SU9_15  -1
    U9_14  RES14  135.768565843
    MARKER461  'MARKER'  'INTEND'
    P9_14  COST  15.8440489117
    P9_14  MIN9_14  1
    P9_14  MAX9_14  1
    P9_14  RU9_14  1
    P9_14  RD9_14  -1
    P9_14  RU9_15  -1
    P9_14  RD9_15  1
    P9_14  BAL14  1
    MARKER462  'MARKER'  'INTORG'
    V9_14  COST  479.307575752
    V9_14  SU9_14  -1
    U9_15  MIN9_15  -12.1196555978
    U9_15  MAX9_15  -135.768565843
    U9_15  SU9_15  1
    U9_15  SU9_16  -1
    U9_15  RES15  135.768565843
    MARKER463  'MARKER'  'INTEND'
    P9_15  COST  15.8440489117
    P9_15  MIN9_15  1
    P9_15  MAX9_15  1
    P9_15  RU9_15  1
    P9_15  RD9_15  -1
    P9_15  RU9_16  -1
    P9_15  RD9_16  1
    P9_15  BAL15  1
    MARKER464  'MARKER'  'INTORG'
    V9_15  COST  479.307575752
    V9_15  SU9_15  -1
    U9_16  MIN9_16  -12.1196555978
    U9_16  MAX9_16  -135.768565843
    U9_16  SU9_16  1
    U9_16  SU9_17  -1
    U9_16  RES16  135.768565843
    MARKER465  'MARKER'  'INTEND'
    P9_16  COST  15.8440489117
    P9_16  MIN9_16  1
    P9_16  MAX9_16  1
    P9_16  RU9_16  1
    P9_16  RD9_16  -1
    P9_16  RU9_17  -1
    P9_16  RD9_17  1
    P9_16  BAL16  1
    MARKER466  'MARKER'  'INTORG'
    V9_16  COST  479.307575752
    V9_16  SU9_16  -1
    U9_17  MIN9_17  -12.1196555978
    U9_17  MAX9_17  -135.768565843
    U9_17  SU9_17  1
    U9_17  SU9_18  -1
    U9_17  RES17  135.768565843
    MARKER467  'MARKER'  'INTEND'
    P9_17  COST  15.8440489117
    P9_17  MIN9_17  1
    P9_17  MAX9_17  1
    P9_17  RU9_17  1
    P9_17  RD9_17  -1
    P9_17  RU9_18  -1
    P9_17  RD9_18  1
    P9_17  BAL17  1
    MARKER468  'MARKER'  'INTORG'
    V9_17  COST  479.307575752
    V9_17  SU9_17  -1
    U9_18  MIN9_18  -12.1196555978
    U9_18  MAX9_18  -135.768565843
    U9_18  SU9_18  1
    U9_18  SU9_19  -1
    U9_18  RES18  135.768565843
    MARKER469  'MARKER'  'INTEND'
    P9_18  COST  15.8440489117
    P9_18  MIN9_18  1
    P9_18  MAX9_18  1
    P9_18  RU9_18  1
    P9_18  RD9_18  -1
    P9_18  RU9_19  -1
    P9_18  RD9_19  1
    P9_18  BAL18  1
    MARKER470  'MARKER'  'INTORG'
    V9_18  COST  479.307575752
    V9_18  SU9_18  -1
    U9_19  MIN9_19  -12.1196555978
    U9_19  MAX9_19  -135.768565843
    U9_19  SU9_19  1
    U9_19  SU9_20  -1
    U9_19  RES19  135.768565843
    MARKER471  'MARKER'  'INTEND'
    P9_19  COST  15.8440489117
    P9_19  MIN9_19  1
    P9_19  MAX9_19  1
    P9_19  RU9_19  1
    P9_19  RD9_19  -1
    P9_19  RU9_20  -1
    P9_19  RD9_20  1
    P9_19  BAL19  1
    MARKER472  'MARKER'  'INTORG'
    V9_19  COST  479.307575752
    V9_19  SU9_19  -1
    U9_20  MIN9_20  -12.1196555978
    U9_20  MAX9_20  -135.768565843
    U9_20  SU9_20  1
    U9_20  SU9_21  -1
    U9_20  RES20  135.768565843
    MARKER473  'MARKER'  'INTEND'
    P9_20  COST  15.8440489117
    P9_20  MIN9_20  1
    P9_20  MAX9_20  1
    P9_20  RU9_20  1
    P9_20  RD9_20  -1
    P9_20  RU9_21  -1
    P9_20  RD9_21  1
    P9_20  BAL20  1
    MARKER474  'MARKER'  'INTORG'
    V9_20  COST  479.307575752
    V9_20  SU9_20  -1
    U9_21  MIN9_21  -12.1196555978
    U9_21  MAX9_21  -135.768565843
    U9_21  SU9_21  1
    U9_21  SU9_22  -1
    U9_21  RES21  135.768565843
    MARKER475  'MARKER'  'INTEND'
    P9_21  COST  15.8440489117
    P9_21  MIN9_21  1
    P9_21  MAX9_21  1
    P9_21  RU9_21  1
    P9_21  RD9_21  -1
    P9_21  RU9_22  -1
    P9_21  RD9_22  1
    P9_21  BAL21  1
    MARKER476  'MARKER'  'INTORG'
    V9_21  COST  479.307575752
    V9_21  SU9_21  -1
    U9_22  MIN9_22  -12.1196555978
    U9_22  MAX9_22  -135.768565843
    U9_22  SU9_22  1
    U9_22  SU9_23  -1
    U9_22  RES22  135.768565843
    MARKER477  'MARKER'  'INTEND'
    P9_22  COST  15.8440489117
    P9_22  MIN9_22  1
    P9_22  MAX9_22  1
    P9_22  RU9_22  1
    P9_22  RD9_22  -1
    P9_22  RU9_23  -1
    P9_22  RD9_23  1
    P9_22  BAL22  1
    MARKER478  'MARKER'  'INTORG'
    V9_22  COST  479.307575752
    V9_22  SU9_22  -1
    U9_23  MIN9_23  -12.1196555978
    U9_23  MAX9_23  -135.768565843
    U9_23  SU9_23  1
    U9_23  RES23  135.768565843
    MARKER479  'MARKER'  'INTEND'
    P9_23  COST  15.8440489117
    P9_23  MIN9_23  1
    P9_23  MAX9_23  1
    P9_23  RU9_23  1
    P9_23  RD9_23  -1
    P9_23  BAL23  1
    MARKER480  'MARKER'  'INTORG'
    V9_23  COST  479.307575752
    V9_23  SU9_23  -1
    U10_0  MIN10_0  -31.7629182271
    U10_0  MAX10_0  -130.258067049
    U10_0  SU10_1  -1
    U10_0  RES0  130.258067049
    MARKER481  'MARKER'  'INTEND'
    P10_0  COST  11.0232643352
    P10_0  MIN10_0  1
    P10_0  MAX10_0  1
    P10_0  RU10_1  -1
    P10_0  RD10_1  1
    P10_0  BAL0  1
    MARKER482  'MARKER'  'INTORG'
    V10_0  COST  163.741825
    U10_1  MIN10_1  -31.7629182271
    U10_1  MAX10_1  -130.258067049
    U10_1  SU10_1  1
    U10_1  SU10_2  -1
    U10_1  RES1  130.258067049
    MARKER483  'MARKER'  'INTEND'
    P10_1  COST  11.0232643352
    P10_1  MIN10_1  1
    P10_1  MAX10_1  1
    P10_1  RU10_1  1
    P10_1  RD10_1  -1
    P10_1  RU10_2  -1
    P10_1  RD10_2  1
    P10_1  BAL1  1
    MARKER484  'MARKER'  'INTORG'
    V10_1  COST  163.741825
    V10_1  SU10_1  -1
    U10_2  MIN10_2  -31.7629182271
    U10_2  MAX10_2  -130.258067049
    U10_2  SU10_2  1
    U10_2  SU10_3  -1
    U10_2  RES2  130.258067049
    MARKER485  'MARKER'  'INTEND'
    P10_2  COST  11.0232643352
    P10_2  MIN10_2  1
    P10_2  MAX10_2  1
    P10_2  RU10_2  1
    P10_2  RD10_2  -1
    P10_2  RU10_3  -1
    P10_2  RD10_3  1
    P10_2  BAL2  1
    MARKER486  'MARKER'  'INTORG'
    V10_2  COST  163.741825
    V10_2  SU10_2  -1
    U10_3  MIN10_3  -31.7629182271
    U10_3  MAX10_3  -130.258067049
    U10_3  SU10_3  1
    U10_3  SU10_4  -1
    U10_3  RES3  130.258067049
    MARKER487  'MARKER'  'INTEND'
    P10_3  COST  11.0232643352
    P10_3  MIN10_3  1
    P10_3  MAX10_3  1
    P10_3  RU10_3  1
    P10_3  RD10_3  -1
    P10_3  RU10_4  -1
    P10_3  RD10_4  1
    P10_3  BAL3  1
    MARKER488  'MARKER'  'INTORG'
    V10_3  COST  163.741825
    V10_3  SU10_3  -1
    U10_4  MIN10_4  -31.7629182271
    U10_4  MAX10_4  -130.258067049
    U10_4  SU10_4  1
    U10_4  SU10_5  -1
    U10_4  RES4  130.258067049
    MARKER489  'MARKER'  'INTEND'
    P10_4  COST  11.0232643352
    P10_4  MIN10_4  1
    P10_4  MAX10_4  1
    P10_4  RU10_4  1
    P10_4  RD10_4  -1
    P10_4  RU10_5  -1
    P10_4  RD10_5  1
    P10_4  BAL4  1
    MARKER490  'MARKER'  'INTORG'
    V10_4  COST  163.741825
    V10_4  SU10_4  -1
    U10_5  MIN10_5  -31.7629182271
    U10_5  MAX10_5  -130.258067049
    U10_5  SU10_5  1
    U10_5  SU10_6  -1
    U10_5  RES5  130.258067049
    MARKER491  'MARKER'  'INTEND'
    P10_5  COST  11.0232643352
    P10_5  MIN10_5  1
    P10_5  MAX10_5  1
    P10_5  RU10_5  1
    P10_5  RD10_5  -1
    P10_5  RU10_6  -1
    P10_5  RD10_6  1
    P10_5  BAL5  1
    MARKER492  'MARKER'  'INTORG'
    V10_5  COST  163.741825
    V10_5  SU10_5  -1
    U10_6  MIN10_6  -31.7629182271
    U10_6  MAX10_6  -130.258067049
    U10_6  SU10_6  1
    U10_6  SU10_7  -1
    U10_6  RES6  130.258067049
    MARKER493  'MARKER'  'INTEND'
    P10_6  COST  11.0232643352
    P10_6  MIN10_6  1
    P10_6  MAX10_6  1
    P10_6  RU10_6  1
    P10_6  RD10_6  -1
    P10_6  RU10_7  -1
    P10_6  RD10_7  1
    P10_6  BAL6  1
    MARKER494  'MARKER'  'INTORG'
    V10_6  COST  163.741825
    V10_6  SU10_6  -1
    U10_7  MIN10_7  -31.7629182271
    U10_7  MAX10_7  -130.258067049
    U10_7  SU10_7  1
    U10_7  SU10_8  -1
    U10_7  RES7  130.258067049
    MARKER495  'MARKER'  'INTEND'
    P10_7  COST  11.0232643352
    P10_7  MIN10_7  1
    P10_7  MAX10_7  1
    P10_7  RU10_7  1
    P10_7  RD10_7  -1
    P10_7  RU10_8  -1
    P10_7  RD10_8  1
    P10_7  BAL7  1
    MARKER496  'MARKER'  'INTORG'
    V10_7  COST  163.741825
    V10_7  SU10_7  -1
    U10_8  MIN10_8  -31.7629182271
    U10_8  MAX10_8  -130.258067049
    U10_8  SU10_8  1
    U10_8  SU10_9  -1
    U10_8  RES8  130.258067049
    MARKER497  'MARKER'  'INTEND'
    P10_8  COST  11.0232643352
    P10_8  MIN10_8  1
    P10_8  MAX10_8  1
    P10_8  RU10_8  1
    P10_8  RD10_8  -1
    P10_8  RU10_9  -1
    P10_8  RD10_9  1
    P10_8  BAL8  1
    MARKER498  'MARKER'  'INTORG'
    V10_8  COST  163.741825
    V10_8  SU10_8  -1
    U10_9  MIN10_9  -31.7629182271
    U10_9  MAX10_9  -130.258067049
    U10_9  SU10_9  1
    U10_9  SU10_10  -1
    U10_9  RES9  130.258067049
    MARKER499  'MARKER'  'INTEND'
    P10_9  COST  11.0232643352
    P10_9  MIN10_9  1
    P10_9  MAX10_9  1
    P10_9  RU10_9  1
    P10_9  RD10_9  -1
    P10_9  RU10_10  -1
    P10_9  RD10_10  1
    P10_9  BAL9  1
    MARKER500  'MARKER'  'INTORG'
    V10_9  COST  163.741825
    V10_9  SU10_9  -1
    U10_10  MIN10_10  -31.7629182271
    U10_10  MAX10_10  -130.258067049
    U10_10  SU10_10  1
    U10_10  SU10_11  -1
    U10_10  RES10  130.258067049
    MARKER501  'MARKER'  'INTEND'
    P10_10  COST  11.0232643352
    P10_10  MIN10_10  1
    P10_10  MAX10_10  1
    P10_10  RU10_10  1
    P10_10  RD10_10  -1
    P10_10  RU10_11  -1
    P10_10  RD10_11  1
    P10_10  BAL10  1
    MARKER502  'MARKER'  'INTORG'
    V10_10  COST  163.741825
    V10_10  SU10_10  -1
    U10_11  MIN10_11  -31.7629182271
    U10_11  MAX10_11  -130.258067049
    U10_11  SU10_11  1
    U10_11  SU10_12  -1
    U10_11  RES11  130.258067049
    MARKER503  'MARKER'  'INTEND'
    P10_11  COST  11.0232643352
    P10_11  MIN10_11  1
    P10_11  MAX10_11  1
    P10_11  RU10_11  1
    P10_11  RD10_11  -1
    P10_11  RU10_12  -1
    P10_11  RD10_12  1
    P10_11  BAL11  1
    MARKER504  'MARKER'  'INTORG'
    V10_11  COST  163.741825
    V10_11  SU10_11  -1
    U10_12  MIN10_12  -31.7629182271
    U10_12  MAX10_12  -130.258067049
    U10_12  SU10_12  1
    U10_12  SU10_13  -1
    U10_12  RES12  130.258067049
    MARKER505  'MARKER'  'INTEND'
    P10_12  COST  11.0232643352
    P10_12  MIN10_12  1
    P10_12  MAX10_12  1
    P10_12  RU10_12  1
    P10_12  RD10_12  -1
    P10_12  RU10_13  -1
    P10_12  RD10_13  1
    P10_12  BAL12  1
    MARKER506  'MARKER'  'INTORG'
    V10_12  COST  163.741825
    V10_12  SU10_12  -1
    U10_13  MIN10_13  -31.7629182271
    U10_13  MAX10_13  -130.258067049
    U10_13  SU10_13  1
    U10_13  SU10_14  -1
    U10_13  RES13  130.258067049
    MARKER507  'MARKER'  'INTEND'
    P10_13  COST  11.0232643352
    P10_13  MIN10_13  1
    P10_13  MAX10_13  1
    P10_13  RU10_13  1
    P10_13  RD10_13  -1
    P10_13  RU10_14  -1
    P10_13  RD10_14  1
    P10_13  BAL13  1
    MARKER508  'MARKER'  'INTORG'
    V10_13  COST  163.741825
    V10_13  SU10_13  -1
    U10_14  MIN10_14  -31.7629182271
    U10_14  MAX10_14  -130.258067049
    U10_14  SU10_14  1
    U10_14  SU10_15  -1
    U10_14  RES14  130.258067049
    MARKER509  'MARKER'  'INTEND'
    P10_14  COST  11.0232643352
    P10_14  MIN10_14  1
    P10_14  MAX10_14  1
    P10_14  RU10_14  1
    P10_14  RD10_14  -1
    P10_14  RU10_15  -1
    P10_14  RD10_15  1
    P10_14  BAL14  1
    MARKER510  'MARKER'  'INTORG'
    V10_14  COST  163.741825
    V10_14  SU10_14  -1
    U10_15  MIN10_15  -31.7629182271
    U10_15  MAX10_15  -130.258067049
    U10_15  SU10_15  1
    U10_15  SU10_16  -1
    U10_15  RES15  130.258067049
    MARKER511  'MARKER'  'INTEND'
    P10_15  COST  11.0232643352
    P10_15  MIN10_15  1
    P10_15  MAX10_15  1
    P10_15  RU10_15  1
    P10_15  RD10_15  -1
    P10_15  RU10_16  -1
    P10_15  RD10_16  1
    P10_15  BAL15  1
    MARKER512  'MARKER'  'INTORG'
    V10_15  COST  163.741825
    V10_15  SU10_15  -1
    U10_16  MIN10_16  -31.7629182271
    U10_16  MAX10_16  -130.258067049
    U10_16  SU10_16  1
    U10_16  SU10_17  -1
    U10_16  RES16  130.258067049
    MARKER513  'MARKER'  'INTEND'
    P10_16  COST  11.0232643352
    P10_16  MIN10_16  1
    P10_16  MAX10_16  1
    P10_16  RU10_16  1
    P10_16  RD10_16  -1
    P10_16  RU10_17  -1
    P10_16  RD10_17  1
    P10_16  BAL16  1
    MARKER514  'MARKER'  'INTORG'
    V10_16  COST  163.741825
    V10_16  SU10_16  -1
    U10_17  MIN10_17  -31.7629182271
    U10_17  MAX10_17  -130.258067049
    U10_17  SU10_17  1
    U10_17  SU10_18  -1
    U10_17  RES17  130.258067049
    MARKER515  'MARKER'  'INTEND'
    P10_17  COST  11.0232643352
    P10_17  MIN10_17  1
    P10_17  MAX10_17  1
    P10_17  RU10_17  1
    P10_17  RD10_17  -1
    P10_17  RU10_18  -1
    P10_17  RD10_18  1
    P10_17  BAL17  1
    MARKER516  'MARKER'  'INTORG'
    V10_17  COST  163.741825
    V10_17  SU10_17  -1
    U10_18  MIN10_18  -31.7629182271
    U10_18  MAX10_18  -130.258067049
    U10_18  SU10_18  1
    U10_18  SU10_19  -1
    U10_18  RES18  130.258067049
    MARKER517  'MARKER'  'INTEND'
    P10_18  COST  11.0232643352
    P10_18  MIN10_18  1
    P10_18  MAX10_18  1
    P10_18  RU10_18  1
    P10_18  RD10_18  -1
    P10_18  RU10_19  -1
    P10_18  RD10_19  1
    P10_18  BAL18  1
    MARKER518  'MARKER'  'INTORG'
    V10_18  COST  163.741825
    V10_18  SU10_18  -1
    U10_19  MIN10_19  -31.7629182271
    U10_19  MAX10_19  -130.258067049
    U10_19  SU10_19  1
    U10_19  SU10_20  -1
    U10_19  RES19  130.258067049
    MARKER519  'MARKER'  'INTEND'
    P10_19  COST  11.0232643352
    P10_19  MIN10_19  1
    P10_19  MAX10_19  1
    P10_19  RU10_19  1
    P10_19  RD10_19  -1
    P10_19  RU10_20  -1
    P10_19  RD10_20  1
    P10_19  BAL19  1
    MARKER520  'MARKER'  'INTORG'
    V10_19  COST  163.741825
    V10_19  SU10_19  -1
    U10_20  MIN10_20  -31.7629182271
    U10_20  MAX10_20  -130.258067049
    U10_20  SU10_20  1
    U10_20  SU10_21  -1
    U10_20  RES20  130.258067049
    MARKER521  'MARKER'  'INTEND'
    P10_20  COST  11.0232643352
    P10_20  MIN10_20  1
    P10_20  MAX10_20  1
    P10_20  RU10_20  1
    P10_20  RD10_20  -1
    P10_20  RU10_21  -1
    P10_20  RD10_21  1
    P10_20  BAL20  1
    MARKER522  'MARKER'  'INTORG'
    V10_20  COST  163.741825
    V10_20  SU10_20  -1
    U10_21  MIN10_21  -31.7629182271
    U10_21  MAX10_21  -130.258067049
    U10_21  SU10_21  1
    U10_21  SU10_22  -1
    U10_21  RES21  130.258067049
    MARKER523  'MARKER'  'INTEND'
    P10_21  COST  11.0232643352
    P10_21  MIN10_21  1
    P10_21  MAX10_21  1
    P10_21  RU10_21  1
    P10_21  RD10_21  -1
    P10_21  RU10_22  -1
    P10_21  RD10_22  1
    P10_21  BAL21  1
    MARKER524  'MARKER'  'INTORG'
    V10_21  COST  163.741825
    V10_21  SU10_21  -1
    U10_22  MIN10_22  -31.7629182271
    U10_22  MAX10_22  -130.258067049
    U10_22  SU10_22  1
    U10_22  SU10_23  -1
    U10_22  RES22  130.258067049
    MARKER525  'MARKER'  'INTEND'
    P10_22  COST  11.0232643352
    P10_22  MIN10_22  1
    P10_22  MAX10_22  1
    P10_22  RU10_22  1
    P10_22  RD10_22  -1
    P10_22  RU10_23  -1
    P10_22  RD10_23  1
    P10_22  BAL22  1
    MARKER526  'MARKER'  'INTORG'
    V10_22  COST  163.741825
    V10_22  SU10_22  -1
    U10_23  MIN10_23  -31.7629182271
    U10_23  MAX10_23  -130.258067049
    U10_23  SU10_23  1
    U10_23  RES23  130.258067049
    MARKER527  'MARKER'  'INTEND'
    P10_23  COST  11.0232643352
    P10_23  MIN10_23  1
    P10_23  MAX10_23  1
    P10_23  RU10_23  1
    P10_23  RD10_23  -1
    P10_23  BAL23  1
    MARKER528  'MARKER'  'INTORG'
    V10_23  COST  163.741825
    V10_23  SU10_23  -1
    U11_0  MIN11_0  -33.6032916347
    U11_0  MAX11_0  -104.009117098
    U11_0  SU11_1  -1
    U11_0  RES0  104.009117098
    MARKER529  'MARKER'  'INTEND'
    P11_0  COST  31.3257145181
    P11_0  MIN11_0  1
    P11_0  MAX11_0  1
    P11_0  RU11_1  -1
    P11_0  RD11_1  1
    P11_0  BAL0  1
    MARKER530  'MARKER'  'INTORG'
    V11_0  COST  474.762884538
    U11_1  MIN11_1  -33.6032916347
    U11_1  MAX11_1  -104.009117098
    U11_1  SU11_1  1
    U11_1  SU11_2  -1
    U11_1  RES1  104.009117098
    MARKER531  'MARKER'  'INTEND'
    P11_1  COST  31.3257145181
    P11_1  MIN11_1  1
    P11_1  MAX11_1  1
    P11_1  RU11_1  1
    P11_1  RD11_1  -1
    P11_1  RU11_2  -1
    P11_1  RD11_2  1
    P11_1  BAL1  1
    MARKER532  'MARKER'  'INTORG'
    V11_1  COST  474.762884538
    V11_1  SU11_1  -1
    U11_2  MIN11_2  -33.6032916347
    U11_2  MAX11_2  -104.009117098
    U11_2  SU11_2  1
    U11_2  SU11_3  -1
    U11_2  RES2  104.009117098
    MARKER533  'MARKER'  'INTEND'
    P11_2  COST  31.3257145181
    P11_2  MIN11_2  1
    P11_2  MAX11_2  1
    P11_2  RU11_2  1
    P11_2  RD11_2  -1
    P11_2  RU11_3  -1
    P11_2  RD11_3  1
    P11_2  BAL2  1
    MARKER534  'MARKER'  'INTORG'
    V11_2  COST  474.762884538
    V11_2  SU11_2  -1
    U11_3  MIN11_3  -33.6032916347
    U11_3  MAX11_3  -104.009117098
    U11_3  SU11_3  1
    U11_3  SU11_4  -1
    U11_3  RES3  104.009117098
    MARKER535  'MARKER'  'INTEND'
    P11_3  COST  31.3257145181
    P11_3  MIN11_3  1
    P11_3  MAX11_3  1
    P11_3  RU11_3  1
    P11_3  RD11_3  -1
    P11_3  RU11_4  -1
    P11_3  RD11_4  1
    P11_3  BAL3  1
    MARKER536  'MARKER'  'INTORG'
    V11_3  COST  474.762884538
    V11_3  SU11_3  -1
    U11_4  MIN11_4  -33.6032916347
    U11_4  MAX11_4  -104.009117098
    U11_4  SU11_4  1
    U11_4  SU11_5  -1
    U11_4  RES4  104.009117098
    MARKER537  'MARKER'  'INTEND'
    P11_4  COST  31.3257145181
    P11_4  MIN11_4  1
    P11_4  MAX11_4  1
    P11_4  RU11_4  1
    P11_4  RD11_4  -1
    P11_4  RU11_5  -1
    P11_4  RD11_5  1
    P11_4  BAL4  1
    MARKER538  'MARKER'  'INTORG'
    V11_4  COST  474.762884538
    V11_4  SU11_4  -1
    U11_5  MIN11_5  -33.6032916347
    U11_5  MAX11_5  -104.009117098
    U11_5  SU11_5  1
    U11_5  SU11_6  -1
    U11_5  RES5  104.009117098
    MARKER539  'MARKER'  'INTEND'
    P11_5  COST  31.3257145181
    P11_5  MIN11_5  1
    P11_5  MAX11_5  1
    P11_5  RU11_5  1
    P11_5  RD11_5  -1
    P11_5  RU11_6  -1
    P11_5  RD11_6  1
    P11_5  BAL5  1
    MARKER540  'MARKER'  'INTORG'
    V11_5  COST  474.762884538
    V11_5  SU11_5  -1
    U11_6  MIN11_6  -33.6032916347
    U11_6  MAX11_6  -104.009117098
    U11_6  SU11_6  1
    U11_6  SU11_7  -1
    U11_6  RES6  104.009117098
    MARKER541  'MARKER'  'INTEND'
    P11_6  COST  31.3257145181
    P11_6  MIN11_6  1
    P11_6  MAX11_6  1
    P11_6  RU11_6  1
    P11_6  RD11_6  -1
    P11_6  RU11_7  -1
    P11_6  RD11_7  1
    P11_6  BAL6  1
    MARKER542  'MARKER'  'INTORG'
    V11_6  COST  474.762884538
    V11_6  SU11_6  -1
    U11_7  MIN11_7  -33.6032916347
    U11_7  MAX11_7  -104.009117098
    U11_7  SU11_7  1
    U11_7  SU11_8  -1
    U11_7  RES7  104.009117098
    MARKER543  'MARKER'  'INTEND'
    P11_7  COST  31.3257145181
    P11_7  MIN11_7  1
    P11_7  MAX11_7  1
    P11_7  RU11_7  1
    P11_7  RD11_7  -1
    P11_7  RU11_8  -1
    P11_7  RD11_8  1
    P11_7  BAL7  1
    MARKER544  'MARKER'  'INTORG'
    V11_7  COST  474.762884538
    V11_7  SU11_7  -1
    U11_8  MIN11_8  -33.6032916347
    U11_8  MAX11_8  -104.009117098
    U11_8  SU11_8  1
    U11_8  SU11_9  -1
    U11_8  RES8  104.009117098
    MARKER545  'MARKER'  'INTEND'
    P11_8  COST  31.3257145181
    P11_8  MIN11_8  1
    P11_8  MAX11_8  1
    P11_8  RU11_8  1
    P11_8  RD11_8  -1
    P11_8  RU11_9  -1
    P11_8  RD11_9  1
    P11_8  BAL8  1
    MARKER546  'MARKER'  'INTORG'
    V11_8  COST  474.762884538
    V11_8  SU11_8  -1
    U11_9  MIN11_9  -33.6032916347
    U11_9  MAX11_9  -104.009117098
    U11_9  SU11_9  1
    U11_9  SU11_10  -1
    U11_9  RES9  104.009117098
    MARKER547  'MARKER'  'INTEND'
    P11_9  COST  31.3257145181
    P11_9  MIN11_9  1
    P11_9  MAX11_9  1
    P11_9  RU11_9  1
    P11_9  RD11_9  -1
    P11_9  RU11_10  -1
    P11_9  RD11_10  1
    P11_9  BAL9  1
    MARKER548  'MARKER'  'INTORG'
    V11_9  COST  474.762884538
    V11_9  SU11_9  -1
    U11_10  MIN11_10  -33.6032916347
    U11_10  MAX11_10  -104.009117098
    U11_10  SU11_10  1
    U11_10  SU11_11  -1
    U11_10  RES10  104.009117098
    MARKER549  'MARKER'  'INTEND'
    P11_10  COST  31.3257145181
    P11_10  MIN11_10  1
    P11_10  MAX11_10  1
    P11_10  RU11_10  1
    P11_10  RD11_10  -1
    P11_10  RU11_11  -1
    P11_10  RD11_11  1
    P11_10  BAL10  1
    MARKER550  'MARKER'  'INTORG'
    V11_10  COST  474.762884538
    V11_10  SU11_10  -1
    U11_11  MIN11_11  -33.6032916347
    U11_11  MAX11_11  -104.009117098
    U11_11  SU11_11  1
    U11_11  SU11_12  -1
    U11_11  RES11  104.009117098
    MARKER551  'MARKER'  'INTEND'
    P11_11  COST  31.3257145181
    P11_11  MIN11_11  1
    P11_11  MAX11_11  1
    P11_11  RU11_11  1
    P11_11  RD11_11  -1
    P11_11  RU11_12  -1
    P11_11  RD11_12  1
    P11_11  BAL11  1
    MARKER552  'MARKER'  'INTORG'
    V11_11  COST  474.762884538
    V11_11  SU11_11  -1
    U11_12  MIN11_12  -33.6032916347
    U11_12  MAX11_12  -104.009117098
    U11_12  SU11_12  1
    U11_12  SU11_13  -1
    U11_12  RES12  104.009117098
    MARKER553  'MARKER'  'INTEND'
    P11_12  COST  31.3257145181
    P11_12  MIN11_12  1
    P11_12  MAX11_12  1
    P11_12  RU11_12  1
    P11_12  RD11_12  -1
    P11_12  RU11_13  -1
    P11_12  RD11_13  1
    P11_12  BAL12  1
    MARKER554  'MARKER'  'INTORG'
    V11_12  COST  474.762884538
    V11_12  SU11_12  -1
    U11_13  MIN11_13  -33.6032916347
    U11_13  MAX11_13  -104.009117098
    U11_13  SU11_13  1
    U11_13  SU11_14  -1
    U11_13  RES13  104.009117098
    MARKER555  'MARKER'  'INTEND'
    P11_13  COST  31.3257145181
    P11_13  MIN11_13  1
    P11_13  MAX11_13  1
    P11_13  RU11_13  1
    P11_13  RD11_13  -1
    P11_13  RU11_14  -1
    P11_13  RD11_14  1
    P11_13  BAL13  1
    MARKER556  'MARKER'  'INTORG'
    V11_13  COST  474.762884538
    V11_13  SU11_13  -1
    U11_14  MIN11_14  -33.6032916347
    U11_14  MAX11_14  -104.009117098
    U11_14  SU11_14  1
    U11_14  SU11_15  -1
    U11_14  RES14  104.009117098
    MARKER557  'MARKER'  'INTEND'
    P11_14  COST  31.3257145181
    P11_14  MIN11_14  1
    P11_14  MAX11_14  1
    P11_14  RU11_14  1
    P11_14  RD11_14  -1
    P11_14  RU11_15  -1
    P11_14  RD11_15  1
    P11_14  BAL14  1
    MARKER558  'MARKER'  'INTORG'
    V11_14  COST  474.762884538
    V11_14  SU11_14  -1
    U11_15  MIN11_15  -33.6032916347
    U11_15  MAX11_15  -104.009117098
    U11_15  SU11_15  1
    U11_15  SU11_16  -1
    U11_15  RES15  104.009117098
    MARKER559  'MARKER'  'INTEND'
    P11_15  COST  31.3257145181
    P11_15  MIN11_15  1
    P11_15  MAX11_15  1
    P11_15  RU11_15  1
    P11_15  RD11_15  -1
    P11_15  RU11_16  -1
    P11_15  RD11_16  1
    P11_15  BAL15  1
    MARKER560  'MARKER'  'INTORG'
    V11_15  COST  474.762884538
    V11_15  SU11_15  -1
    U11_16  MIN11_16  -33.6032916347
    U11_16  MAX11_16  -104.009117098
    U11_16  SU11_16  1
    U11_16  SU11_17  -1
    U11_16  RES16  104.009117098
    MARKER561  'MARKER'  'INTEND'
    P11_16  COST  31.3257145181
    P11_16  MIN11_16  1
    P11_16  MAX11_16  1
    P11_16  RU11_16  1
    P11_16  RD11_16  -1
    P11_16  RU11_17  -1
    P11_16  RD11_17  1
    P11_16  BAL16  1
    MARKER562  'MARKER'  'INTORG'
    V11_16  COST  474.762884538
    V11_16  SU11_16  -1
    U11_17  MIN11_17  -33.6032916347
    U11_17  MAX11_17  -104.009117098
    U11_17  SU11_17  1
    U11_17  SU11_18  -1
    U11_17  RES17  104.009117098
    MARKER563  'MARKER'  'INTEND'
    P11_17  COST  31.3257145181
    P11_17  MIN11_17  1
    P11_17  MAX11_17  1
    P11_17  RU11_17  1
    P11_17  RD11_17  -1
    P11_17  RU11_18  -1
    P11_17  RD11_18  1
    P11_17  BAL17  1
    MARKER564  'MARKER'  'INTORG'
    V11_17  COST  474.762884538
    V11_17  SU11_17  -1
    U11_18  MIN11_18  -33.6032916347
    U11_18  MAX11_18  -104.009117098
    U11_18  SU11_18  1
    U11_18  SU11_19  -1
    U11_18  RES18  104.009117098
    MARKER565  'MARKER'  'INTEND'
    P11_18  COST  31.3257145181
    P11_18  MIN11_18  1
    P11_18  MAX11_18  1
    P11_18  RU11_18  1
    P11_18  RD11_18  -1
    P11_18  RU11_19  -1
    P11_18  RD11_19  1
    P11_18  BAL18  1
    MARKER566  'MARKER'  'INTORG'
    V11_18  COST  474.762884538
    V11_18  SU11_18  -1
    U11_19  MIN11_19  -33.6032916347
    U11_19  MAX11_19  -104.009117098
    U11_19  SU11_19  1
    U11_19  SU11_20  -1
    U11_19  RES19  104.009117098
    MARKER567  'MARKER'  'INTEND'
    P11_19  COST  31.3257145181
    P11_19  MIN11_19  1
    P11_19  MAX11_19  1
    P11_19  RU11_19  1
    P11_19  RD11_19  -1
    P11_19  RU11_20  -1
    P11_19  RD11_20  1
    P11_19  BAL19  1
    MARKER568  'MARKER'  'INTORG'
    V11_19  COST  474.762884538
    V11_19  SU11_19  -1
    U11_20  MIN11_20  -33.6032916347
    U11_20  MAX11_20  -104.009117098
    U11_20  SU11_20  1
    U11_20  SU11_21  -1
    U11_20  RES20  104.009117098
    MARKER569  'MARKER'  'INTEND'
    P11_20  COST  31.3257145181
    P11_20  MIN11_20  1
    P11_20  MAX11_20  1
    P11_20  RU11_20  1
    P11_20  RD11_20  -1
    P11_20  RU11_21  -1
    P11_20  RD11_21  1
    P11_20  BAL20  1
    MARKER570  'MARKER'  'INTORG'
    V11_20  COST  474.762884538
    V11_20  SU11_20  -1
    U11_21  MIN11_21  -33.6032916347
    U11_21  MAX11_21  -104.009117098
    U11_21  SU11_21  1
    U11_21  SU11_22  -1
    U11_21  RES21  104.009117098
    MARKER571  'MARKER'  'INTEND'
    P11_21  COST  31.3257145181
    P11_21  MIN11_21  1
    P11_21  MAX11_21  1
    P11_21  RU11_21  1
    P11_21  RD11_21  -1
    P11_21  RU11_22  -1
    P11_21  RD11_22  1
    P11_21  BAL21  1
    MARKER572  'MARKER'  'INTORG'
    V11_21  COST  474.762884538
    V11_21  SU11_21  -1
    U11_22  MIN11_22  -33.6032916347
    U11_22  MAX11_22  -104.009117098
    U11_22  SU11_22  1
    U11_22  SU11_23  -1
    U11_22  RES22  104.009117098
    MARKER573  'MARKER'  'INTEND'
    P11_22  COST  31.3257145181
    P11_22  MIN11_22  1
    P11_22  MAX11_22  1
    P11_22  RU11_22  1
    P11_22  RD11_22  -1
    P11_22  RU11_23  -1
    P11_22  RD11_23  1
    P11_22  BAL22  1
    MARKER574  'MARKER'  'INTORG'
    V11_22  COST  474.762884538
    V11_22  SU11_22  -1
    U11_23  MIN11_23  -33.6032916347
    U11_23  MAX11_23  -104.009117098
    U11_23  SU11_23  1
    U11_23  RES23  104.009117098
    MARKER575  'MARKER'  'INTEND'
    P11_23  COST  31.3257145181
    P11_23  MIN11_23  1
    P11_23  MAX11_23  1
    P11_23  RU11_23  1
    P11_23  RD11_23  -1
    P11_23  BAL23  1
    MARKER576  'MARKER'  'INTORG'
    V11_23  COST  474.762884538
    V11_23  SU11_23  -1
    U12_0  MIN12_0  -12.3899940055
    U12_0  MAX12_0  -93.4576396736
    U12_0  SU12_1  -1
    U12_0  RES0  93.4576396736
    MARKER577  'MARKER'  'INTEND'
    P12_0  COST  10.7308548545
    P12_0  MIN12_0  1
    P12_0  MAX12_0  1
    P12_0  RU12_1  -1
    P12_0  RD12_1  1
    P12_0  BAL0  1
    MARKER578  'MARKER'  'INTORG'
    V12_0  COST  389.74999889
    U12_1  MIN12_1  -12.3899940055
    U12_1  MAX12_1  -93.4576396736
    U12_1  SU12_1  1
    U12_1  SU12_2  -1
    U12_1  RES1  93.4576396736
    MARKER579  'MARKER'  'INTEND'
    P12_1  COST  10.7308548545
    P12_1  MIN12_1  1
    P12_1  MAX12_1  1
    P12_1  RU12_1  1
    P12_1  RD12_1  -1
    P12_1  RU12_2  -1
    P12_1  RD12_2  1
    P12_1  BAL1  1
    MARKER580  'MARKER'  'INTORG'
    V12_1  COST  389.74999889
    V12_1  SU12_1  -1
    U12_2  MIN12_2  -12.3899940055
    U12_2  MAX12_2  -93.4576396736
    U12_2  SU12_2  1
    U12_2  SU12_3  -1
    U12_2  RES2  93.4576396736
    MARKER581  'MARKER'  'INTEND'
    P12_2  COST  10.7308548545
    P12_2  MIN12_2  1
    P12_2  MAX12_2  1
    P12_2  RU12_2  1
    P12_2  RD12_2  -1
    P12_2  RU12_3  -1
    P12_2  RD12_3  1
    P12_2  BAL2  1
    MARKER582  'MARKER'  'INTORG'
    V12_2  COST  389.74999889
    V12_2  SU12_2  -1
    U12_3  MIN12_3  -12.3899940055
    U12_3  MAX12_3  -93.4576396736
    U12_3  SU12_3  1
    U12_3  SU12_4  -1
    U12_3  RES3  93.4576396736
    MARKER583  'MARKER'  'INTEND'
    P12_3  COST  10.7308548545
    P12_3  MIN12_3  1
    P12_3  MAX12_3  1
    P12_3  RU12_3  1
    P12_3  RD12_3  -1
    P12_3  RU12_4  -1
    P12_3  RD12_4  1
    P12_3  BAL3  1
    MARKER584  'MARKER'  'INTORG'
    V12_3  COST  389.74999889
    V12_3  SU12_3  -1
    U12_4  MIN12_4  -12.3899940055
    U12_4  MAX12_4  -93.4576396736
    U12_4  SU12_4  1
    U12_4  SU12_5  -1
    U12_4  RES4  93.4576396736
    MARKER585  'MARKER'  'INTEND'
    P12_4  COST  10.7308548545
    P12_4  MIN12_4  1
    P12_4  MAX12_4  1
    P12_4  RU12_4  1
    P12_4  RD12_4  -1
    P12_4  RU12_5  -1
    P12_4  RD12_5  1
    P12_4  BAL4  1
    MARKER586  'MARKER'  'INTORG'
    V12_4  COST  389.74999889
    V12_4  SU12_4  -1
    U12_5  MIN12_5  -12.3899940055
    U12_5  MAX12_5  -93.4576396736
    U12_5  SU12_5  1
    U12_5  SU12_6  -1
    U12_5  RES5  93.4576396736
    MARKER587  'MARKER'  'INTEND'
    P12_5  COST  10.7308548545
    P12_5  MIN12_5  1
    P12_5  MAX12_5  1
    P12_5  RU12_5  1
    P12_5  RD12_5  -1
    P12_5  RU12_6  -1
    P12_5  RD12_6  1
    P12_5  BAL5  1
    MARKER588  'MARKER'  'INTORG'
    V12_5  COST  389.74999889
    V12_5  SU12_5  -1
    U12_6  MIN12_6  -12.3899940055
    U12_6  MAX12_6  -93.4576396736
    U12_6  SU12_6  1
    U12_6  SU12_7  -1
    U12_6  RES6  93.4576396736
    MARKER589  'MARKER'  'INTEND'
    P12_6  COST  10.7308548545
    P12_6  MIN12_6  1
    P12_6  MAX12_6  1
    P12_6  RU12_6  1
    P12_6  RD12_6  -1
    P12_6  RU12_7  -1
    P12_6  RD12_7  1
    P12_6  BAL6  1
    MARKER590  'MARKER'  'INTORG'
    V12_6  COST  389.74999889
    V12_6  SU12_6  -1
    U12_7  MIN12_7  -12.3899940055
    U12_7  MAX12_7  -93.4576396736
    U12_7  SU12_7  1
    U12_7  SU12_8  -1
    U12_7  RES7  93.4576396736
    MARKER591  'MARKER'  'INTEND'
    P12_7  COST  10.7308548545
    P12_7  MIN12_7  1
    P12_7  MAX12_7  1
    P12_7  RU12_7  1
    P12_7  RD12_7  -1
    P12_7  RU12_8  -1
    P12_7  RD12_8  1
    P12_7  BAL7  1
    MARKER592  'MARKER'  'INTORG'
    V12_7  COST  389.74999889
    V12_7  SU12_7  -1
    U12_8  MIN12_8  -12.3899940055
    U12_8  MAX12_8  -93.4576396736
    U12_8  SU12_8  1
    U12_8  SU12_9  -1
    U12_8  RES8  93.4576396736
    MARKER593  'MARKER'  'INTEND'
    P12_8  COST  10.7308548545
    P12_8  MIN12_8  1
    P12_8  MAX12_8  1
    P12_8  RU12_8  1
    P12_8  RD12_8  -1
    P12_8  RU12_9  -1
    P12_8  RD12_9  1
    P12_8  BAL8  1
    MARKER594  'MARKER'  'INTORG'
    V12_8  COST  389.74999889
    V12_8  SU12_8  -1
    U12_9  MIN12_9  -12.3899940055
    U12_9  MAX12_9  -93.4576396736
    U12_9  SU12_9  1
    U12_9  SU12_10  -1
    U12_9  RES9  93.4576396736
    MARKER595  'MARKER'  'INTEND'
    P12_9  COST  10.7308548545
    P12_9  MIN12_9  1
    P12_9  MAX12_9  1
    P12_9  RU12_9  1
    P12_9  RD12_9  -1
    P12_9  RU12_10  -1
    P12_9  RD12_10  1
    P12_9  BAL9  1
    MARKER596  'MARKER'  'INTORG'
    V12_9  COST  389.74999889
    V12_9  SU12_9  -1
    U12_10  MIN12_10  -12.3899940055
    U12_10  MAX12_10  -93.4576396736
    U12_10  SU12_10  1
    U12_10  SU12_11  -1
    U12_10  RES10  93.4576396736
    MARKER597  'MARKER'  'INTEND'
    P12_10  COST  10.7308548545
    P12_10  MIN12_10  1
    P12_10  MAX12_10  1
    P12_10  RU12_10  1
    P12_10  RD12_10  -1
    P12_10  RU12_11  -1
    P12_10  RD12_11  1
    P12_10  BAL10  1
    MARKER598  'MARKER'  'INTORG'
    V12_10  COST  389.74999889
    V12_10  SU12_10  -1
    U12_11  MIN12_11  -12.3899940055
    U12_11  MAX12_11  -93.4576396736
    U12_11  SU12_11  1
    U12_11  SU12_12  -1
    U12_11  RES11  93.4576396736
    MARKER599  'MARKER'  'INTEND'
    P12_11  COST  10.7308548545
    P12_11  MIN12_11  1
    P12_11  MAX12_11  1
    P12_11  RU12_11  1
    P12_11  RD12_11  -1
    P12_11  RU12_12  -1
    P12_11  RD12_12  1
    P12_11  BAL11  1
    MARKER600  'MARKER'  'INTORG'
    V12_11  COST  389.74999889
    V12_11  SU12_11  -1
    U12_12  MIN12_12  -12.3899940055
    U12_12  MAX12_12  -93.4576396736
    U12_12  SU12_12  1
    U12_12  SU12_13  -1
    U12_12  RES12  93.4576396736
    MARKER601  'MARKER'  'INTEND'
    P12_12  COST  10.7308548545
    P12_12  MIN12_12  1
    P12_12  MAX12_12  1
    P12_12  RU12_12  1
    P12_12  RD12_12  -1
    P12_12  RU12_13  -1
    P12_12  RD12_13  1
    P12_12  BAL12  1
    MARKER602  'MARKER'  'INTORG'
    V12_12  COST  389.74999889
    V12_12  SU12_12  -1
    U12_13  MIN12_13  -12.3899940055
    U12_13  MAX12_13  -93.4576396736
    U12_13  SU12_13  1
    U12_13  SU12_14  -1
    U12_13  RES13  93.4576396736
    MARKER603  'MARKER'  'INTEND'
    P12_13  COST  10.7308548545
    P12_13  MIN12_13  1
    P12_13  MAX12_13  1
    P12_13  RU12_13  1
    P12_13  RD12_13  -1
    P12_13  RU12_14  -1
    P12_13  RD12_14  1
    P12_13  BAL13  1
    MARKER604  'MARKER'  'INTORG'
    V12_13  COST  389.74999889
    V12_13  SU12_13  -1
    U12_14  MIN12_14  -12.3899940055
    U12_14  MAX12_14  -93.4576396736
    U12_14  SU12_14  1
    U12_14  SU12_15  -1
    U12_14  RES14  93.4576396736
    MARKER605  'MARKER'  'INTEND'
    P12_14  COST  10.7308548545
    P12_14  MIN12_14  1
    P12_14  MAX12_14  1
    P12_14  RU12_14  1
    P12_14  RD12_14  -1
    P12_14  RU12_15  -1
    P12_14  RD12_15  1
    P12_14  BAL14  1
    MARKER606  'MARKER'  'INTORG'
    V12_14  COST  389.74999889
    V12_14  SU12_14  -1
    U12_15  MIN12_15  -12.3899940055
    U12_15  MAX12_15  -93.4576396736
    U12_15  SU12_15  1
    U12_15  SU12_16  -1
    U12_15  RES15  93.4576396736
    MARKER607  'MARKER'  'INTEND'
    P12_15  COST  10.7308548545
    P12_15  MIN12_15  1
    P12_15  MAX12_15  1
    P12_15  RU12_15  1
    P12_15  RD12_15  -1
    P12_15  RU12_16  -1
    P12_15  RD12_16  1
    P12_15  BAL15  1
    MARKER608  'MARKER'  'INTORG'
    V12_15  COST  389.74999889
    V12_15  SU12_15  -1
    U12_16  MIN12_16  -12.3899940055
    U12_16  MAX12_16  -93.4576396736
    U12_16  SU12_16  1
    U12_16  SU12_17  -1
    U12_16  RES16  93.4576396736
    MARKER609  'MARKER'  'INTEND'
    P12_16  COST  10.7308548545
    P12_16  MIN12_16  1
    P12_16  MAX12_16  1
    P12_16  RU12_16  1
    P12_16  RD12_16  -1
    P12_16  RU12_17  -1
    P12_16  RD12_17  1
    P12_16  BAL16  1
    MARKER610  'MARKER'  'INTORG'
    V12_16  COST  389.74999889
    V12_16  SU12_16  -1
    U12_17  MIN12_17  -12.3899940055
    U12_17  MAX12_17  -93.4576396736
    U12_17  SU12_17  1
    U12_17  SU12_18  -1
    U12_17  RES17  93.4576396736
    MARKER611  'MARKER'  'INTEND'
    P12_17  COST  10.7308548545
    P12_17  MIN12_17  1
    P12_17  MAX12_17  1
    P12_17  RU12_17  1
    P12_17  RD12_17  -1
    P12_17  RU12_18  -1
    P12_17  RD12_18  1
    P12_17  BAL17  1
    MARKER612  'MARKER'  'INTORG'
    V12_17  COST  389.74999889
    V12_17  SU12_17  -1
    U12_18  MIN12_18  -12.3899940055
    U12_18  MAX12_18  -93.4576396736
    U12_18  SU12_18  1
    U12_18  SU12_19  -1
    U12_18  RES18  93.4576396736
    MARKER613  'MARKER'  'INTEND'
    P12_18  COST  10.7308548545
    P12_18  MIN12_18  1
    P12_18  MAX12_18  1
    P12_18  RU12_18  1
    P12_18  RD12_18  -1
    P12_18  RU12_19  -1
    P12_18  RD12_19  1
    P12_18  BAL18  1
    MARKER614  'MARKER'  'INTORG'
    V12_18  COST  389.74999889
    V12_18  SU12_18  -1
    U12_19  MIN12_19  -12.3899940055
    U12_19  MAX12_19  -93.4576396736
    U12_19  SU12_19  1
    U12_19  SU12_20  -1
    U12_19  RES19  93.4576396736
    MARKER615  'MARKER'  'INTEND'
    P12_19  COST  10.7308548545
    P12_19  MIN12_19  1
    P12_19  MAX12_19  1
    P12_19  RU12_19  1
    P12_19  RD12_19  -1
    P12_19  RU12_20  -1
    P12_19  RD12_20  1
    P12_19  BAL19  1
    MARKER616  'MARKER'  'INTORG'
    V12_19  COST  389.74999889
    V12_19  SU12_19  -1
    U12_20  MIN12_20  -12.3899940055
    U12_20  MAX12_20  -93.4576396736
    U12_20  SU12_20  1
    U12_20  SU12_21  -1
    U12_20  RES20  93.4576396736
    MARKER617  'MARKER'  'INTEND'
    P12_20  COST  10.7308548545
    P12_20  MIN12_20  1
    P12_20  MAX12_20  1
    P12_20  RU12_20  1
    P12_20  RD12_20  -1
    P12_20  RU12_21  -1
    P12_20  RD12_21  1
    P12_20  BAL20  1
    MARKER618  'MARKER'  'INTORG'
    V12_20  COST  389.74999889
    V12_20  SU12_20  -1
    U12_21  MIN12_21  -12.3899940055
    U12_21  MAX12_21  -93.4576396736
    U12_21  SU12_21  1
    U12_21  SU12_22  -1
    U12_21  RES21  93.4576396736
    MARKER619  'MARKER'  'INTEND'
    P12_21  COST  10.7308548545
    P12_21  MIN12_21  1
    P12_21  MAX12_21  1
    P12_21  RU12_21  1
    P12_21  RD12_21  -1
    P12_21  RU12_22  -1
    P12_21  RD12_22  1
    P12_21  BAL21  1
    MARKER620  'MARKER'  'INTORG'
    V12_21  COST  389.74999889
    V12_21  SU12_21  -1
    U12_22  MIN12_22  -12.3899940055
    U12_22  MAX12_22  -93.4576396736
    U12_22  SU12_22  1
    U12_22  SU12_23  -1
    U12_22  RES22  93.4576396736
    MARKER621  'MARKER'  'INTEND'
    P12_22  COST  10.7308548545
    P12_22  MIN12_22  1
    P12_22  MAX12_22  1
    P12_22  RU12_22  1
    P12_22  RD12_22  -1
    P12_22  RU12_23  -1
    P12_22  RD12_23  1
    P12_22  BAL22  1
    MARKER622  'MARKER'  'INTORG'
    V12_22  COST  389.74999889
    V12_22  SU12_22  -1
    U12_23  MIN12_23  -12.3899940055
    U12_23  MAX12_23  -93.4576396736
    U12_23  SU12_23  1
    U12_23  RES23  93.4576396736
    MARKER623  'MARKER'  'INTEND'
    P12_23  COST  10.7308548545
    P12_23  MIN12_23  1
    P12_23  MAX12_23  1
    P12_23  RU12_23  1
    P12_23  RD12_23  -1
    P12_23  BAL23  1
    MARKER624  'MARKER'  'INTORG'
    V12_23  COST  389.74999889
    V12_23  SU12_23  -1
    U13_0  MIN13_0  -22.5837416585
    U13_0  MAX13_0  -111.877883527
    U13_0  SU13_1  -1
    U13_0  RES0  111.877883527
    MARKER625  'MARKER'  'INTEND'
    P13_0  COST  34.1094363988
    P13_0  MIN13_0  1
    P13_0  MAX13_0  1
    P13_0  RU13_1  -1
    P13_0  RD13_1  1
    P13_0  BAL0  1
    MARKER626  'MARKER'  'INTORG'
    V13_0  COST  590.055795231
    U13_1  MIN13_1  -22.5837416585
    U13_1  MAX13_1  -111.877883527
    U13_1  SU13_1  1
    U13_1  SU13_2  -1
    U13_1  RES1  111.877883527
    MARKER627  'MARKER'  'INTEND'
    P13_1  COST  34.1094363988
    P13_1  MIN13_1  1
    P13_1  MAX13_1  1
    P13_1  RU13_1  1
    P13_1  RD13_1  -1
    P13_1  RU13_2  -1
    P13_1  RD13_2  1
    P13_1  BAL1  1
    MARKER628  'MARKER'  'INTORG'
    V13_1  COST  590.055795231
    V13_1  SU13_1  -1
    U13_2  MIN13_2  -22.5837416585
    U13_2  MAX13_2  -111.877883527
    U13_2  SU13_2  1
    U13_2  SU13_3  -1
    U13_2  RES2  111.877883527
    MARKER629  'MARKER'  'INTEND'
    P13_2  COST  34.1094363988
    P13_2  MIN13_2  1
    P13_2  MAX13_2  1
    P13_2  RU13_2  1
    P13_2  RD13_2  -1
    P13_2  RU13_3  -1
    P13_2  RD13_3  1
    P13_2  BAL2  1
    MARKER630  'MARKER'  'INTORG'
    V13_2  COST  590.055795231
    V13_2  SU13_2  -1
    U13_3  MIN13_3  -22.5837416585
    U13_3  MAX13_3  -111.877883527
    U13_3  SU13_3  1
    U13_3  SU13_4  -1
    U13_3  RES3  111.877883527
    MARKER631  'MARKER'  'INTEND'
    P13_3  COST  34.1094363988
    P13_3  MIN13_3  1
    P13_3  MAX13_3  1
    P13_3  RU13_3  1
    P13_3  RD13_3  -1
    P13_3  RU13_4  -1
    P13_3  RD13_4  1
    P13_3  BAL3  1
    MARKER632  'MARKER'  'INTORG'
    V13_3  COST  590.055795231
    V13_3  SU13_3  -1
    U13_4  MIN13_4  -22.5837416585
    U13_4  MAX13_4  -111.877883527
    U13_4  SU13_4  1
    U13_4  SU13_5  -1
    U13_4  RES4  111.877883527
    MARKER633  'MARKER'  'INTEND'
    P13_4  COST  34.1094363988
    P13_4  MIN13_4  1
    P13_4  MAX13_4  1
    P13_4  RU13_4  1
    P13_4  RD13_4  -1
    P13_4  RU13_5  -1
    P13_4  RD13_5  1
    P13_4  BAL4  1
    MARKER634  'MARKER'  'INTORG'
    V13_4  COST  590.055795231
    V13_4  SU13_4  -1
    U13_5  MIN13_5  -22.5837416585
    U13_5  MAX13_5  -111.877883527
    U13_5  SU13_5  1
    U13_5  SU13_6  -1
    U13_5  RES5  111.877883527
    MARKER635  'MARKER'  'INTEND'
    P13_5  COST  34.1094363988
    P13_5  MIN13_5  1
    P13_5  MAX13_5  1
    P13_5  RU13_5  1
    P13_5  RD13_5  -1
    P13_5  RU13_6  -1
    P13_5  RD13_6  1
    P13_5  BAL5  1
    MARKER636  'MARKER'  'INTORG'
    V13_5  COST  590.055795231
    V13_5  SU13_5  -1
    U13_6  MIN13_6  -22.5837416585
    U13_6  MAX13_6  -111.877883527
    U13_6  SU13_6  1
    U13_6  SU13_7  -1
    U13_6  RES6  111.877883527
    MARKER637  'MARKER'  'INTEND'
    P13_6  COST  34.1094363988
    P13_6  MIN13_6  1
    P13_6  MAX13_6  1
    P13_6  RU13_6  1
    P13_6  RD13_6  -1
    P13_6  RU13_7  -1
    P13_6  RD13_7  1
    P13_6  BAL6  1
    MARKER638  'MARKER'  'INTORG'
    V13_6  COST  590.055795231
    V13_6  SU13_6  -1
    U13_7  MIN13_7  -22.5837416585
    U13_7  MAX13_7  -111.877883527
    U13_7  SU13_7  1
    U13_7  SU13_8  -1
    U13_7  RES7  111.877883527
    MARKER639  'MARKER'  'INTEND'
    P13_7  COST  34.1094363988
    P13_7  MIN13_7  1
    P13_7  MAX13_7  1
    P13_7  RU13_7  1
    P13_7  RD13_7  -1
    P13_7  RU13_8  -1
    P13_7  RD13_8  1
    P13_7  BAL7  1
    MARKER640  'MARKER'  'INTORG'
    V13_7  COST  590.055795231
    V13_7  SU13_7  -1
    U13_8  MIN13_8  -22.5837416585
    U13_8  MAX13_8  -111.877883527
    U13_8  SU13_8  1
    U13_8  SU13_9  -1
    U13_8  RES8  111.877883527
    MARKER641  'MARKER'  'INTEND'
    P13_8  COST  34.1094363988
    P13_8  MIN13_8  1
    P13_8  MAX13_8  1
    P13_8  RU13_8  1
    P13_8  RD13_8  -1
    P13_8  RU13_9  -1
    P13_8  RD13_9  1
    P13_8  BAL8  1
    MARKER642  'MARKER'  'INTORG'
    V13_8  COST  590.055795231
    V13_8  SU13_8  -1
    U13_9  MIN13_9  -22.5837416585
    U13_9  MAX13_9  -111.877883527
    U13_9  SU13_9  1
    U13_9  SU13_10  -1
    U13_9  RES9  111.877883527
    MARKER643  'MARKER'  'INTEND'
    P13_9  COST  34.1094363988
    P13_9  MIN13_9  1
    P13_9  MAX13_9  1
    P13_9  RU13_9  1
    P13_9  RD13_9  -1
    P13_9  RU13_10  -1
    P13_9  RD13_10  1
    P13_9  BAL9  1
    MARKER644  'MARKER'  'INTORG'
    V13_9  COST  590.055795231
    V13_9  SU13_9  -1
    U13_10  MIN13_10  -22.5837416585
    U13_10  MAX13_10  -111.877883527
    U13_10  SU13_10  1
    U13_10  SU13_11  -1
    U13_10  RES10  111.877883527
    MARKER645  'MARKER'  'INTEND'
    P13_10  COST  34.1094363988
    P13_10  MIN13_10  1
    P13_10  MAX13_10  1
    P13_10  RU13_10  1
    P13_10  RD13_10  -1
    P13_10  RU13_11  -1
    P13_10  RD13_11  1
    P13_10  BAL10  1
    MARKER646  'MARKER'  'INTORG'
    V13_10  COST  590.055795231
    V13_10  SU13_10  -1
    U13_11  MIN13_11  -22.5837416585
    U13_11  MAX13_11  -111.877883527
    U13_11  SU13_11  1
    U13_11  SU13_12  -1
    U13_11  RES11  111.877883527
    MARKER647  'MARKER'  'INTEND'
    P13_11  COST  34.1094363988
    P13_11  MIN13_11  1
    P13_11  MAX13_11  1
    P13_11  RU13_11  1
    P13_11  RD13_11  -1
    P13_11  RU13_12  -1
    P13_11  RD13_12  1
    P13_11  BAL11  1
    MARKER648  'MARKER'  'INTORG'
    V13_11  COST  590.055795231
    V13_11  SU13_11  -1
    U13_12  MIN13_12  -22.5837416585
    U13_12  MAX13_12  -111.877883527
    U13_12  SU13_12  1
    U13_12  SU13_13  -1
    U13_12  RES12  111.877883527
    MARKER649  'MARKER'  'INTEND'
    P13_12  COST  34.1094363988
    P13_12  MIN13_12  1
    P13_12  MAX13_12  1
    P13_12  RU13_12  1
    P13_12  RD13_12  -1
    P13_12  RU13_13  -1
    P13_12  RD13_13  1
    P13_12  BAL12  1
    MARKER650  'MARKER'  'INTORG'
    V13_12  COST  590.055795231
    V13_12  SU13_12  -1
    U13_13  MIN13_13  -22.5837416585
    U13_13  MAX13_13  -111.877883527
    U13_13  SU13_13  1
    U13_13  SU13_14  -1
    U13_13  RES13  111.877883527
    MARKER651  'MARKER'  'INTEND'
    P13_13  COST  34.1094363988
    P13_13  MIN13_13  1
    P13_13  MAX13_13  1
    P13_13  RU13_13  1
    P13_13  RD13_13  -1
    P13_13  RU13_14  -1
    P13_13  RD13_14  1
    P13_13  BAL13  1
    MARKER652  'MARKER'  'INTORG'
    V13_13  COST  590.055795231
    V13_13  SU13_13  -1
    U13_14  MIN13_14  -22.5837416585
    U13_14  MAX13_14  -111.877883527
    U13_14  SU13_14  1
    U13_14  SU13_15  -1
    U13_14  RES14  111.877883527
    MARKER653  'MARKER'  'INTEND'
    P13_14  COST  34.1094363988
    P13_14  MIN13_14  1
    P13_14  MAX13_14  1
    P13_14  RU13_14  1
    P13_14  RD13_14  -1
    P13_14  RU13_15  -1
    P13_14  RD13_15  1
    P13_14  BAL14  1
    MARKER654  'MARKER'  'INTORG'
    V13_14  COST  590.055795231
    V13_14  SU13_14  -1
    U13_15  MIN13_15  -22.5837416585
    U13_15  MAX13_15  -111.877883527
    U13_15  SU13_15  1
    U13_15  SU13_16  -1
    U13_15  RES15  111.877883527
    MARKER655  'MARKER'  'INTEND'
    P13_15  COST  34.1094363988
    P13_15  MIN13_15  1
    P13_15  MAX13_15  1
    P13_15  RU13_15  1
    P13_15  RD13_15  -1
    P13_15  RU13_16  -1
    P13_15  RD13_16  1
    P13_15  BAL15  1
    MARKER656  'MARKER'  'INTORG'
    V13_15  COST  590.055795231
    V13_15  SU13_15  -1
    U13_16  MIN13_16  -22.5837416585
    U13_16  MAX13_16  -111.877883527
    U13_16  SU13_16  1
    U13_16  SU13_17  -1
    U13_16  RES16  111.877883527
    MARKER657  'MARKER'  'INTEND'
    P13_16  COST  34.1094363988
    P13_16  MIN13_16  1
    P13_16  MAX13_16  1
    P13_16  RU13_16  1
    P13_16  RD13_16  -1
    P13_16  RU13_17  -1
    P13_16  RD13_17  1
    P13_16  BAL16  1
    MARKER658  'MARKER'  'INTORG'
    V13_16  COST  590.055795231
    V13_16  SU13_16  -1
    U13_17  MIN13_17  -22.5837416585
    U13_17  MAX13_17  -111.877883527
    U13_17  SU13_17  1
    U13_17  SU13_18  -1
    U13_17  RES17  111.877883527
    MARKER659  'MARKER'  'INTEND'
    P13_17  COST  34.1094363988
    P13_17  MIN13_17  1
    P13_17  MAX13_17  1
    P13_17  RU13_17  1
    P13_17  RD13_17  -1
    P13_17  RU13_18  -1
    P13_17  RD13_18  1
    P13_17  BAL17  1
    MARKER660  'MARKER'  'INTORG'
    V13_17  COST  590.055795231
    V13_17  SU13_17  -1
    U13_18  MIN13_18  -22.5837416585
    U13_18  MAX13_18  -111.877883527
    U13_18  SU13_18  1
    U13_18  SU13_19  -1
    U13_18  RES18  111.877883527
    MARKER661  'MARKER'  'INTEND'
    P13_18  COST  34.1094363988
    P13_18  MIN13_18  1
    P13_18  MAX13_18  1
    P13_18  RU13_18  1
    P13_18  RD13_18  -1
    P13_18  RU13_19  -1
    P13_18  RD13_19  1
    P13_18  BAL18  1
    MARKER662  'MARKER'  'INTORG'
    V13_18  COST  590.055795231
    V13_18  SU13_18  -1
    U13_19  MIN13_19  -22.5837416585
    U13_19  MAX13_19  -111.877883527
    U13_19  SU13_19  1
    U13_19  SU13_20  -1
    U13_19  RES19  111.877883527
    MARKER663  'MARKER'  'INTEND'
    P13_19  COST  34.1094363988
    P13_19  MIN13_19  1
    P13_19  MAX13_19  1
    P13_19  RU13_19  1
    P13_19  RD13_19  -1
    P13_19  RU13_20  -1
    P13_19  RD13_20  1
    P13_19  BAL19  1
    MARKER664  'MARKER'  'INTORG'
    V13_19  COST  590.055795231
    V13_19  SU13_19  -1
    U13_20  MIN13_20  -22.5837416585
    U13_20  MAX13_20  -111.877883527
    U13_20  SU13_20  1
    U13_20  SU13_21  -1
    U13_20  RES20  111.877883527
    MARKER665  'MARKER'  'INTEND'
    P13_20  COST  34.1094363988
    P13_20  MIN13_20  1
    P13_20  MAX13_20  1
    P13_20  RU13_20  1
    P13_20  RD13_20  -1
    P13_20  RU13_21  -1
    P13_20  RD13_21  1
    P13_20  BAL20  1
    MARKER666  'MARKER'  'INTORG'
    V13_20  COST  590.055795231
    V13_20  SU13_20  -1
    U13_21  MIN13_21  -22.5837416585
    U13_21  MAX13_21  -111.877883527
    U13_21  SU13_21  1
    U13_21  SU13_22  -1
    U13_21  RES21  111.877883527
    MARKER667  'MARKER'  'INTEND'
    P13_21  COST  34.1094363988
    P13_21  MIN13_21  1
    P13_21  MAX13_21  1
    P13_21  RU13_21  1
    P13_21  RD13_21  -1
    P13_21  RU13_22  -1
    P13_21  RD13_22  1
    P13_21  BAL21  1
    MARKER668  'MARKER'  'INTORG'
    V13_21  COST  590.055795231
    V13_21  SU13_21  -1
    U13_22  MIN13_22  -22.5837416585
    U13_22  MAX13_22  -111.877883527
    U13_22  SU13_22  1
    U13_22  SU13_23  -1
    U13_22  RES22  111.877883527
    MARKER669  'MARKER'  'INTEND'
    P13_22  COST  34.1094363988
    P13_22  MIN13_22  1
    P13_22  MAX13_22  1
    P13_22  RU13_22  1
    P13_22  RD13_22  -1
    P13_22  RU13_23  -1
    P13_22  RD13_23  1
    P13_22  BAL22  1
    MARKER670  'MARKER'  'INTORG'
    V13_22  COST  590.055795231
    V13_22  SU13_22  -1
    U13_23  MIN13_23  -22.5837416585
    U13_23  MAX13_23  -111.877883527
    U13_23  SU13_23  1
    U13_23  RES23  111.877883527
    MARKER671  'MARKER'  'INTEND'
    P13_23  COST  34.1094363988
    P13_23  MIN13_23  1
    P13_23  MAX13_23  1
    P13_23  RU13_23  1
    P13_23  RD13_23  -1
    P13_23  BAL23  1
    MARKER672  'MARKER'  'INTORG'
    V13_23  COST  590.055795231
    V13_23  SU13_23  -1
    MARKER673  'MARKER'  'INTEND'
RHS
    RHS  MIN0_0  0
    RHS  MAX0_0  0
    RHS  MIN0_1  0
    RHS  MAX0_1  0
    RHS  SU0_1  0
    RHS  RU0_1  48.4266281398
    RHS  RD0_1  48.4266281398
    RHS  MIN0_2  0
    RHS  MAX0_2  0
    RHS  SU0_2  0
    RHS  RU0_2  48.4266281398
    RHS  RD0_2  48.4266281398
    RHS  MIN0_3  0
    RHS  MAX0_3  0
    RHS  SU0_3  0
    RHS  RU0_3  48.4266281398
    RHS  RD0_3  48.4266281398
    RHS  MIN0_4  0
    RHS  MAX0_4  0
    RHS  SU0_4  0
    RHS  RU0_4  48.4266281398
    RHS  RD0_4  48.4266281398
    RHS  MIN0_5  0
    RHS  MAX0_5  0
    RHS  SU0_5  0
    RHS  RU0_5  48.4266281398
    RHS  RD0_5  48.4266281398
    RHS  MIN0_6  0
    RHS  MAX0_6  0
    RHS  SU0_6  0
    RHS  RU0_6  48.4266281398
    RHS  RD0_6  48.4266281398
    RHS  MIN0_7  0
    RHS  MAX0_7  0
    RHS  SU0_7  0
    RHS  RU0_7  48.4266281398
    RHS  RD0_7  48.4266281398
    RHS  MIN0_8  0
    RHS  MAX0_8  0
    RHS  SU0_8  0
    RHS  RU0_8  48.4266281398
    RHS  RD0_8  48.4266281398
    RHS  MIN0_9  0
    RHS  MAX0_9  0
    RHS  SU0_9  0
    RHS  RU0_9  48.4266281398
    RHS  RD0_9  48.4266281398
    RHS  MIN0_10  0
    RHS  MAX0_10  0
    RHS  SU0_10  0
    RHS  RU0_10  48.4266281398
    RHS  RD0_10  48.4266281398
    RHS  MIN0_11  0
    RHS  MAX0_11  0
    RHS  SU0_11  0
    RHS  RU0_11  48.4266281398
    RHS  RD0_11  48.4266281398
    RHS  MIN0_12  0
    RHS  MAX0_12  0
    RHS  SU0_12  0
    RHS  RU0_12  48.4266281398
    RHS  RD0_12  48.4266281398
    RHS  MIN0_13  0
    RHS  MAX0_13  0
    RHS  SU0_13  0
    RHS  RU0_13  48.4266281398
    RHS  RD0_13  48.4266281398
    RHS  MIN0_14  0
    RHS  MAX0_14  0
    RHS  SU0_14  0
    RHS  RU0_14  48.4266281398
    RHS  RD0_14  48.4266281398
    RHS  MIN0_15  0
    RHS  MAX0_15  0
    RHS  SU0_15  0
    RHS  RU0_15  48.4266281398
    RHS  RD0_15  48.4266281398
    RHS  MIN0_16  0
    RHS  MAX0_16  0
    RHS  SU0_16  0
    RHS  RU0_16  48.4266281398
    RHS  RD0_16  48.4266281398
    RHS  MIN0_17  0
    RHS  MAX0_17  0
    RHS  SU0_17  0
    RHS  RU0_17  48.4266281398
    RHS  RD0_17  48.4266281398
    RHS  MIN0_18  0
    RHS  MAX0_18  0
    RHS  SU0_18  0
    RHS  RU0_18  48.4266281398
    RHS  RD0_18  48.4266281398
    RHS  MIN0_19  0
    RHS  MAX0_19  0
    RHS  SU0_19  0
    RHS  RU0_19  48.4266281398
    RHS  RD0_19  48.4266281398
    RHS  MIN0_20  0
    RHS  MAX0_20  0
    RHS  SU0_20  0
    RHS  RU0_20  48.4266281398
    RHS  RD0_20  48.4266281398
    RHS  MIN0_21  0
    RHS  MAX0_21  0
    RHS  SU0_21  0
    RHS  RU0_21  48.4266281398
    RHS  RD0_21  48.4266281398
    RHS  MIN0_22  0
    RHS  MAX0_22  0
    RHS  SU0_22  0
    RHS  RU0_22  48.4266281398
    RHS  RD0_22  48.4266281398
    RHS  MIN0_23  0
    RHS  MAX0_23  0
    RHS  SU0_23  0
    RHS  RU0_23  48.4266281398
    RHS  RD0_23  48.4266281398
    RHS  MIN1_0  0
    RHS  MAX1_0  0
    RHS  MIN1_1  0
    RHS  MAX1_1  0
    RHS  SU1_1  0
    RHS  RU1_1  35.5274687677
    RHS  RD1_1  35.5274687677
    RHS  MIN1_2  0
    RHS  MAX1_2  0
    RHS  SU1_2  0
    RHS  RU1_2  35.5274687677
    RHS  RD1_2  35.5274687677
    RHS  MIN1_3  0
    RHS  MAX1_3  0
    RHS  SU1_3  0
    RHS  RU1_3  35.5274687677
    RHS  RD1_3  35.5274687677
    RHS  MIN1_4  0
    RHS  MAX1_4  0
    RHS  SU1_4  0
    RHS  RU1_4  35.5274687677
    RHS  RD1_4  35.5274687677
    RHS  MIN1_5  0
    RHS  MAX1_5  0
    RHS  SU1_5  0
    RHS  RU1_5  35.5274687677
    RHS  RD1_5  35.5274687677
    RHS  MIN1_6  0
    RHS  MAX1_6  0
    RHS  SU1_6  0
    RHS  RU1_6  35.5274687677
    RHS  RD1_6  35.5274687677
    RHS  MIN1_7  0
    RHS  MAX1_7  0
    RHS  SU1_7  0
    RHS  RU1_7  35.5274687677
    RHS  RD1_7  35.5274687677
    RHS  MIN1_8  0
    RHS  MAX1_8  0
    RHS  SU1_8  0
    RHS  RU1_8  35.5274687677
    RHS  RD1_8  35.5274687677
    RHS  MIN1_9  0
    RHS  MAX1_9  0
    RHS  SU1_9  0
    RHS  RU1_9  35.5274687677
    RHS  RD1_9  35.5274687677
    RHS  MIN1_10  0
    RHS  MAX1_10  0
    RHS  SU1_10  0
    RHS  RU1_10  35.5274687677
    RHS  RD1_10  35.5274687677
    RHS  MIN1_11  0
    RHS  MAX1_11  0
    RHS  SU1_11  0
    RHS  RU1_11  35.5274687677
    RHS  RD1_11  35.5274687677
    RHS  MIN1_12  0
    RHS  MAX1_12  0
    RHS  SU1_12  0
    RHS  RU1_12  35.5274687677
    RHS  RD1_12  35.5274687677
    RHS  MIN1_13  0
    RHS  MAX1_13  0
    RHS  SU1_13  0
    RHS  RU1_13  35.5274687677
    RHS  RD1_13  35.5274687677
    RHS  MIN1_14  0
    RHS  MAX1_14  0
    RHS  SU1_14  0
    RHS  RU1_14  35.5274687677
    RHS  RD1_14  35.5274687677
    RHS  MIN1_15  0
    RHS  MAX1_15  0
    RHS  SU1_15  0
    RHS  RU1_15  35.5274687677
    RHS  RD1_15  35.5274687677
    RHS  MIN1_16  0
    RHS  MAX1_16  0
    RHS  SU1_16  0
    RHS  RU1_16  35.5274687677
    RHS  RD1_16  35.5274687677
    RHS  MIN1_17  0
    RHS  MAX1_17  0
    RHS  SU1_17  0
    RHS  RU1_17  35.5274687677
    RHS  RD1_17  35.5274687677
    RHS  MIN1_18  0
    RHS  MAX1_18  0
    RHS  SU1_18  0
    RHS  RU1_18  35.5274687677
    RHS  RD1_18  35.5274687677
    RHS  MIN1_19  0
    RHS  MAX1_19  0
    RHS  SU1_19  0
    RHS  RU1_19  35.5274687677
    RHS  RD1_19  35.5274687677
    RHS  MIN1_20  0
    RHS  MAX1_20  0
    RHS  SU1_20  0
    RHS  RU1_20  35.5274687677
    RHS  RD1_20  35.5274687677
    RHS  MIN1_21  0
    RHS  MAX1_21  0
    RHS  SU1_21  0
    RHS  RU1_21  35.5274687677
    RHS  RD1_21  35.5274687677
    RHS  MIN1_22  0
    RHS  MAX1_22  0
    RHS  SU1_22  0
    RHS  RU1_22  35.5274687677
    RHS  RD1_22  35.5274687677
    RHS  MIN1_23  0
    RHS  MAX1_23  0
    RHS  SU1_23  0
    RHS  RU1_23  35.5274687677
    RHS  RD1_23  35.5274687677
    RHS  MIN2_0  0
    RHS  MAX2_0  0
    RHS  MIN2_1  0
    RHS  MAX2_1  0
    RHS  SU2_1  0
    RHS  RU2_1  37.5276968927
    RHS  RD2_1  37.5276968927
    RHS  MIN2_2  0
    RHS  MAX2_2  0
    RHS  SU2_2  0
    RHS  RU2_2  37.5276968927
    RHS  RD2_2  37.5276968927
    RHS  MIN2_3  0
    RHS  MAX2_3  0
    RHS  SU2_3  0
    RHS  RU2_3  37.5276968927
    RHS  RD2_3  37.5276968927
    RHS  MIN2_4  0
    RHS  MAX2_4  0
    RHS  SU2_4  0
    RHS  RU2_4  37.5276968927
    RHS  RD2_4  37.5276968927
    RHS  MIN2_5  0
    RHS  MAX2_5  0
    RHS  SU2_5  0
    RHS  RU2_5  37.5276968927
    RHS  RD2_5  37.5276968927
    RHS  MIN2_6  0
    RHS  MAX2_6  0
    RHS  SU2_6  0
    RHS  RU2_6  37.5276968927
    RHS  RD2_6  37.5276968927
    RHS  MIN2_7  0
    RHS  MAX2_7  0
    RHS  SU2_7  0
    RHS  RU2_7  37.5276968927
    RHS  RD2_7  37.5276968927
    RHS  MIN2_8  0
    RHS  MAX2_8  0
    RHS  SU2_8  0
    RHS  RU2_8  37.5276968927
    RHS  RD2_8  37.5276968927
    RHS  MIN2_9  0
    RHS  MAX2_9  0
    RHS  SU2_9  0
    RHS  RU2_9  37.5276968927
    RHS  RD2_9  37.5276968927
    RHS  MIN2_10  0
    RHS  MAX2_10  0
    RHS  SU2_10  0
    RHS  RU2_10  37.5276968927
    RHS  RD2_10  37.5276968927
    RHS  MIN2_11  0
    RHS  MAX2_11  0
    RHS  SU2_11  0
    RHS  RU2_11  37.5276968927
    RHS  RD2_11  37.5276968927
    RHS  MIN2_12  0
    RHS  MAX2_12  0
    RHS  SU2_12  0
    RHS  RU2_12  37.5276968927
    RHS  RD2_12  37.5276968927
    RHS  MIN2_13  0
    RHS  MAX2_13  0
    RHS  SU2_13  0
    RHS  RU2_13  37.5276968927
    RHS  RD2_13  37.5276968927
    RHS  MIN2_14  0
    RHS  MAX2_14  0
    RHS  SU2_14  0
    RHS  RU2_14  37.5276968927
    RHS  RD2_14  37.5276968927
    RHS  MIN2_15  0
    RHS  MAX2_15  0
    RHS  SU2_15  0
    RHS  RU2_15  37.5276968927
    RHS  RD2_15  37.5276968927
    RHS  MIN2_16  0
    RHS  MAX2_16  0
    RHS  SU2_16  0
    RHS  RU2_16  37.5276968927
    RHS  RD2_16  37.5276968927
    RHS  MIN2_17  0
    RHS  MAX2_17  0
    RHS  SU2_17  0
    RHS  RU2_17  37.5276968927
    RHS  RD2_17  37.5276968927
    RHS  MIN2_18  0
    RHS  MAX2_18  0
    RHS  SU2_18  0
    RHS  RU2_18  37.5276968927
    RHS  RD2_18  37.5276968927
    RHS  MIN2_19  0
    RHS  MAX2_19  0
    RHS  SU2_19  0
    RHS  RU2_19  37.5276968927
    RHS  RD2_19  37.5276968927
    RHS  MIN2_20  0
    RHS  MAX2_20  0
    RHS  SU2_20  0
    RHS  RU2_20  37.5276968927
    RHS  RD2_20  37.5276968927
    RHS  MIN2_21  0
    RHS  MAX2_21  0
    RHS  SU2_21  0
    RHS  RU2_21  37.5276968927
    RHS  RD2_21  37.5276968927
    RHS  MIN2_22  0
    RHS  MAX2_22  0
    RHS  SU2_22  0
    RHS  RU2_22  37.5276968927
    RHS  RD2_22  37.5276968927
    RHS  MIN2_23  0
    RHS  MAX2_23  0
    RHS  SU2_23  0
    RHS  RU2_23  37.5276968927
    RHS  RD2_23  37.5276968927
    RHS  MIN3_0  0
    RHS  MAX3_0  0
    RHS  MIN3_1  0
    RHS  MAX3_1  0
    RHS  SU3_1  0
    RHS  RU3_1  37.3954537004
    RHS  RD3_1  37.3954537004
    RHS  MIN3_2  0
    RHS  MAX3_2  0
    RHS  SU3_2  0
    RHS  RU3_2  37.3954537004
    RHS  RD3_2  37.3954537004
    RHS  MIN3_3  0
    RHS  MAX3_3  0
    RHS  SU3_3  0
    RHS  RU3_3  37.3954537004
    RHS  RD3_3  37.3954537004
    RHS  MIN3_4  0
    RHS  MAX3_4  0
    RHS  SU3_4  0
    RHS  RU3_4  37.3954537004
    RHS  RD3_4  37.3954537004
    RHS  MIN3_5  0
    RHS  MAX3_5  0
    RHS  SU3_5  0
    RHS  RU3_5  37.3954537004
    RHS  RD3_5  37.3954537004
    RHS  MIN3_6  0
    RHS  MAX3_6  0
    RHS  SU3_6  0
    RHS  RU3_6  37.3954537004
    RHS  RD3_6  37.3954537004
    RHS  MIN3_7  0
    RHS  MAX3_7  0
    RHS  SU3_7  0
    RHS  RU3_7  37.3954537004
    RHS  RD3_7  37.3954537004
    RHS  MIN3_8  0
    RHS  MAX3_8  0
    RHS  SU3_8  0
    RHS  RU3_8  37.3954537004
    RHS  RD3_8  37.3954537004
    RHS  MIN3_9  0
    RHS  MAX3_9  0
    RHS  SU3_9  0
    RHS  RU3_9  37.3954537004
    RHS  RD3_9  37.3954537004
    RHS  MIN3_10  0
    RHS  MAX3_10  0
    RHS  SU3_10  0
    RHS  RU3_10  37.3954537004
    RHS  RD3_10  37.3954537004
    RHS  MIN3_11  0
    RHS  MAX3_11  0
    RHS  SU3_11  0
    RHS  RU3_11  37.3954537004
    RHS  RD3_11  37.3954537004
    RHS  MIN3_12  0
    RHS  MAX3_12  0
    RHS  SU3_12  0
    RHS  RU3_12  37.3954537004
    RHS  RD3_12  37.3954537004
    RHS  MIN3_13  0
    RHS  MAX3_13  0
    RHS  SU3_13  0
    RHS  RU3_13  37.3954537004
    RHS  RD3_13  37.3954537004
    RHS  MIN3_14  0
    RHS  MAX3_14  0
    RHS  SU3_14  0
    RHS  RU3_14  37.3954537004
    RHS  RD3_14  37.3954537004
    RHS  MIN3_15  0
    RHS  MAX3_15  0
    RHS  SU3_15  0
    RHS  RU3_15  37.3954537004
    RHS  RD3_15  37.3954537004
    RHS  MIN3_16  0
    RHS  MAX3_16  0
    RHS  SU3_16  0
    RHS  RU3_16  37.3954537004
    RHS  RD3_16  37.3954537004
    RHS  MIN3_17  0
    RHS  MAX3_17  0
    RHS  SU3_17  0
    RHS  RU3_17  37.3954537004
    RHS  RD3_17  37.3954537004
    RHS  MIN3_18  0
    RHS  MAX3_18  0
    RHS  SU3_18  0
    RHS  RU3_18  37.3954537004
    RHS  RD3_18  37.3954537004
    RHS  MIN3_19  0
    RHS  MAX3_19  0
    RHS  SU3_19  0
    RHS  RU3_19  37.3954537004
    RHS  RD3_19  37.3954537004
    RHS  MIN3_20  0
    RHS  MAX3_20  0
    RHS  SU3_20  0
    RHS  RU3_20  37.3954537004
    RHS  RD3_20  37.3954537004
    RHS  MIN3_21  0
    RHS  MAX3_21  0
    RHS  SU3_21  0
    RHS  RU3_21  37.3954537004
    RHS  RD3_21  37.3954537004
    RHS  MIN3_22  0
    RHS  MAX3_22  0
    RHS  SU3_22  0
    RHS  RU3_22  37.3954537004
    RHS  RD3_22  37.3954537004
    RHS  MIN3_23  0
    RHS  MAX3_23  0
    RHS  SU3_23  0
    RHS  RU3_23  37.3954537004
    RHS  RD3_23  37.3954537004
    RHS  MIN4_0  0
    RHS  MAX4_0  0
    RHS  MIN4_1  0
    RHS  MAX4_1  0
    RHS  SU4_1  0
    RHS  RU4_1  71.8330965821
    RHS  RD4_1  71.8330965821
    RHS  MIN4_2  0
    RHS  MAX4_2  0
    RHS  SU4_2  0
    RHS  RU4_2  71.8330965821
    RHS  RD4_2  71.8330965821
    RHS  MIN4_3  0
    RHS  MAX4_3  0
    RHS  SU4_3  0
    RHS  RU4_3  71.8330965821
    RHS  RD4_3  71.8330965821
    RHS  MIN4_4  0
    RHS  MAX4_4  0
    RHS  SU4_4  0
    RHS  RU4_4  71.8330965821
    RHS  RD4_4  71.8330965821
    RHS  MIN4_5  0
    RHS  MAX4_5  0
    RHS  SU4_5  0
    RHS  RU4_5  71.8330965821
    RHS  RD4_5  71.8330965821
    RHS  MIN4_6  0
    RHS  MAX4_6  0
    RHS  SU4_6  0
    RHS  RU4_6  71.8330965821
    RHS  RD4_6  71.8330965821
    RHS  MIN4_7  0
    RHS  MAX4_7  0
    RHS  SU4_7  0
    RHS  RU4_7  71.8330965821
    RHS  RD4_7  71.8330965821
    RHS  MIN4_8  0
    RHS  MAX4_8  0
    RHS  SU4_8  0
    RHS  RU4_8  71.8330965821
    RHS  RD4_8  71.8330965821
    RHS  MIN4_9  0
    RHS  MAX4_9  0
    RHS  SU4_9  0
    RHS  RU4_9  71.8330965821
    RHS  RD4_9  71.8330965821
    RHS  MIN4_10  0
    RHS  MAX4_10  0
    RHS  SU4_10  0
    RHS  RU4_10  71.8330965821
    RHS  RD4_10  71.8330965821
    RHS  MIN4_11  0
    RHS  MAX4_11  0
    RHS  SU4_11  0
    RHS  RU4_11  71.8330965821
    RHS  RD4_11  71.8330965821
    RHS  MIN4_12  0
    RHS  MAX4_12  0
    RHS  SU4_12  0
    RHS  RU4_12  71.8330965821
    RHS  RD4_12  71.8330965821
    RHS  MIN4_13  0
    RHS  MAX4_13  0
    RHS  SU4_13  0
    RHS  RU4_13  71.8330965821
    RHS  RD4_13  71.8330965821
    RHS  MIN4_14  0
    RHS  MAX4_14  0
    RHS  SU4_14  0
    RHS  RU4_14  71.8330965821
    RHS  RD4_14  71.8330965821
    RHS  MIN4_15  0
    RHS  MAX4_15  0
    RHS  SU4_15  0
    RHS  RU4_15  71.8330965821
    RHS  RD4_15  71.8330965821
    RHS  MIN4_16  0
    RHS  MAX4_16  0
    RHS  SU4_16  0
    RHS  RU4_16  71.8330965821
    RHS  RD4_16  71.8330965821
    RHS  MIN4_17  0
    RHS  MAX4_17  0
    RHS  SU4_17  0
    RHS  RU4_17  71.8330965821
    RHS  RD4_17  71.8330965821
    RHS  MIN4_18  0
    RHS  MAX4_18  0
    RHS  SU4_18  0
    RHS  RU4_18  71.8330965821
    RHS  RD4_18  71.8330965821
    RHS  MIN4_19  0
    RHS  MAX4_19  0
    RHS  SU4_19  0
    RHS  RU4_19  71.8330965821
    RHS  RD4_19  71.8330965821
    RHS  MIN4_20  0
    RHS  MAX4_20  0
    RHS  SU4_20  0
    RHS  RU4_20  71.8330965821
    RHS  RD4_20  71.8330965821
    RHS  MIN4_21  0
    RHS  MAX4_21  0
    RHS  SU4_21  0
    RHS  RU4_21  71.8330965821
    RHS  RD4_21  71.8330965821
    RHS  MIN4_22  0
    RHS  MAX4_22  0
    RHS  SU4_22  0
    RHS  RU4_22  71.8330965821
    RHS  RD4_22  71.8330965821
    RHS  MIN4_23  0
    RHS  MAX4_23  0
    RHS  SU4_23  0
    RHS  RU4_23  71.8330965821
    RHS  RD4_23  71.8330965821
    RHS  MIN5_0  0
    RHS  MAX5_0  0
    RHS  MIN5_1  0
    RHS  MAX5_1  0
    RHS  SU5_1  0
    RHS  RU5_1  74.6545540511
    RHS  RD5_1  74.6545540511
    RHS  MIN5_2  0
    RHS  MAX5_2  0
    RHS  SU5_2  0
    RHS  RU5_2  74.6545540511
    RHS  RD5_2  74.6545540511
    RHS  MIN5_3  0
    RHS  MAX5_3  0
    RHS  SU5_3  0
    RHS  RU5_3  74.6545540511
    RHS  RD5_3  74.6545540511
    RHS  MIN5_4  0
    RHS  MAX5_4  0
    RHS  SU5_4  0
    RHS  RU5_4  74.6545540511
    RHS  RD5_4  74.6545540511
    RHS  MIN5_5  0
    RHS  MAX5_5  0
    RHS  SU5_5  0
    RHS  RU5_5  74.6545540511
    RHS  RD5_5  74.6545540511
    RHS  MIN5_6  0
    RHS  MAX5_6  0
    RHS  SU5_6  0
    RHS  RU5_6  74.6545540511
    RHS  RD5_6  74.6545540511
    RHS  MIN5_7  0
    RHS  MAX5_7  0
    RHS  SU5_7  0
    RHS  RU5_7  74.6545540511
    RHS  RD5_7  74.6545540511
    RHS  MIN5_8  0
    RHS  MAX5_8  0
    RHS  SU5_8  0
    RHS  RU5_8  74.6545540511
    RHS  RD5_8  74.6545540511
    RHS  MIN5_9  0
    RHS  MAX5_9  0
    RHS  SU5_9  0
    RHS  RU5_9  74.6545540511
    RHS  RD5_9  74.6545540511
    RHS  MIN5_10  0
    RHS  MAX5_10  0
    RHS  SU5_10  0
    RHS  RU5_10  74.6545540511
    RHS  RD5_10  74.6545540511
    RHS  MIN5_11  0
    RHS  MAX5_11  0
    RHS  SU5_11  0
    RHS  RU5_11  74.6545540511
    RHS  RD5_11  74.6545540511
    RHS  MIN5_12  0
    RHS  MAX5_12  0
    RHS  SU5_12  0
    RHS  RU5_12  74.6545540511
    RHS  RD5_12  74.6545540511
    RHS  MIN5_13  0
    RHS  MAX5_13  0
    RHS  SU5_13  0
    RHS  RU5_13  74.6545540511
    RHS  RD5_13  74.6545540511
    RHS  MIN5_14  0
    RHS  MAX5_14  0
    RHS  SU5_14  0
    RHS  RU5_14  74.6545540511
    RHS  RD5_14  74.6545540511
    RHS  MIN5_15  0
    RHS  MAX5_15  0
    RHS  SU5_15  0
    RHS  RU5_15  74.6545540511
    RHS  RD5_15  74.6545540511
    RHS  MIN5_16  0
    RHS  MAX5_16  0
    RHS  SU5_16  0
    RHS  RU5_16  74.6545540511
    RHS  RD5_16  74.6545540511
    RHS  MIN5_17  0
    RHS  MAX5_17  0
    RHS  SU5_17  0
    RHS  RU5_17  74.6545540511
    RHS  RD5_17  74.6545540511
    RHS  MIN5_18  0
    RHS  MAX5_18  0
    RHS  SU5_18  0
    RHS  RU5_18  74.6545540511
    RHS  RD5_18  74.6545540511
    RHS  MIN5_19  0
    RHS  MAX5_19  0
    RHS  SU5_19  0
    RHS  RU5_19  74.6545540511
    RHS  RD5_19  74.6545540511
    RHS  MIN5_20  0
    RHS  MAX5_20  0
    RHS  SU5_20  0
    RHS  RU5_20  74.6545540511
    RHS  RD5_20  74.6545540511
    RHS  MIN5_21  0
    RHS  MAX5_21  0
    RHS  SU5_21  0
    RHS  RU5_21  74.6545540511
    RHS  RD5_21  74.6545540511
    RHS  MIN5_22  0
    RHS  MAX5_22  0
    RHS  SU5_22  0
    RHS  RU5_22  74.6545540511
    RHS  RD5_22  74.6545540511
    RHS  MIN5_23  0
    RHS  MAX5_23  0
    RHS  SU5_23  0
    RHS  RU5_23  74.6545540511
    RHS  RD5_23  74.6545540511
    RHS  MIN6_0  0
    RHS  MAX6_0  0
    RHS  MIN6_1  0
    RHS  MAX6_1  0
    RHS  SU6_1  0
    RHS  RU6_1  50.1496313653
    RHS  RD6_1  50.1496313653
    RHS  MIN6_2  0
    RHS  MAX6_2  0
    RHS  SU6_2  0
    RHS  RU6_2  50.1496313653
    RHS  RD6_2  50.1496313653
    RHS  MIN6_3  0
    RHS  MAX6_3  0
    RHS  SU6_3  0
    RHS  RU6_3  50.1496313653
    RHS  RD6_3  50.1496313653
    RHS  MIN6_4  0
    RHS  MAX6_4  0
    RHS  SU6_4  0
    RHS  RU6_4  50.1496313653
    RHS  RD6_4  50.1496313653
    RHS  MIN6_5  0
    RHS  MAX6_5  0
    RHS  SU6_5  0
    RHS  RU6_5  50.1496313653
    RHS  RD6_5  50.1496313653
    RHS  MIN6_6  0
    RHS  MAX6_6  0
    RHS  SU6_6  0
    RHS  RU6_6  50.1496313653
    RHS  RD6_6  50.1496313653
    RHS  MIN6_7  0
    RHS  MAX6_7  0
    RHS  SU6_7  0
    RHS  RU6_7  50.1496313653
    RHS  RD6_7  50.1496313653
    RHS  MIN6_8  0
    RHS  MAX6_8  0
    RHS  SU6_8  0
    RHS  RU6_8  50.1496313653
    RHS  RD6_8  50.1496313653
    RHS  MIN6_9  0
    RHS  MAX6_9  0
    RHS  SU6_9  0
    RHS  RU6_9  50.1496313653
    RHS  RD6_9  50.1496313653
    RHS  MIN6_10  0
    RHS  MAX6_10  0
    RHS  SU6_10  0
    RHS  RU6_10  50.1496313653
    RHS  RD6_10  50.1496313653
    RHS  MIN6_11  0
    RHS  MAX6_11  0
    RHS  SU6_11  0
    RHS  RU6_11  50.1496313653
    RHS  RD6_11  50.1496313653
    RHS  MIN6_12  0
    RHS  MAX6_12  0
    RHS  SU6_12  0
    RHS  RU6_12  50.1496313653
    RHS  RD6_12  50.1496313653
    RHS  MIN6_13  0
    RHS  MAX6_13  0
    RHS  SU6_13  0
    RHS  RU6_13  50.1496313653
    RHS  RD6_13  50.1496313653
    RHS  MIN6_14  0
    RHS  MAX6_14  0
    RHS  SU6_14  0
    RHS  RU6_14  50.1496313653
    RHS  RD6_14  50.1496313653
    RHS  MIN6_15  0
    RHS  MAX6_15  0
    RHS  SU6_15  0
    RHS  RU6_15  50.1496313653
    RHS  RD6_15  50.1496313653
    RHS  MIN6_16  0
    RHS  MAX6_16  0
    RHS  SU6_16  0
    RHS  RU6_16  50.1496313653
    RHS  RD6_16  50.1496313653
    RHS  MIN6_17  0
    RHS  MAX6_17  0
    RHS  SU6_17  0
    RHS  RU6_17  50.1496313653
    RHS  RD6_17  50.1496313653
    RHS  MIN6_18  0
    RHS  MAX6_18  0
    RHS  SU6_18  0
    RHS  RU6_18  50.1496313653
    RHS  RD6_18  50.1496313653
    RHS  MIN6_19  0
    RHS  MAX6_19  0
    RHS  SU6_19  0
    RHS  RU6_19  50.1496313653
    RHS  RD6_19  50.1496313653
    RHS  MIN6_20  0
    RHS  MAX6_20  0
    RHS  SU6_20  0
    RHS  RU6_20  50.1496313653
    RHS  RD6_20  50.1496313653
    RHS  MIN6_21  0
    RHS  MAX6_21  0
    RHS  SU6_21  0
    RHS  RU6_21  50.1496313653
    RHS  RD6_21  50.1496313653
    RHS  MIN6_22  0
    RHS  MAX6_22  0
    RHS  SU6_22  0
    RHS  RU6_22  50.1496313653
    RHS  RD6_22  50.1496313653
    RHS  MIN6_23  0
    RHS  MAX6_23  0
    RHS  SU6_23  0
    RHS  RU6_23  50.1496313653
    RHS  RD6_23  50.1496313653
    RHS  MIN7_0  0
    RHS  MAX7_0  0
    RHS  MIN7_1  0
    RHS  MAX7_1  0
    RHS  SU7_1  0
    RHS  RU7_1  47.9693472097
    RHS  RD7_1  47.9693472097
    RHS  MIN7_2  0
    RHS  MAX7_2  0
    RHS  SU7_2  0
    RHS  RU7_2  47.9693472097
    RHS  RD7_2  47.9693472097
    RHS  MIN7_3  0
    RHS  MAX7_3  0
    RHS  SU7_3  0
    RHS  RU7_3  47.9693472097
    RHS  RD7_3  47.9693472097
    RHS  MIN7_4  0
    RHS  MAX7_4  0
    RHS  SU7_4  0
    RHS  RU7_4  47.9693472097
    RHS  RD7_4  47.9693472097
    RHS  MIN7_5  0
    RHS  MAX7_5  0
    RHS  SU7_5  0
    RHS  RU7_5  47.9693472097
    RHS  RD7_5  47.9693472097
    RHS  MIN7_6  0
    RHS  MAX7_6  0
    RHS  SU7_6  0
    RHS  RU7_6  47.9693472097
    RHS  RD7_6  47.9693472097
    RHS  MIN7_7  0
    RHS  MAX7_7  0
    RHS  SU7_7  0
    RHS  RU7_7  47.9693472097
    RHS  RD7_7  47.9693472097
    RHS  MIN7_8  0
    RHS  MAX7_8  0
    RHS  SU7_8  0
    RHS  RU7_8  47.9693472097
    RHS  RD7_8  47.9693472097
    RHS  MIN7_9  0
    RHS  MAX7_9  0
    RHS  SU7_9  0
    RHS  RU7_9  47.9693472097
    RHS  RD7_9  47.9693472097
    RHS  MIN7_10  0
    RHS  MAX7_10  0
    RHS  SU7_10  0
    RHS  RU7_10  47.9693472097
    RHS  RD7_10  47.9693472097
    RHS  MIN7_11  0
    RHS  MAX7_11  0
    RHS  SU7_11  0
    RHS  RU7_11  47.9693472097
    RHS  RD7_11  47.9693472097
    RHS  MIN7_12  0
    RHS  MAX7_12  0
    RHS  SU7_12  0
    RHS  RU7_12  47.9693472097
    RHS  RD7_12  47.9693472097
    RHS  MIN7_13  0
    RHS  MAX7_13  0
    RHS  SU7_13  0
    RHS  RU7_13  47.9693472097
    RHS  RD7_13  47.9693472097
    RHS  MIN7_14  0
    RHS  MAX7_14  0
    RHS  SU7_14  0
    RHS  RU7_14  47.9693472097
    RHS  RD7_14  47.9693472097
    RHS  MIN7_15  0
    RHS  MAX7_15  0
    RHS  SU7_15  0
    RHS  RU7_15  47.9693472097
    RHS  RD7_15  47.9693472097
    RHS  MIN7_16  0
    RHS  MAX7_16  0
    RHS  SU7_16  0
    RHS  RU7_16  47.9693472097
    RHS  RD7_16  47.9693472097
    RHS  MIN7_17  0
    RHS  MAX7_17  0
    RHS  SU7_17  0
    RHS  RU7_17  47.9693472097
    RHS  RD7_17  47.9693472097
    RHS  MIN7_18  0
    RHS  MAX7_18  0
    RHS  SU7_18  0
    RHS  RU7_18  47.9693472097
    RHS  RD7_18  47.9693472097
    RHS  MIN7_19  0
    RHS  MAX7_19  0
    RHS  SU7_19  0
    RHS  RU7_19  47.9693472097
    RHS  RD7_19  47.9693472097
    RHS  MIN7_20  0
    RHS  MAX7_20  0
    RHS  SU7_20  0
    RHS  RU7_20  47.9693472097
    RHS  RD7_20  47.9693472097
    RHS  MIN7_21  0
    RHS  MAX7_21  0
    RHS  SU7_21  0
    RHS  RU7_21  47.9693472097
    RHS  RD7_21  47.9693472097
    RHS  MIN7_22  0
    RHS  MAX7_22  0
    RHS  SU7_22  0
    RHS  RU7_22  47.9693472097
    RHS  RD7_22  47.9693472097
    RHS  MIN7_23  0
    RHS  MAX7_23  0
    RHS  SU7_23  0
    RHS  RU7_23  47.9693472097
    RHS  RD7_23  47.9693472097
    RHS  MIN8_0  0
    RHS  MAX8_0  0
    RHS  MIN8_1  0
    RHS  MAX8_1  0
    RHS  SU8_1  0
    RHS  RU8_1  79.4821061519
    RHS  RD8_1  79.4821061519
    RHS  MIN8_2  0
    RHS  MAX8_2  0
    RHS  SU8_2  0
    RHS  RU8_2  79.4821061519
    RHS  RD8_2  79.4821061519
    RHS  MIN8_3  0
    RHS  MAX8_3  0
    RHS  SU8_3  0
    RHS  RU8_3  79.4821061519
    RHS  RD8_3  79.4821061519
    RHS  MIN8_4  0
    RHS  MAX8_4  0
    RHS  SU8_4  0
    RHS  RU8_4  79.4821061519
    RHS  RD8_4  79.4821061519
    RHS  MIN8_5  0
    RHS  MAX8_5  0
    RHS  SU8_5  0
    RHS  RU8_5  79.4821061519
    RHS  RD8_5  79.4821061519
    RHS  MIN8_6  0
    RHS  MAX8_6  0
    RHS  SU8_6  0
    RHS  RU8_6  79.4821061519
    RHS  RD8_6  79.4821061519
    RHS  MIN8_7  0
    RHS  MAX8_7  0
    RHS  SU8_7  0
    RHS  RU8_7  79.4821061519
    RHS  RD8_7  79.4821061519
    RHS  MIN8_8  0
    RHS  MAX8_8  0
    RHS  SU8_8  0
    RHS  RU8_8  79.4821061519
    RHS  RD8_8  79.4821061519
    RHS  MIN8_9  0
    RHS  MAX8_9  0
    RHS  SU8_9  0
    RHS  RU8_9  79.4821061519
    RHS  RD8_9  79.4821061519
    RHS  MIN8_10  0
    RHS  MAX8_10  0
    RHS  SU8_10  0
    RHS  RU8_10  79.4821061519
    RHS  RD8_10  79.4821061519
    RHS  MIN8_11  0
    RHS  MAX8_11  0
    RHS  SU8_11  0
    RHS  RU8_11  79.4821061519
    RHS  RD8_11  79.4821061519
    RHS  MIN8_12  0
    RHS  MAX8_12  0
    RHS  SU8_12  0
    RHS  RU8_12  79.4821061519
    RHS  RD8_12  79.4821061519
    RHS  MIN8_13  0
    RHS  MAX8_13  0
    RHS  SU8_13  0
    RHS  RU8_13  79.4821061519
    RHS  RD8_13  79.4821061519
    RHS  MIN8_14  0
    RHS  MAX8_14  0
    RHS  SU8_14  0
    RHS  RU8_14  79.4821061519
    RHS  RD8_14  79.4821061519
    RHS  MIN8_15  0
    RHS  MAX8_15  0
    RHS  SU8_15  0
    RHS  RU8_15  79.4821061519
    RHS  RD8_15  79.4821061519
    RHS  MIN8_16  0
    RHS  MAX8_16  0
    RHS  SU8_16  0
    RHS  RU8_16  79.4821061519
    RHS  RD8_16  79.4821061519
    RHS  MIN8_17  0
    RHS  MAX8_17  0
    RHS  SU8_17  0
    RHS  RU8_17  79.4821061519
    RHS  RD8_17  79.4821061519
    RHS  MIN8_18  0
    RHS  MAX8_18  0
    RHS  SU8_18  0
    RHS  RU8_18  79.4821061519
    RHS  RD8_18  79.4821061519
    RHS  MIN8_19  0
    RHS  MAX8_19  0
    RHS  SU8_19  0
    RHS  RU8_19  79.4821061519
    RHS  RD8_19  79.4821061519
    RHS  MIN8_20  0
    RHS  MAX8_20  0
    RHS  SU8_20  0
    RHS  RU8_20  79.4821061519
    RHS  RD8_20  79.4821061519
    RHS  MIN8_21  0
    RHS  MAX8_21  0
    RHS  SU8_21  0
    RHS  RU8_21  79.4821061519
    RHS  RD8_21  79.4821061519
    RHS  MIN8_22  0
    RHS  MAX8_22  0
    RHS  SU8_22  0
    RHS  RU8_22  79.4821061519
    RHS  RD8_22  79.4821061519
    RHS  MIN8_23  0
    RHS  MAX8_23  0
    RHS  SU8_23  0
    RHS  RU8_23  79.4821061519
    RHS  RD8_23  79.4821061519
    RHS  MIN9_0  0
    RHS  MAX9_0  0
    RHS  MIN9_1  0
    RHS  MAX9_1  0
    RHS  SU9_1  0
    RHS  RU9_1  88.535993246
    RHS  RD9_1  88.535993246
    RHS  MIN9_2  0
    RHS  MAX9_2  0
    RHS  SU9_2  0
    RHS  RU9_2  88.535993246
    RHS  RD9_2  88.535993246
    RHS  MIN9_3  0
    RHS  MAX9_3  0
    RHS  SU9_3  0
    RHS  RU9_3  88.535993246
    RHS  RD9_3  88.535993246
    RHS  MIN9_4  0
    RHS  MAX9_4  0
    RHS  SU9_4  0
    RHS  RU9_4  88.535993246
    RHS  RD9_4  88.535993246
    RHS  MIN9_5  0
    RHS  MAX9_5  0
    RHS  SU9_5  0
    RHS  RU9_5  88.535993246
    RHS  RD9_5  88.535993246
    RHS  MIN9_6  0
    RHS  MAX9_6  0
    RHS  SU9_6  0
    RHS  RU9_6  88.535993246
    RHS  RD9_6  88.535993246
    RHS  MIN9_7  0
    RHS  MAX9_7  0
    RHS  SU9_7  0
    RHS  RU9_7  88.535993246
    RHS  RD9_7  88.535993246
    RHS  MIN9_8  0
    RHS  MAX9_8  0
    RHS  SU9_8  0
    RHS  RU9_8  88.535993246
    RHS  RD9_8  88.535993246
    RHS  MIN9_9  0
    RHS  MAX9_9  0
    RHS  SU9_9  0
    RHS  RU9_9  88.535993246
    RHS  RD9_9  88.535993246
    RHS  MIN9_10  0
    RHS  MAX9_10  0
    RHS  SU9_10  0
    RHS  RU9_10  88.535993246
    RHS  RD9_10  88.535993246
    RHS  MIN9_11  0
    RHS  MAX9_11  0
    RHS  SU9_11  0
    RHS  RU9_11  88.535993246
    RHS  RD9_11  88.535993246
    RHS  MIN9_12  0
    RHS  MAX9_12  0
    RHS  SU9_12  0
    RHS  RU9_12  88.535993246
    RHS  RD9_12  88.535993246
    RHS  MIN9_13  0
    RHS  MAX9_13  0
    RHS  SU9_13  0
    RHS  RU9_13  88.535993246
    RHS  RD9_13  88.535993246
    RHS  MIN9_14  0
    RHS  MAX9_14  0
    RHS  SU9_14  0
    RHS  RU9_14  88.535993246
    RHS  RD9_14  88.535993246
    RHS  MIN9_15  0
    RHS  MAX9_15  0
    RHS  SU9_15  0
    RHS  RU9_15  88.535993246
    RHS  RD9_15  88.535993246
    RHS  MIN9_16  0
    RHS  MAX9_16  0
    RHS  SU9_16  0
    RHS  RU9_16  88.535993246
    RHS  RD9_16  88.535993246
    RHS  MIN9_17  0
    RHS  MAX9_17  0
    RHS  SU9_17  0
    RHS  RU9_17  88.535993246
    RHS  RD9_17  88.535993246
    RHS  MIN9_18  0
    RHS  MAX9_18  0
    RHS  SU9_18  0
    RHS  RU9_18  88.535993246
    RHS  RD9_18  88.535993246
    RHS  MIN9_19  0
    RHS  MAX9_19  0
    RHS  SU9_19  0
    RHS  RU9_19  88.535993246
    RHS  RD9_19  88.535993246
    RHS  MIN9_20  0
    RHS  MAX9_20  0
    RHS  SU9_20  0
    RHS  RU9_20  88.535993246
    RHS  RD9_20  88.535993246
    RHS  MIN9_21  0
    RHS  MAX9_21  0
    RHS  SU9_21  0
    RHS  RU9_21  88.535993246
    RHS  RD9_21  88.535993246
    RHS  MIN9_22  0
    RHS  MAX9_22  0
    RHS  SU9_22  0
    RHS  RU9_22  88.535993246
    RHS  RD9_22  88.535993246
    RHS  MIN9_23  0
    RHS  MAX9_23  0
    RHS  SU9_23  0
    RHS  RU9_23  88.535993246
    RHS  RD9_23  88.535993246
    RHS  MIN10_0  0
    RHS  MAX10_0  0
    RHS  MIN10_1  0
    RHS  MAX10_1  0
    RHS  SU10_1  0
    RHS  RU10_1  70.6436883999
    RHS  RD10_1  70.6436883999
    RHS  MIN10_2  0
    RHS  MAX10_2  0
    RHS  SU10_2  0
    RHS  RU10_2  70.6436883999
    RHS  RD10_2  70.6436883999
    RHS  MIN10_3  0
    RHS  MAX10_3  0
    RHS  SU10_3  0
    RHS  RU10_3  70.6436883999
    RHS  RD10_3  70.6436883999
    RHS  MIN10_4  0
    RHS  MAX10_4  0
    RHS  SU10_4  0
    RHS  RU10_4  70.6436883999
    RHS  RD10_4  70.6436883999
    RHS  MIN10_5  0
    RHS  MAX10_5  0
    RHS  SU10_5  0
    RHS  RU10_5  70.6436883999
    RHS  RD10_5  70.6436883999
    RHS  MIN10_6  0
    RHS  MAX10_6  0
    RHS  SU10_6  0
    RHS  RU10_6  70.6436883999
    RHS  RD10_6  70.6436883999
    RHS  MIN10_7  0
    RHS  MAX10_7  0
    RHS  SU10_7  0
    RHS  RU10_7  70.6436883999
    RHS  RD10_7  70.6436883999
    RHS  MIN10_8  0
    RHS  MAX10_8  0
    RHS  SU10_8  0
    RHS  RU10_8  70.6436883999
    RHS  RD10_8  70.6436883999
    RHS  MIN10_9  0
    RHS  MAX10_9  0
    RHS  SU10_9  0
    RHS  RU10_9  70.6436883999
    RHS  RD10_9  70.6436883999
    RHS  MIN10_10  0
    RHS  MAX10_10  0
    RHS  SU10_10  0
    RHS  RU10_10  70.6436883999
    RHS  RD10_10  70.6436883999
    RHS  MIN10_11  0
    RHS  MAX10_11  0
    RHS  SU10_11  0
    RHS  RU10_11  70.6436883999
    RHS  RD10_11  70.6436883999
    RHS  MIN10_12  0
    RHS  MAX10_12  0
    RHS  SU10_12  0
    RHS  RU10_12  70.6436883999
    RHS  RD10_12  70.6436883999
    RHS  MIN10_13  0
    RHS  MAX10_13  0
    RHS  SU10_13  0
    RHS  RU10_13  70.6436883999
    RHS  RD10_13  70.6436883999
    RHS  MIN10_14  0
    RHS  MAX10_14  0
    RHS  SU10_14  0
    RHS  RU10_14  70.6436883999
    RHS  RD10_14  70.6436883999
    RHS  MIN10_15  0
    RHS  MAX10_15  0
    RHS  SU10_15  0
    RHS  RU10_15  70.6436883999
    RHS  RD10_15  70.6436883999
    RHS  MIN10_16  0
    RHS  MAX10_16  0
    RHS  SU10_16  0
    RHS  RU10_16  70.6436883999
    RHS  RD10_16  70.6436883999
    RHS  MIN10_17  0
    RHS  MAX10_17  0
    RHS  SU10_17  0
    RHS  RU10_17  70.6436883999
    RHS  RD10_17  70.6436883999
    RHS  MIN10_18  0
    RHS  MAX10_18  0
    RHS  SU10_18  0
    RHS  RU10_18  70.6436883999
    RHS  RD10_18  70.6436883999
    RHS  MIN10_19  0
    RHS  MAX10_19  0
    RHS  SU10_19  0
    RHS  RU10_19  70.6436883999
    RHS  RD10_19  70.6436883999
    RHS  MIN10_20  0
    RHS  MAX10_20  0
    RHS  SU10_20  0
    RHS  RU10_20  70.6436883999
    RHS  RD10_20  70.6436883999
    RHS  MIN10_21  0
    RHS  MAX10_21  0
    RHS  SU10_21  0
    RHS  RU10_21  70.6436883999
    RHS  RD10_21  70.6436883999
    RHS  MIN10_22  0
    RHS  MAX10_22  0
    RHS  SU10_22  0
    RHS  RU10_22  70.6436883999
    RHS  RD10_22  70.6436883999
    RHS  MIN10_23  0
    RHS  MAX10_23  0
    RHS  SU10_23  0
    RHS  RU10_23  70.6436883999
    RHS  RD10_23  70.6436883999
    RHS  MIN11_0  0
    RHS  MAX11_0  0
    RHS  MIN11_1  0
    RHS  MAX11_1  0
    RHS  SU11_1  0
    RHS  RU11_1  30.7728423058
    RHS  RD11_1  30.7728423058
    RHS  MIN11_2  0
    RHS  MAX11_2  0
    RHS  SU11_2  0
    RHS  RU11_2  30.7728423058
    RHS  RD11_2  30.7728423058
    RHS  MIN11_3  0
    RHS  MAX11_3  0
    RHS  SU11_3  0
    RHS  RU11_3  30.7728423058
    RHS  RD11_3  30.7728423058
    RHS  MIN11_4  0
    RHS  MAX11_4  0
    RHS  SU11_4  0
    RHS  RU11_4  30.7728423058
    RHS  RD11_4  30.7728423058
    RHS  MIN11_5  0
    RHS  MAX11_5  0
    RHS  SU11_5  0
    RHS  RU11_5  30.7728423058
    RHS  RD11_5  30.7728423058
    RHS  MIN11_6  0
    RHS  MAX11_6  0
    RHS  SU11_6  0
    RHS  RU11_6  30.7728423058
    RHS  RD11_6  30.7728423058
    RHS  MIN11_7  0
    RHS  MAX11_7  0
    RHS  SU11_7  0
    RHS  RU11_7  30.7728423058
    RHS  RD11_7  30.7728423058
    RHS  MIN11_8  0
    RHS  MAX11_8  0
    RHS  SU11_8  0
    RHS  RU11_8  30.7728423058
    RHS  RD11_8  30.7728423058
    RHS  MIN11_9  0
    RHS  MAX11_9  0
    RHS  SU11_9  0
    RHS  RU11_9  30.7728423058
    RHS  RD11_9  30.7728423058
    RHS  MIN11_10  0
    RHS  MAX11_10  0
    RHS  SU11_10  0
    RHS  RU11_10  30.7728423058
    RHS  RD11_10  30.7728423058
    RHS  MIN11_11  0
    RHS  MAX11_11  0
    RHS  SU11_11  0
    RHS  RU11_11  30.7728423058
    RHS  RD11_11  30.7728423058
    RHS  MIN11_12  0
    RHS  MAX11_12  0
    RHS  SU11_12  0
    RHS  RU11_12  30.7728423058
    RHS  RD11_12  30.7728423058
    RHS  MIN11_13  0
    RHS  MAX11_13  0
    RHS  SU11_13  0
    RHS  RU11_13  30.7728423058
    RHS  RD11_13  30.7728423058
    RHS  MIN11_14  0
    RHS  MAX11_14  0
    RHS  SU11_14  0
    RHS  RU11_14  30.7728423058
    RHS  RD11_14  30.7728423058
    RHS  MIN11_15  0
    RHS  MAX11_15  0
    RHS  SU11_15  0
    RHS  RU11_15  30.7728423058
    RHS  RD11_15  30.7728423058
    RHS  MIN11_16  0
    RHS  MAX11_16  0
    RHS  SU11_16  0
    RHS  RU11_16  30.7728423058
    RHS  RD11_16  30.7728423058
    RHS  MIN11_17  0
    RHS  MAX11_17  0
    RHS  SU11_17  0
    RHS  RU11_17  30.7728423058
    RHS  RD11_17  30.7728423058
    RHS  MIN11_18  0
    RHS  MAX11_18  0
    RHS  SU11_18  0
    RHS  RU11_18  30.7728423058
    RHS  RD11_18  30.7728423058
    RHS  MIN11_19  0
    RHS  MAX11_19  0
    RHS  SU11_19  0
    RHS  RU11_19  30.7728423058
    RHS  RD11_19  30.7728423058
    RHS  MIN11_20  0
    RHS  MAX11_20  0
    RHS  SU11_20  0
    RHS  RU11_20  30.7728423058
    RHS  RD11_20  30.7728423058
    RHS  MIN11_21  0
    RHS  MAX11_21  0
    RHS  SU11_21  0
    RHS  RU11_21  30.7728423058
    RHS  RD11_21  30.7728423058
    RHS  MIN11_22  0
    RHS  MAX11_22  0
    RHS  SU11_22  0
    RHS  RU11_22  30.7728423058
    RHS  RD11_22  30.7728423058
    RHS  MIN11_23  0
    RHS  MAX11_23  0
    RHS  SU11_23  0
    RHS  RU11_23  30.7728423058
    RHS  RD11_23  30.7728423058
    RHS  MIN12_0  0
    RHS  MAX12_0  0
    RHS  MIN12_1  0
    RHS  MAX12_1  0
    RHS  SU12_1  0
    RHS  RU12_1  64.8213251989
    RHS  RD12_1  64.8213251989
    RHS  MIN12_2  0
    RHS  MAX12_2  0
    RHS  SU12_2  0
    RHS  RU12_2  64.8213251989
    RHS  RD12_2  64.8213251989
    RHS  MIN12_3  0
    RHS  MAX12_3  0
    RHS  SU12_3  0
    RHS  RU12_3  64.8213251989
    RHS  RD12_3  64.8213251989
    RHS  MIN12_4  0
    RHS  MAX12_4  0
    RHS  SU12_4  0
    RHS  RU12_4  64.8213251989
    RHS  RD12_4  64.8213251989
    RHS  MIN12_5  0
    RHS  MAX12_5  0
    RHS  SU12_5  0
    RHS  RU12_5  64.8213251989
    RHS  RD12_5  64.8213251989
    RHS  MIN12_6  0
    RHS  MAX12_6  0
    RHS  SU12_6  0
    RHS  RU12_6  64.8213251989
    RHS  RD12_6  64.8213251989
    RHS  MIN12_7  0
    RHS  MAX12_7  0
    RHS  SU12_7  0
    RHS  RU12_7  64.8213251989
    RHS  RD12_7  64.8213251989
    RHS  MIN12_8  0
    RHS  MAX12_8  0
    RHS  SU12_8  0
    RHS  RU12_8  64.8213251989
    RHS  RD12_8  64.8213251989
    RHS  MIN12_9  0
    RHS  MAX12_9  0
    RHS  SU12_9  0
    RHS  RU12_9  64.8213251989
    RHS  RD12_9  64.8213251989
    RHS  MIN12_10  0
    RHS  MAX12_10  0
    RHS  SU12_10  0
    RHS  RU12_10  64.8213251989
    RHS  RD12_10  64.8213251989
    RHS  MIN12_11  0
    RHS  MAX12_11  0
    RHS  SU12_11  0
    RHS  RU12_11  64.8213251989
    RHS  RD12_11  64.8213251989
    RHS  MIN12_12  0
    RHS  MAX12_12  0
    RHS  SU12_12  0
    RHS  RU12_12  64.8213251989
    RHS  RD12_12  64.8213251989
    RHS  MIN12_13  0
    RHS  MAX12_13  0
    RHS  SU12_13  0
    RHS  RU12_13  64.8213251989
    RHS  RD12_13  64.8213251989
    RHS  MIN12_14  0
    RHS  MAX12_14  0
    RHS  SU12_14  0
    RHS  RU12_14  64.8213251989
    RHS  RD12_14  64.8213251989
    RHS  MIN12_15  0
    RHS  MAX12_15  0
    RHS  SU12_15  0
    RHS  RU12_15  64.8213251989
    RHS  RD12_15  64.8213251989
    RHS  MIN12_16  0
    RHS  MAX12_16  0
    RHS  SU12_16  0
    RHS  RU12_16  64.8213251989
    RHS  RD12_16  64.8213251989
    RHS  MIN12_17  0
    RHS  MAX12_17  0
    RHS  SU12_17  0
    RHS  RU12_17  64.8213251989
    RHS  RD12_17  64.8213251989
    RHS  MIN12_18  0
    RHS  MAX12_18  0
    RHS  SU12_18  0
    RHS  RU12_18  64.8213251989
    RHS  RD12_18  64.8213251989
    RHS  MIN12_19  0
    RHS  MAX12_19  0
    RHS  SU12_19  0
    RHS  RU12_19  64.8213251989
    RHS  RD12_19  64.8213251989
    RHS  MIN12_20  0
    RHS  MAX12_20  0
    RHS  SU12_20  0
    RHS  RU12_20  64.8213251989
    RHS  RD12_20  64.8213251989
    RHS  MIN12_21  0
    RHS  MAX12_21  0
    RHS  SU12_21  0
    RHS  RU12_21  64.8213251989
    RHS  RD12_21  64.8213251989
    RHS  MIN12_22  0
    RHS  MAX12_22  0
    RHS  SU12_22  0
    RHS  RU12_22  64.8213251989
    RHS  RD12_22  64.8213251989
    RHS  MIN12_23  0
    RHS  MAX12_23  0
    RHS  SU12_23  0
    RHS  RU12_23  64.8213251989
    RHS  RD12_23  64.8213251989
    RHS  MIN13_0  0
    RHS  MAX13_0  0
    RHS  MIN13_1  0
    RHS  MAX13_1  0
    RHS  SU13_1  0
    RHS  RU13_1  59.7428318552
    RHS  RD13_1  59.7428318552
    RHS  MIN13_2  0
    RHS  MAX13_2  0
    RHS  SU13_2  0
    RHS  RU13_2  59.7428318552
    RHS  RD13_2  59.7428318552
    RHS  MIN13_3  0
    RHS  MAX13_3  0
    RHS  SU13_3  0
    RHS  RU13_3  59.7428318552
    RHS  RD13_3  59.7428318552
    RHS  MIN13_4  0
    RHS  MAX13_4  0
    RHS  SU13_4  0
    RHS  RU13_4  59.7428318552
    RHS  RD13_4  59.7428318552
    RHS  MIN13_5  0
    RHS  MAX13_5  0
    RHS  SU13_5  0
    RHS  RU13_5  59.7428318552
    RHS  RD13_5  59.7428318552
    RHS  MIN13_6  0
    RHS  MAX13_6  0
    RHS  SU13_6  0
    RHS  RU13_6  59.7428318552
    RHS  RD13_6  59.7428318552
    RHS  MIN13_7  0
    RHS  MAX13_7  0
    RHS  SU13_7  0
    RHS  RU13_7  59.7428318552
    RHS  RD13_7  59.7428318552
    RHS  MIN13_8  0
    RHS  MAX13_8  0
    RHS  SU13_8  0
    RHS  RU13_8  59.7428318552
    RHS  RD13_8  59.7428318552
    RHS  MIN13_9  0
    RHS  MAX13_9  0
    RHS  SU13_9  0
    RHS  RU13_9  59.7428318552
    RHS  RD13_9  59.7428318552
    RHS  MIN13_10  0
    RHS  MAX13_10  0
    RHS  SU13_10  0
    RHS  RU13_10  59.7428318552
    RHS  RD13_10  59.7428318552
    RHS  MIN13_11  0
    RHS  MAX13_11  0
    RHS  SU13_11  0
    RHS  RU13_11  59.7428318552
    RHS  RD13_11  59.7428318552
    RHS  MIN13_12  0
    RHS  MAX13_12  0
    RHS  SU13_12  0
    RHS  RU13_12  59.7428318552
    RHS  RD13_12  59.7428318552
    RHS  MIN13_13  0
    RHS  MAX13_13  0
    RHS  SU13_13  0
    RHS  RU13_13  59.7428318552
    RHS  RD13_13  59.7428318552
    RHS  MIN13_14  0
    RHS  MAX13_14  0
    RHS  SU13_14  0
    RHS  RU13_14  59.7428318552
    RHS  RD13_14  59.7428318552
    RHS  MIN13_15  0
    RHS  MAX13_15  0
    RHS  SU13_15  0
    RHS  RU13_15  59.7428318552
    RHS  RD13_15  59.7428318552
    RHS  MIN13_16  0
    RHS  MAX13_16  0
    RHS  SU13_16  0
    RHS  RU13_16  59.7428318552
    RHS  RD13_16  59.7428318552
    RHS  MIN13_17  0
    RHS  MAX13_17  0
    RHS  SU13_17  0
    RHS  RU13_17  59.7428318552
    RHS  RD13_17  59.7428318552
    RHS  MIN13_18  0
    RHS  MAX13_18  0
    RHS  SU13_18  0
    RHS  RU13_18  59.7428318552
    RHS  RD13_18  59.7428318552
    RHS  MIN13_19  0
    RHS  MAX13_19  0
    RHS  SU13_19  0
    RHS  RU13_19  59.7428318552
    RHS  RD13_19  59.7428318552
    RHS  MIN13_20  0
    RHS  MAX13_20  0
    RHS  SU13_20  0
    RHS  RU13_20  59.7428318552
    RHS  RD13_20  59.7428318552
    RHS  MIN13_21  0
    RHS  MAX13_21  0
    RHS  SU13_21  0
    RHS  RU13_21  59.7428318552
    RHS  RD13_21  59.7428318552
    RHS  MIN13_22  0
    RHS  MAX13_22  0
    RHS  SU13_22  0
    RHS  RU13_22  59.7428318552
    RHS  RD13_22  59.7428318552
    RHS  MIN13_23  0
    RHS  MAX13_23  0
    RHS  SU13_23  0
    RHS  RU13_23  59.7428318552
    RHS  RD13_23  59.7428318552
    RHS  BAL0  722.859924129
    RHS  RES0  809.603115024
    RHS  BAL1  786.222864355
    RHS  RES1  880.569608078
    RHS  BAL2  899.606429517
    RHS  RES2  1007.55920106
    RHS  BAL3  961.943322077
    RHS  RES3  1077.37652073
    RHS  BAL4  1029.35492549
    RHS  RES4  1152.87751655
    RHS  BAL5  1050.18102305
    RHS  RES5  1176.20274581
    RHS  BAL6  1068.58959168
    RHS  RES6  1196.82034268
    RHS  BAL7  1028.35361963
    RHS  RES7  1151.75605398
    RHS  BAL8  993.373726578
    RHS  RES8  1112.57857377
    RHS  BAL9  951.818125125
    RHS  RES9  1066.03630014
    RHS  BAL10  869.253173885
    RHS  RES10  973.563554752
    RHS  BAL11  739.750956459
    RHS  RES11  828.521071234
    RHS  BAL12  645.402120046
    RHS  RES12  722.850374451
    RHS  BAL13  572.750136925
    RHS  RES13  641.480153356
    RHS  BAL14  465.703714168
    RHS  RES14  521.588159868
    RHS  BAL15  374.516813551
    RHS  RES15  419.458831177
    RHS  BAL16  360.578414524
    RHS  RES16  403.847824267
    RHS  BAL17  340.914213513
    RHS  RES17  381.823919135
    RHS  BAL18  318.791140163
    RHS  RES18  357.046076982
    RHS  BAL19  352.414924777
    RHS  RES19  394.70471575
    RHS  BAL20  421.144273978
    RHS  RES20  471.681586855
    RHS  BAL21  523.412981452
    RHS  RES21  586.222539226
    RHS  BAL22  585.995976194
    RHS  RES22  656.315493337
    RHS  BAL23  676.342908201
    RHS  RES23  757.504057186
RANGES
BOUNDS
 UP BND  U0_0  1
 UP BND  P0_0  85.0011391908
 UP BND  V0_0  1
 UP BND  U0_1  1
 UP BND  P0_1  85.0011391908
 UP BND  V0_1  1
 UP BND  U0_2  1
 UP BND  P0_2  85.0011391908
 UP BND  V0_2  1
 UP BND  U0_3  1
 UP BND  P0_3  85.0011391908
 UP BND  V0_3  1
 UP BND  U0_4  1
 UP BND  P0_4  85.0011391908
 UP BND  V0_4  1
 UP BND  U0_5  1
 UP BND  P0_5  85.0011391908
 UP BND  V0_5  1
 UP BND  U0_6  1
 UP BND  P0_6  85.0011391908
 UP BND  V0_6  1
 UP BND  U0_7  1
 UP BND  P0_7  85.0011391908
 UP BND  V0_7  1
 UP BND  U0_8  1
 UP BND  P0_8  85.0011391908
 UP BND  V0_8  1
 UP BND  U0_9  1
 UP BND  P0_9  85.0011391908
 UP BND  V0_9  1
 UP BND  U0_10  1
 UP BND  P0_10  85.0011391908
 UP BND  V0_10  1
 UP BND  U0_11  1
 UP BND  P0_11  85.0011391908
 UP BND  V0_11  1
 UP BND  U0_12  1
 UP BND  P0_12  85.0011391908
 UP BND  V0_12  1
 UP BND  U0_13  1
 UP BND  P0_13  85.0011391908
 UP BND  V0_13  1
 UP BND  U0_14  1
 UP BND  P0_14  85.0011391908
 UP BND  V0_14  1
 UP BND  U0_15  1
 UP BND  P0_15  85.0011391908
 UP BND  V0_15  1
 UP BND  U0_16  1
 UP BND  P0_16  85.0011391908
 UP BND  V0_16  1
 UP BND  U0_17  1
 UP BND  P0_17  85.0011391908
 UP BND  V0_17  1
 UP BND  U0_18  1
 UP BND  P0_18  85.0011391908
 UP BND  V0_18  1
 UP BND  U0_19  1
 UP BND  P0_19  85.0011391908
 UP BND  V0_19  1
 UP BND  U0_20  1
 UP BND  P0_20  85.0011391908
 UP BND  V0_20  1
 UP BND  U0_21  1
 UP BND  P0_21  85.0011391908
 UP BND  V0_21  1
 UP BND  U0_22  1
 UP BND  P0_22  85.0011391908
 UP BND  V0_22  1
 UP BND  U0_23  1
 UP BND  P0_23  85.0011391908
 UP BND  V0_23  1
 UP BND  U1_0  1
 UP BND  P1_0  196.410895794
 UP BND  V1_0  1
 UP BND  U1_1  1
 UP BND  P1_1  196.410895794
 UP BND  V1_1  1
 UP BND  U1_2  1
 UP BND  P1_2  196.410895794
 UP BND  V1_2  1
 UP BND  U1_3  1
 UP BND  P1_3  196.410895794
 UP BND  V1_3  1
 UP BND  U1_4  1
 UP BND  P1_4  196.410895794
 UP BND  V1_4  1
 UP BND  U1_5  1
 UP BND  P1_5  196.410895794
 UP BND  V1_5  1
 UP BND  U1_6  1
 UP BND  P1_6  196.410895794
 UP BND  V1_6  1
 UP BND  U1_7  1
 UP BND  P1_7  196.410895794
 UP BND  V1_7  1
 UP BND  U1_8  1
 UP BND  P1_8  196.410895794
 UP BND  V1_8  1
 UP BND  U1_9  1
 UP BND  P1_9  196.410895794
 UP BND  V1_9  1
 UP BND  U1_10  1
 UP BND  P1_10  196.410895794
 UP BND  V1_10  1
 UP BND  U1_11  1
 UP BND  P1_11  196.410895794
 UP BND  V1_11  1
 UP BND  U1_12  1
 UP BND  P1_12  196.410895794
 UP BND  V1_12  1
 UP BND  U1_13  1
 UP BND  P1_13  196.410895794
 UP BND  V1_13  1
 UP BND  U1_14  1
 UP BND  P1_14  196.410895794
 UP BND  V1_14  1
 UP BND  U1_15  1
 UP BND  P1_15  196.410895794
 UP BND  V1_15  1
 UP BND  U1_16  1
 UP BND  P1_16  196.410895794
 UP BND  V1_16  1
 UP BND  U1_17  1
 UP BND  P1_17  196.410895794
 UP BND  V1_17  1
 UP BND  U1_18  1
 UP BND  P1_18  196.410895794
 UP BND  V1_18  1
 UP BND  U1_19  1
 UP BND  P1_19  196.410895794
 UP BND  V1_19  1
 UP BND  U1_20  1
 UP BND  P1_20  196.410895794
 UP BND  V1_20  1
 UP BND  U1_21  1
 UP BND  P1_21  196.410895794
 UP BND  V1_21  1
 UP BND  U1_22  1
 UP BND  P1_22  196.410895794
 UP BND  V1_22  1
 UP BND  U1_23  1
 UP BND  P1_23  196.410895794
 UP BND  V1_23  1
 UP BND  U2_0  1
 UP BND  P2_0  127.253546745
 UP BND  V2_0  1
 UP BND  U2_1  1
 UP BND  P2_1  127.253546745
 UP BND  V2_1  1
 UP BND  U2_2  1
 UP BND  P2_2  127.253546745
 UP BND  V2_2  1
 UP BND  U2_3  1
 UP BND  P2_3  127.253546745
 UP BND  V2_3  1
 UP BND  U2_4  1
 UP BND  P2_4  127.253546745
 UP BND  V2_4  1
 UP BND  U2_5  1
 UP BND  P2_5  127.253546745
 UP BND  V2_5  1
 UP BND  U2_6  1
 UP BND  P2_6  127.253546745
 UP BND  V2_6  1
 UP BND  U2_7  1
 UP BND  P2_7  127.253546745
 UP BND  V2_7  1
 UP BND  U2_8  1
 UP BND  P2_8  127.253546745
 UP BND  V2_8  1
 UP BND  U2_9  1
 UP BND  P2_9  127.253546745
 UP BND  V2_9  1
 UP BND  U2_10  1
 UP BND  P2_10  127.253546745
 UP BND  V2_10  1
 UP BND  U2_11  1
 UP BND  P2_11  127.253546745
 UP BND  V2_11  1
 UP BND  U2_12  1
 UP BND  P2_12  127.253546745
 UP BND  V2_12  1
 UP BND  U2_13  1
 UP BND  P2_13  127.253546745
 UP BND  V2_13  1
 UP BND  U2_14  1
 UP BND  P2_14  127.253546745
 UP BND  V2_14  1
 UP BND  U2_15  1
 UP BND  P2_15  127.253546745
 UP BND  V2_15  1
 UP BND  U2_16  1
 UP BND  P2_16  127.253546745
 UP BND  V2_16  1
 UP BND  U2_17  1
 UP BND  P2_17  127.253546745
 UP BND  V2_17  1
 UP BND  U2_18  1
 UP BND  P2_18  127.253546745
 UP BND  V2_18  1
 UP BND  U2_19  1
 UP BND  P2_19  127.253546745
 UP BND  V2_19  1
 UP BND  U2_20  1
 UP BND  P2_20  127.253546745
 UP BND  V2_20  1
 UP BND  U2_21  1
 UP BND  P2_21  127.253546745
 UP BND  V2_21  1
 UP BND  U2_22  1
 UP BND  P2_22  127.253546745
 UP BND  V2_22  1
 UP BND  U2_23  1
 UP BND  P2_23  127.253546745
 UP BND  V2_23  1
 UP BND  U3_0  1
 UP BND  P3_0  123.321381144
 UP BND  V3_0  1
 UP BND  U3_1  1
 UP BND  P3_1  123.321381144
 UP BND  V3_1  1
 UP BND  U3_2  1
 UP BND  P3_2  123.321381144
 UP BND  V3_2  1
 UP BND  U3_3  1
 UP BND  P3_3  123.321381144
 UP BND  V3_3  1
 UP BND  U3_4  1
 UP BND  P3_4  123.321381144
 UP BND  V3_4  1
 UP BND  U3_5  1
 UP BND  P3_5  123.321381144
 UP BND  V3_5  1
 UP BND  U3_6  1
 UP BND  P3_6  123.321381144
 UP BND  V3_6  1
 UP BND  U3_7  1
 UP BND  P3_7  123.321381144
 UP BND  V3_7  1
 UP BND  U3_8  1
 UP BND  P3_8  123.321381144
 UP BND  V3_8  1
 UP BND  U3_9  1
 UP BND  P3_9  123.321381144
 UP BND  V3_9  1
 UP BND  U3_10  1
 UP BND  P3_10  123.321381144
 UP BND  V3_10  1
 UP BND  U3_11  1
 UP BND  P3_11  123.321381144
 UP BND  V3_11  1
 UP BND  U3_12  1
 UP BND  P3_12  123.321381144
 UP BND  V3_12  1
 UP BND  U3_13  1
 UP BND  P3_13  123.321381144
 UP BND  V3_13  1
 UP BND  U3_14  1
 UP BND  P3_14  123.321381144
 UP BND  V3_14  1
 UP BND  U3_15  1
 UP BND  P3_15  123.321381144
 UP BND  V3_15  1
 UP BND  U3_16  1
 UP BND  P3_16  123.321381144
 UP BND  V3_16  1
 UP BND  U3_17  1
 UP BND  P3_17  123.321381144
 UP BND  V3_17  1
 UP BND  U3_18  1
 UP BND  P3_18  123.321381144
 UP BND  V3_18  1
 UP BND  U3_19  1
 UP BND  P3_19  123.321381144
 UP BND  V3_19  1
 UP BND  U3_20  1
 UP BND  P3_20  123.321381144
 UP BND  V3_20  1
 UP BND  U3_21  1
 UP BND  P3_21  123.321381144
 UP BND  V3_21  1
 UP BND  U3_22  1
 UP BND  P3_22  123.321381144
 UP BND  V3_22  1
 UP BND  U3_23  1
 UP BND  P3_23  123.321381144
 UP BND  V3_23  1
 UP BND  U4_0  1
 UP BND  P4_0  122.844497362
 UP BND  V4_0  1
 UP BND  U4_1  1
 UP BND  P4_1  122.844497362
 UP BND  V4_1  1
 UP BND  U4_2  1
 UP BND  P4_2  122.844497362
 UP BND  V4_2  1
 UP BND  U4_3  1
 UP BND  P4_3  122.844497362
 UP BND  V4_3  1
 UP BND  U4_4  1
 UP BND  P4_4  122.844497362
 UP BND  V4_4  1
 UP BND  U4_5  1
 UP BND  P4_5  122.844497362
 UP BND  V4_5  1
 UP BND  U4_6  1
 UP BND  P4_6  122.844497362
 UP BND  V4_6  1
 UP BND  U4_7  1
 UP BND  P4_7  122.844497362
 UP BND  V4_7  1
 UP BND  U4_8  1
 UP BND  P4_8  122.844497362
 UP BND  V4_8  1
 UP BND  U4_9  1
 UP BND  P4_9  122.844497362
 UP BND  V4_9  1
 UP BND  U4_10  1
 UP BND  P4_10  122.844497362
 UP BND  V4_10  1
 UP BND  U4_11  1
 UP BND  P4_11  122.844497362
 UP BND  V4_11  1
 UP BND  U4_12  1
 UP BND  P4_12  122.844497362
 UP BND  V4_12  1
 UP BND  U4_13  1
 UP BND  P4_13  122.844497362
 UP BND  V4_13  1
 UP BND  U4_14  1
 UP BND  P4_14  122.844497362
 UP BND  V4_14  1
 UP BND  U4_15  1
 UP BND  P4_15  122.844497362
 UP BND  V4_15  1
 UP BND  U4_16  1
 UP BND  P4_16  122.844497362
 UP BND  V4_16  1
 UP BND  U4_17  1
 UP BND  P4_17  122.844497362
 UP BND  V4_17  1
 UP BND  U4_18  1
 UP BND  P4_18  122.844497362
 UP BND  V4_18  1
 UP BND  U4_19  1
 UP BND  P4_19  122.844497362
 UP BND  V4_19  1
 UP BND  U4_20  1
 UP BND  P4_20  122.844497362
 UP BND  V4_20  1
 UP BND  U4_21  1
 UP BND  P4_21  122.844497362
 UP BND  V4_21  1
 UP BND  U4_22  1
 UP BND  P4_22  122.844497362
 UP BND  V4_22  1
 UP BND  U4_23  1
 UP BND  P4_23  122.844497362
 UP BND  V4_23  1
 UP BND  U5_0  1
 UP BND  P5_0  173.199059933
 UP BND  V5_0  1
 UP BND  U5_1  1
 UP BND  P5_1  173.199059933
 UP BND  V5_1  1
 UP BND  U5_2  1
 UP BND  P5_2  173.199059933
 UP BND  V5_2  1
 UP BND  U5_3  1
 UP BND  P5_3  173.199059933
 UP BND  V5_3  1
 UP BND  U5_4  1
 UP BND  P5_4  173.199059933
 UP BND  V5_4  1
 UP BND  U5_5  1
 UP BND  P5_5  173.199059933
 UP BND  V5_5  1
 UP BND  U5_6  1
 UP BND  P5_6  173.199059933
 UP BND  V5_6  1
 UP BND  U5_7  1
 UP BND  P5_7  173.199059933
 UP BND  V5_7  1
 UP BND  U5_8  1
 UP BND  P5_8  173.199059933
 UP BND  V5_8  1
 UP BND  U5_9  1
 UP BND  P5_9  173.199059933
 UP BND  V5_9  1
 UP BND  U5_10  1
 UP BND  P5_10  173.199059933
 UP BND  V5_10  1
 UP BND  U5_11  1
 UP BND  P5_11  173.199059933
 UP BND  V5_11  1
 UP BND  U5_12  1
 UP BND  P5_12  173.199059933
 UP BND  V5_12  1
 UP BND  U5_13  1
 UP BND  P5_13  173.199059933
 UP BND  V5_13  1
 UP BND  U5_14  1
 UP BND  P5_14  173.199059933
 UP BND  V5_14  1
 UP BND  U5_15  1
 UP BND  P5_15  173.199059933
 UP BND  V5_15  1
 UP BND  U5_16  1
 UP BND  P5_16  173.199059933
 UP BND  V5_16  1
 UP BND  U5_17  1
 UP BND  P5_17  173.199059933
 UP BND  V5_17  1
 UP BND  U5_18  1
 UP BND  P5_18  173.199059933
 UP BND  V5_18  1
 UP BND  U5_19  1
 UP BND  P5_19  173.199059933
 UP BND  V5_19  1
 UP BND  U5_20  1
 UP BND  P5_20  173.199059933
 UP BND  V5_20  1
 UP BND  U5_21  1
 UP BND  P5_21  173.199059933
 UP BND  V5_21  1
 UP BND  U5_22  1
 UP BND  P5_22  173.199059933
 UP BND  V5_22  1
 UP BND  U5_23  1
 UP BND  P5_23  173.199059933
 UP BND  V5_23  1
 UP BND  U6_0  1
 UP BND  P6_0  84.7779598454
 UP BND  V6_0  1
 UP BND  U6_1  1
 UP BND  P6_1  84.7779598454
 UP BND  V6_1  1
 UP BND  U6_2  1
 UP BND  P6_2  84.7779598454
 UP BND  V6_2  1
 UP BND  U6_3  1
 UP BND  P6_3  84.7779598454
 UP BND  V6_3  1
 UP BND  U6_4  1
 UP BND  P6_4  84.7779598454
 UP BND  V6_4  1
 UP BND  U6_5  1
 UP BND  P6_5  84.7779598454
 UP BND  V6_5  1
 UP BND  U6_6  1
 UP BND  P6_6  84.7779598454
 UP BND  V6_6  1
 UP BND  U6_7  1
 UP BND  P6_7  84.7779598454
 UP BND  V6_7  1
 UP BND  U6_8  1
 UP BND  P6_8  84.7779598454
 UP BND  V6_8  1
 UP BND  U6_9  1
 UP BND  P6_9  84.7779598454
 UP BND  V6_9  1
 UP BND  U6_10  1
 UP BND  P6_10  84.7779598454
 UP BND  V6_10  1
 UP BND  U6_11  1
 UP BND  P6_11  84.7779598454
 UP BND  V6_11  1
 UP BND  U6_12  1
 UP BND  P6_12  84.7779598454
 UP BND  V6_12  1
 UP BND  U6_13  1
 UP BND  P6_13  84.7779598454
 UP BND  V6_13  1
 UP BND  U6_14  1
 UP BND  P6_14  84.7779598454
 UP BND  V6_14  1
 UP BND  U6_15  1
 UP BND  P6_15  84.7779598454
 UP BND  V6_15  1
 UP BND  U6_16  1
 UP BND  P6_16  84.7779598454
 UP BND  V6_16  1
 UP BND  U6_17  1
 UP BND  P6_17  84.7779598454
 UP BND  V6_17  1
 UP BND  U6_18  1
 UP BND  P6_18  84.7779598454
 UP BND  V6_18  1
 UP BND  U6_19  1
 UP BND  P6_19  84.7779598454
 UP BND  V6_19  1
 UP BND  U6_20  1
 UP BND  P6_20  84.7779598454
 UP BND  V6_20  1
 UP BND  U6_21  1
 UP BND  P6_21  84.7779598454
 UP BND  V6_21  1
 UP BND  U6_22  1
 UP BND  P6_22  84.7779598454
 UP BND  V6_22  1
 UP BND  U6_23  1
 UP BND  P6_23  84.7779598454
 UP BND  V6_23  1
 UP BND  U7_0  1
 UP BND  P7_0  120.453665276
 UP BND  V7_0  1
 UP BND  U7_1  1
 UP BND  P7_1  120.453665276
 UP BND  V7_1  1
 UP BND  U7_2  1
 UP BND  P7_2  120.453665276
 UP BND  V7_2  1
 UP BND  U7_3  1
 UP BND  P7_3  120.453665276
 UP BND  V7_3  1
 UP BND  U7_4  1
 UP BND  P7_4  120.453665276
 UP BND  V7_4  1
 UP BND  U7_5  1
 UP BND  P7_5  120.453665276
 UP BND  V7_5  1
 UP BND  U7_6  1
 UP BND  P7_6  120.453665276
 UP BND  V7_6  1
 UP BND  U7_7  1
 UP BND  P7_7  120.453665276
 UP BND  V7_7  1
 UP BND  U7_8  1
 UP BND  P7_8  120.453665276
 UP BND  V7_8  1
 UP BND  U7_9  1
 UP BND  P7_9  120.453665276
 UP BND  V7_9  1
 UP BND  U7_10  1
 UP BND  P7_10  120.453665276
 UP BND  V7_10  1
 UP BND  U7_11  1
 UP BND  P7_11  120.453665276
 UP BND  V7_11  1
 UP BND  U7_12  1
 UP BND  P7_12  120.453665276
 UP BND  V7_12  1
 UP BND  U7_13  1
 UP BND  P7_13  120.453665276
 UP BND  V7_13  1
 UP BND  U7_14  1
 UP BND  P7_14  120.453665276
 UP BND  V7_14  1
 UP BND  U7_15  1
 UP BND  P7_15  120.453665276
 UP BND  V7_15  1
 UP BND  U7_16  1
 UP BND  P7_16  120.453665276
 UP BND  V7_16  1
 UP BND  U7_17  1
 UP BND  P7_17  120.453665276
 UP BND  V7_17  1
 UP BND  U7_18  1
 UP BND  P7_18  120.453665276
 UP BND  V7_18  1
 UP BND  U7_19  1
 UP BND  P7_19  120.453665276
 UP BND  V7_19  1
 UP BND  U7_20  1
 UP BND  P7_20  120.453665276
 UP BND  V7_20  1
 UP BND  U7_21  1
 UP BND  P7_21  120.453665276
 UP BND  V7_21  1
 UP BND  U7_22  1
 UP BND  P7_22  120.453665276
 UP BND  V7_22  1
 UP BND  U7_23  1
 UP BND  P7_23  120.453665276
 UP BND  V7_23  1
 UP BND  U8_0  1
 UP BND  P8_0  137.740851049
 UP BND  V8_0  1
 UP BND  U8_1  1
 UP BND  P8_1  137.740851049
 UP BND  V8_1  1
 UP BND  U8_2  1
 UP BND  P8_2  137.740851049
 UP BND  V8_2  1
 UP BND  U8_3  1
 UP BND  P8_3  137.740851049
 UP BND  V8_3  1
 UP BND  U8_4  1
 UP BND  P8_4  137.740851049
 UP BND  V8_4  1
 UP BND  U8_5  1
 UP BND  P8_5  137.740851049
 UP BND  V8_5  1
 UP BND  U8_6  1
 UP BND  P8_6  137.740851049
 UP BND  V8_6  1
 UP BND  U8_7  1
 UP BND  P8_7  137.740851049
 UP BND  V8_7  1
 UP BND  U8_8  1
 UP BND  P8_8  137.740851049
 UP BND  V8_8  1
 UP BND  U8_9  1
 UP BND  P8_9  137.740851049
 UP BND  V8_9  1
 UP BND  U8_10  1
 UP BND  P8_10  137.740851049
 UP BND  V8_10  1
 UP BND  U8_11  1
 UP BND  P8_11  137.740851049
 UP BND  V8_11  1
 UP BND  U8_12  1
 UP BND  P8_12  137.740851049
 UP BND  V8_12  1
 UP BND  U8_13  1
 UP BND  P8_13  137.740851049
 UP BND  V8_13  1
 UP BND  U8_14  1
 UP BND  P8_14  137.740851049
 UP BND  V8_14  1
 UP BND  U8_15  1
 UP BND  P8_15  137.740851049
 UP BND  V8_15  1
 UP BND  U8_16  1
 UP BND  P8_16  137.740851049
 UP BND  V8_16  1
 UP BND  U8_17  1
 UP BND  P8_17  137.740851049
 UP BND  V8_17  1
 UP BND  U8_18  1
 UP BND  P8_18  137.740851049
 UP BND  V8_18  1
 UP BND  U8_19  1
 UP BND  P8_19  137.740851049
 UP BND  V8_19  1
 UP BND  U8_20  1
 UP BND  P8_20  137.740851049
 UP BND  V8_20  1
 UP BND  U8_21  1
 UP BND  P8_21  137.740851049
 UP BND  V8_21  1
 UP BND  U8_22  1
 UP BND  P8_22  137.740851049
 UP BND  V8_22  1
 UP BND  U8_23  1
 UP BND  P8_23  137.740851049
 UP BND  V8_23  1
 UP BND  U9_0  1
 UP BND  P9_0  135.768565843
 UP BND  V9_0  1
 UP BND  U9_1  1
 UP BND  P9_1  135.768565843
 UP BND  V9_1  1
 UP BND  U9_2  1
 UP BND  P9_2  135.768565843
 UP BND  V9_2  1
 UP BND  U9_3  1
 UP BND  P9_3  135.768565843
 UP BND  V9_3  1
 UP BND  U9_4  1
 UP BND  P9_4  135.768565843
 UP BND  V9_4  1
 UP BND  U9_5  1
 UP BND  P9_5  135.768565843
 UP BND  V9_5  1
 UP BND  U9_6  1
 UP BND  P9_6  135.768565843
 UP BND  V9_6  1
 UP BND  U9_7  1
 UP BND  P9_7  135.768565843
 UP BND  V9_7  1
 UP BND  U9_8  1
 UP BND  P9_8  135.768565843
 UP BND  V9_8  1
 UP BND  U9_9  1
 UP BND  P9_9  135.768565843
 UP BND  V9_9  1
 UP BND  U9_10  1
 UP BND  P9_10  135.768565843
 UP BND  V9_10  1
 UP BND  U9_11  1
 UP BND  P9_11  135.768565843
 UP BND  V9_11  1
 UP BND  U9_12  1
 UP BND  P9_12  135.768565843
 UP BND  V9_12  1
 UP BND  U9_13  1
 UP BND  P9_13  135.768565843
 UP BND  V9_13  1
 UP BND  U9_14  1
 UP BND  P9_14  135.768565843
 UP BND  V9_14  1
 UP BND  U9_15  1
 UP BND  P9_15  135.768565843
 UP BND  V9_15  1
 UP BND  U9_16  1
 UP BND  P9_16  135.768565843
 UP BND  V9_16  1
 UP BND  U9_17  1
 UP BND  P9_17  135.768565843
 UP BND  V9_17  1
 UP BND  U9_18  1
 UP BND  P9_18  135.768565843
 UP BND  V9_18  1
 UP BND  U9_19  1
 UP BND  P9_19  135.768565843
 UP BND  V9_19  1
 UP BND  U9_20  1
 UP BND  P9_20  135.768565843
 UP BND  V9_20  1
 UP BND  U9_21  1
 UP BND  P9_21  135.768565843
 UP BND  V9_21  1
 UP BND  U9_22  1
 UP BND  P9_22  135.768565843
 UP BND  V9_22  1
 UP BND  U9_23  1
 UP BND  P9_23  135.768565843
 UP BND  V9_23  1
 UP BND  U10_0  1
 UP BND  P10_0  130.258067049
 UP BND  V10_0  1
 UP BND  U10_1  1
 UP BND  P10_1  130.258067049
 UP BND  V10_1  1
 UP BND  U10_2  1
 UP BND  P10_2  130.258067049
 UP BND  V10_2  1
 UP BND  U10_3  1
 UP BND  P10_3  130.258067049
 UP BND  V10_3  1
 UP BND  U10_4  1
 UP BND  P10_4  130.258067049
 UP BND  V10_4  1
 UP BND  U10_5  1
 UP BND  P10_5  130.258067049
 UP BND  V10_5  1
 UP BND  U10_6  1
 UP BND  P10_6  130.258067049
 UP BND  V10_6  1
 UP BND  U10_7  1
 UP BND  P10_7  130.258067049
 UP BND  V10_7  1
 UP BND  U10_8  1
 UP BND  P10_8  130.258067049
 UP BND  V10_8  1
 UP BND  U10_9  1
 UP BND  P10_9  130.258067049
 UP BND  V10_9  1
 UP BND  U10_10  1
 UP BND  P10_10  130.258067049
 UP BND  V10_10  1
 UP BND  U10_11  1
 UP BND  P10_11  130.258067049
 UP BND  V10_11  1
 UP BND  U10_12  1
 UP BND  P10_12  130.258067049
 UP BND  V10_12  1
 UP BND  U10_13  1
 UP BND  P10_13  130.258067049
 UP BND  V10_13  1
 UP BND  U10_14  1
 UP BND  P10_14  130.258067049
 UP BND  V10_14  1
 UP BND  U10_15  1
 UP BND  P10_15  130.258067049
 UP BND  V10_15  1
 UP BND  U10_16  1
 UP BND  P10_16  130.258067049
 UP BND  V10_16  1
 UP BND  U10_17  1
 UP BND  P10_17  130.258067049
 UP BND  V10_17  1
 UP BND  U10_18  1
 UP BND  P10_18  130.258067049
 UP BND  V10_18  1
 UP BND  U10_19  1
 UP BND  P10_19  130.258067049
 UP BND  V10_19  1
 UP BND  U10_20  1
 UP BND  P10_20  130.258067049
 UP BND  V10_20  1
 UP BND  U10_21  1
 UP BND  P10_21  130.258067049
 UP BND  V10_21  1
 UP BND  U10_22  1
 UP BND  P10_22  130.258067049
 UP BND  V10_22  1
 UP BND  U10_23  1
 UP BND  P10_23  130.258067049
 UP BND  V10_23  1
 UP BND  U11_0  1
 UP BND  P11_0  104.009117098
 UP BND  V11_0  1
 UP BND  U11_1  1
 UP BND  P11_1  104.009117098
 UP BND  V11_1  1
 UP BND  U11_2  1
 UP BND  P11_2  104.009117098
 UP BND  V11_2  1
 UP BND  U11_3  1
 UP BND  P11_3  104.009117098
 UP BND  V11_3  1
 UP BND  U11_4  1
 UP BND  P11_4  104.009117098
 UP BND  V11_4  1
 UP BND  U11_5  1
 UP BND  P11_5  104.009117098
 UP BND  V11_5  1
 UP BND  U11_6  1
 UP BND  P11_6  104.009117098
 UP BND  V11_6  1
 UP BND  U11_7  1
 UP BND  P11_7  104.009117098
 UP BND  V11_7  1
 UP BND  U11_8  1
 UP BND  P11_8  104.009117098
 UP BND  V11_8  1
 UP BND  U11_9  1
 UP BND  P11_9  104.009117098
 UP BND  V11_9  1
 UP BND  U11_10  1
 UP BND  P11_10  104.009117098
 UP BND  V11_10  1
 UP BND  U11_11  1
 UP BND  P11_11  104.009117098
 UP BND  V11_11  1
 UP BND  U11_12  1
 UP BND  P11_12  104.009117098
 UP BND  V11_12  1
 UP BND  U11_13  1
 UP BND  P11_13  104.009117098
 UP BND  V11_13  1
 UP BND  U11_14  1
 UP BND  P11_14  104.009117098
 UP BND  V11_14  1
 UP BND  U11_15  1
 UP BND  P11_15  104.009117098
 UP BND  V11_15  1
 UP BND  U11_16  1
 UP BND  P11_16  104.009117098
 UP BND  V11_16  1
 UP BND  U11_17  1
 UP BND  P11_17  104.009117098
 UP BND  V11_17  1
 UP BND  U11_18  1
 UP BND  P11_18  104.009117098
 UP BND  V11_18  1
 UP BND  U11_19  1
 UP BND  P11_19  104.009117098
 UP BND  V11_19  1
 UP BND  U11_20  1
 UP BND  P11_20  104.009117098
 UP BND  V11_20  1
 UP BND  U11_21  1
 UP BND  P11_21  104.009117098
 UP BND  V11_21  1
 UP BND  U11_22  1
 UP BND  P11_22  104.009117098
 UP BND  V11_22  1
 UP BND  U11_23  1
 UP BND  P11_23  104.009117098
 UP BND  V11_23  1
 UP BND  U12_0  1
 UP BND  P12_0  93.4576396736
 UP BND  V12_0  1
 UP BND  U12_1  1
 UP BND  P12_1  93.4576396736
 UP BND  V12_1  1
 UP BND  U12_2  1
 UP BND  P12_2  93.4576396736
 UP BND  V12_2  1
 UP BND  U12_3  1
 UP BND  P12_3  93.4576396736
 UP BND  V12_3  1
 UP BND  U12_4  1
 UP BND  P12_4  93.4576396736
 UP BND  V12_4  1
 UP BND  U12_5  1
 UP BND  P12_5  93.4576396736
 UP BND  V12_5  1
 UP BND  U12_6  1
 UP BND  P12_6  93.4576396736
 UP BND  V12_6  1
 UP BND  U12_7  1
 UP BND  P12_7  93.4576396736
 UP BND  V12_7  1
 UP BND  U12_8  1
 UP BND  P12_8  93.4576396736
 UP BND  V12_8  1
 UP BND  U12_9  1
 UP BND  P12_9  93.4576396736
 UP BND  V12_9  1
 UP BND  U12_10  1
 UP BND  P12_10  93.4576396736
 UP BND  V12_10  1
 UP BND  U12_11  1
 UP BND  P12_11  93.4576396736
 UP BND  V12_11  1
 UP BND  U12_12  1
 UP BND  P12_12  93.4576396736
 UP BND  V12_12  1
 UP BND  U12_13  1
 UP BND  P12_13  93.4576396736
 UP BND  V12_13  1
 UP BND  U12_14  1
 UP BND  P12_14  93.4576396736
 UP BND  V12_14  1
 UP BND  U12_15  1
 UP BND  P12_15  93.4576396736
 UP BND  V12_15  1
 UP BND  U12_16  1
 UP BND  P12_16  93.4576396736
 UP BND  V12_16  1
 UP BND  U12_17  1
 UP BND  P12_17  93.4576396736
 UP BND  V12_17  1
 UP BND  U12_18  1
 UP BND  P12_18  93.4576396736
 UP BND  V12_18  1
 UP BND  U12_19  1
 UP BND  P12_19  93.4576396736
 UP BND  V12_19  1
 UP BND  U12_20  1
 UP BND  P12_20  93.4576396736
 UP BND  V12_20  1
 UP BND  U12_21  1
 UP BND  P12_21  93.4576396736
 UP BND  V12_21  1
 UP BND  U12_22  1
 UP BND  P12_22  93.4576396736
 UP BND  V12_22  1
 UP BND  U12_23  1
 UP BND  P12_23  93.4576396736
 UP BND  V12_23  1
 UP BND  U13_0  1
 UP BND  P13_0  111.877883527
 UP BND  V13_0  1
 UP BND  U13_1  1
 UP BND  P13_1  111.877883527
 UP BND  V13_1  1
 UP BND  U13_2  1
 UP BND  P13_2  111.877883527
 UP BND  V13_2  1
 UP BND  U13_3  1
 UP BND  P13_3  111.877883527
 UP BND  V13_3  1
 UP BND  U13_4  1
 UP BND  P13_4  111.877883527
 UP BND  V13_4  1
 UP BND  U13_5  1
 UP BND  P13_5  111.877883527
 UP BND  V13_5  1
 UP BND  U13_6  1
 UP BND  P13_6  111.877883527
 UP BND  V13_6  1
 UP BND  U13_7  1
 UP BND  P13_7  111.877883527
 UP BND  V13_7  1
 UP BND  U13_8  1
 UP BND  P13_8  111.877883527
 UP BND  V13_8  1
 UP BND  U13_9  1
 UP BND  P13_9  111.877883527
 UP BND  V13_9  1
 UP BND  U13_10  1
 UP BND  P13_10  111.877883527
 UP BND  V13_10  1
 UP BND  U13_11  1
 UP BND  P13_11  111.877883527
 UP BND  V13_11  1
 UP BND  U13_12  1
 UP BND  P13_12  111.877883527
 UP BND  V13_12  1
 UP BND  U13_13  1
 UP BND  P13_13  111.877883527
 UP BND  V13_13  1
 UP BND  U13_14  1
 UP BND  P13_14  111.877883527
 UP BND  V13_14  1
 UP BND  U13_15  1
 UP BND  P13_15  111.877883527
 UP BND  V13_15  1
 UP BND  U13_16  1
 UP BND  P13_16  111.877883527
 UP BND  V13_16  1
 UP BND  U13_17  1
 UP BND  P13_17  111.877883527
 UP BND  V13_17  1
 UP BND  U13_18  1
 UP BND  P13_18  111.877883527
 UP BND  V13_18  1
 UP BND  U13_19  1
 UP BND  P13_19  111.877883527
 UP BND  V13_19  1
 UP BND  U13_20  1
 UP BND  P13_20  111.877883527
 UP BND  V13_20  1
 UP BND  U13_21  1
 UP BND  P13_21  111.877883527
 UP BND  V13_21  1
 UP BND  U13_22  1
 UP BND  P13_22  111.877883527
 UP BND  V13_22  1
 UP BND  U13_23  1
 UP BND  P13_23  111.877883527
 UP BND  V13_23  1
ENDATA
