NAME          UC0
ROWS
 N  COST
 G  MIN0_0
 L  MAX0_0
 G  MIN0_1
 L  MAX0_1
 L  SU0_1
 L  RU0_1
 L  RD0_1
 G  MIN0_2
 L  MAX0_2
 L  SU0_2
 L  RU0_2
 L  RD0_2
 G  MIN0_3
 L  MAX0_3
 L  SU0_3
 L  RU0_3
 L  RD0_3
 G  MIN0_4
 L  MAX0_4
 L  SU0_4
 L  RU0_4
 L  RD0_4
 G  MIN0_5
 L  MAX0_5
 L  SU0_5
 L  RU0_5
 L  RD0_5
 G  MIN0_6
 L  MAX0_6
 L  SU0_6
 L  RU0_6
 L  RD0_6
 G  MIN0_7
 L  MAX0_7
 L  SU0_7
 L  RU0_7
 L  RD0_7
 G  MIN0_8
 L  MAX0_8
 L  SU0_8
 L  RU0_8
 L  RD0_8
 G  MIN0_9
 L  MAX0_9
 L  SU0_9
 L  RU0_9
 L  RD0_9
 G  MIN0_10
 L  MAX0_10
 L  SU0_10
 L  RU0_10
 L  RD0_10
 G  MIN0_11
 L  MAX0_11
 L  SU0_11
 L  RU0_11
 L  RD0_11
 G  MIN1_0
 L  MAX1_0
 G  MIN1_1
 L  MAX1_1
 L  SU1_1
 L  RU1_1
 L  RD1_1
 G  MIN1_2
 L  MAX1_2
 L  SU1_2
 L  RU1_2
 L  RD1_2
 G  MIN1_3
 L  MAX1_3
 L  SU1_3
 L  RU1_3
 L  RD1_3
 G  MIN1_4
 L  MAX1_4
 L  SU1_4
 L  RU1_4
 L  RD1_4
 G  MIN1_5
 L  MAX1_5
 L  SU1_5
 L  RU1_5
 L  RD1_5
 G  MIN1_6
 L  MAX1_6
 L  SU1_6
 L  RU1_6
 L  RD1_6
 G  MIN1_7
 L  MAX1_7
 L  SU1_7
 L  RU1_7
 L  RD1_7
 G  MIN1_8
 L  MAX1_8
 L  SU1_8
 L  RU1_8
 L  RD1_8
 G  MIN1_9
 L  MAX1_9
 L  SU1_9
 L  RU1_9
 L  RD1_9
 G  MIN1_10
 L  MAX1_10
 L  SU1_10
 L  RU1_10
 L  RD1_10
 G  MIN1_11
 L  MAX1_11
 L  SU1_11
 L  RU1_11
 L  RD1_11
 G  MIN2_0
 L  MAX2_0
 G  MIN2_1
 L  MAX2_1
 L  SU2_1
 L  RU2_1
 L  RD2_1
 G  MIN2_2
 L  MAX2_2
 L  SU2_2
 L  RU2_2
 L  RD2_2
 G  MIN2_3
 L  MAX2_3
 L  SU2_3
 L  RU2_3
 L  RD2_3
 G  MIN2_4
 L  MAX2_4
 L  SU2_4
 L  RU2_4
 L  RD2_4
 G  MIN2_5
 L  MAX2_5
 L  SU2_5
 L  RU2_5
 L  RD2_5
 G  MIN2_6
 L  MAX2_6
 L  SU2_6
 L  RU2_6
 L  RD2_6
 G  MIN2_7
 L  MAX2_7
 L  SU2_7
 L  RU2_7
 L  RD2_7
 G  MIN2_8
 L  MAX2_8
 L  SU2_8
 L  RU2_8
 L  RD2_8
 G  MIN2_9
 L  MAX2_9
 L  SU2_9
 L  RU2_9
 L  RD2_9
 G  MIN2_10
 L  MAX2_10
 L  SU2_10
 L  RU2_10
 L  RD2_10
 G  MIN2_11
 L  MAX2_11
 L  SU2_11
 L  RU2_11
 L  RD2_11
 G  MIN3_0
 L  MAX3_0
 G  MIN3_1
 L  MAX3_1
 L  SU3_1
 L  RU3_1
 L  RD3_1
 G  MIN3_2
 L  MAX3_2
 L  SU3_2
 L  RU3_2
 L  RD3_2
 G  MIN3_3
 L  MAX3_3
 L  SU3_3
 L  RU3_3
 L  RD3_3
 G  MIN3_4
 L  MAX3_4
 L  SU3_4
 L  RU3_4
 L  RD3_4
 G  MIN3_5
 L  MAX3_5
 L  SU3_5
 L  RU3_5
 L  RD3_5
 G  MIN3_6
 L  MAX3_6
 L  SU3_6
 L  RU3_6
 L  RD3_6
 G  MIN3_7
 L  MAX3_7
 L  SU3_7
 L  RU3_7
 L  RD3_7
 G  MIN3_8
 L  MAX3_8
 L  SU3_8
 L  RU3_8
 L  RD3_8
 G  MIN3_9
 L  MAX3_9
 L  SU3_9
 L  RU3_9
 L  RD3_9
 G  MIN3_10
 L  MAX3_10
 L  SU3_10
 L  RU3_10
 L  RD3_10
 G  MIN3_11
 L  MAX3_11
 L  SU3_11
 L  RU3_11
 L  RD3_11
 G  MIN4_0
 L  MAX4_0
 G  MIN4_1
 L  MAX4_1
 L  SU4_1
 L  RU4_1
 L  RD4_1
 G  MIN4_2
 L  MAX4_2
 L  SU4_2
 L  RU4_2
 L  RD4_2
 G  MIN4_3
 L  MAX4_3
 L  SU4_3
 L  RU4_3
 L  RD4_3
 G  MIN4_4
 L  MAX4_4
 L  SU4_4
 L  RU4_4
 L  RD4_4
 G  MIN4_5
 L  MAX4_5
 L  SU4_5
 L  RU4_5
 L  RD4_5
 G  MIN4_6
 L  MAX4_6
 L  SU4_6
 L  RU4_6
 L  RD4_6
 G  MIN4_7
 L  MAX4_7
 L  SU4_7
 L  RU4_7
 L  RD4_7
 G  MIN4_8
 L  MAX4_8
 L  SU4_8
 L  RU4_8
 L  RD4_8
 G  MIN4_9
 L  MAX4_9
 L  SU4_9
 L  RU4_9
 L  RD4_9
 G  MIN4_10
 L  MAX4_10
 L  SU4_10
 L  RU4_10
 L  RD4_10
 G  MIN4_11
 L  MAX4_11
 L  SU4_11
 L  RU4_11
 L  RD4_11
 G  MIN5_0
 L  MAX5_0
 G  MIN5_1
 L  MAX5_1
 L  SU5_1
 L  RU5_1
 L  RD5_1
 G  MIN5_2
 L  MAX5_2
 L  SU5_2
 L  RU5_2
 L  RD5_2
 G  MIN5_3
 L  MAX5_3
 L  SU5_3
 L  RU5_3
 L  RD5_3
 G  MIN5_4
 L  MAX5_4
 L  SU5_4
 L  RU5_4
 L  RD5_4
 G  MIN5_5
 L  MAX5_5
 L  SU5_5
 L  RU5_5
 L  RD5_5
 G  MIN5_6
 L  MAX5_6
 L  SU5_6
 L  RU5_6
 L  RD5_6
 G  MIN5_7
 L  MAX5_7
 L  SU5_7
 L  RU5_7
 L  RD5_7
 G  MIN5_8
 L  MAX5_8
 L  SU5_8
 L  RU5_8
 L  RD5_8
 G  MIN5_9
 L  MAX5_9
 L  SU5_9
 L  RU5_9
 L  RD5_9
 G  MIN5_10
 L  MAX5_10
 L  SU5_10
 L  RU5_10
 L  RD5_10
 G  MIN5_11
 L  MAX5_11
 L  SU5_11
 L  RU5_11
 L  RD5_11
 G  BAL0
 G  RES0
 G  BAL1
 G  RES1
 G  BAL2
 G  RES2
 G  BAL3
 G  RES3
 G  BAL4
 G  RES4
 G  BAL5
 G  RES5
 G  BAL6
 G  RES6
 G  BAL7
 G  RES7
 G  BAL8
 G  RES8
 G  BAL9
 G  RES9
 G  BAL10
 G  RES10
 G  BAL11
 G  RES11
COLUMNS
    MARKER0  'MARKER'  'INTORG'
    U0_0  MIN0_0  -8.17100435941
    U0_0  MAX0_0  -145.149564811
    U0_0  SU0_1  -1
    U0_0  RES0  145.149564811
    MARKER1  'MARKER'  'INTEND'
    P0_0  COST  14.4542704886
    P0_0  MIN0_0  1
    P0_0  MAX0_0  1
    P0_0  RU0_1  -1
    P0_0  RD0_1  1
    P0_0  BAL0  1
    MARKER2  'MARKER'  'INTORG'
    V0_0  COST  160.134877471
    U0_1  MIN0_1  -8.17100435941
    U0_1  MAX0_1  -145.149564811
    U0_1  SU0_1  1
    U0_1  SU0_2  -1
    U0_1  RES1  145.149564811
    MARKER3  'MARKER'  'INTEND'
    P0_1  COST  14.4542704886
    P0_1  MIN0_1  1
    P0_1  MAX0_1  1
    P0_1  RU0_1  1
    P0_1  RD0_1  -1
    P0_1  RU0_2  -1
    P0_1  RD0_2  1
    P0_1  BAL1  1
    MARKER4  'MARKER'  'INTORG'
    V0_1  COST  160.134877471
    V0_1  SU0_1  -1
    U0_2  MIN0_2  -8.17100435941
    U0_2  MAX0_2  -145.149564811
    U0_2  SU0_2  1
    U0_2  SU0_3  -1
    U0_2  RES2  145.149564811
    MARKER5  'MARKER'  'INTEND'
    P0_2  COST  14.4542704886
    P0_2  MIN0_2  1
    P0_2  MAX0_2  1
    P0_2  RU0_2  1
    P0_2  RD0_2  -1
    P0_2  RU0_3  -1
    P0_2  RD0_3  1
    P0_2  BAL2  1
    MARKER6  'MARKER'  'INTORG'
    V0_2  COST  160.134877471
    V0_2  SU0_2  -1
    U0_3  MIN0_3  -8.17100435941
    U0_3  MAX0_3  -145.149564811
    U0_3  SU0_3  1
    U0_3  SU0_4  -1
    U0_3  RES3  145.149564811
    MARKER7  'MARKER'  'INTEND'
    P0_3  COST  14.4542704886
    P0_3  MIN0_3  1
    P0_3  MAX0_3  1
    P0_3  RU0_3  1
    P0_3  RD0_3  -1
    P0_3  RU0_4  -1
    P0_3  RD0_4  1
    P0_3  BAL3  1
    MARKER8  'MARKER'  'INTORG'
    V0_3  COST  160.134877471
    V0_3  SU0_3  -1
    U0_4  MIN0_4  -8.17100435941
    U0_4  MAX0_4  -145.149564811
    U0_4  SU0_4  1
    U0_4  SU0_5  -1
    U0_4  RES4  145.149564811
    MARKER9  'MARKER'  'INTEND'
    P0_4  COST  14.4542704886
    P0_4  MIN0_4  1
    P0_4  MAX0_4  1
    P0_4  RU0_4  1
    P0_4  RD0_4  -1
    P0_4  RU0_5  -1
    P0_4  RD0_5  1
    P0_4  BAL4  1
    MARKER10  'MARKER'  'INTORG'
    V0_4  COST  160.134877471
    V0_4  SU0_4  -1
    U0_5  MIN0_5  -8.17100435941
    U0_5  MAX0_5  -145.149564811
    U0_5  SU0_5  1
    U0_5  SU0_6  -1
    U0_5  RES5  145.149564811
    MARKER11  'MARKER'  'INTEND'
    P0_5  COST  14.4542704886
    P0_5  MIN0_5  1
    P0_5  MAX0_5  1
    P0_5  RU0_5  1
    P0_5  RD0_5  -1
    P0_5  RU0_6  -1
    P0_5  RD0_6  1
    P0_5  BAL5  1
    MARKER12  'MARKER'  'INTORG'
    V0_5  COST  160.134877471
    V0_5  SU0_5  -1
    U0_6  MIN0_6  -8.17100435941
    U0_6  MAX0_6  -145.149564811
    U0_6  SU0_6  1
    U0_6  SU0_7  -1
    U0_6  RES6  145.149564811
    MARKER13  'MARKER'  'INTEND'
    P0_6  COST  14.4542704886
    P0_6  MIN0_6  1
    P0_6  MAX0_6  1
    P0_6  RU0_6  1
    P0_6  RD0_6  -1
    P0_6  RU0_7  -1
    P0_6  RD0_7  1
    P0_6  BAL6  1
    MARKER14  'MARKER'  'INTORG'
    V0_6  COST  160.134877471
    V0_6  SU0_6  -1
    U0_7  MIN0_7  -8.17100435941
    U0_7  MAX0_7  -145.149564811
    U0_7  SU0_7  1
    U0_7  SU0_8  -1
    U0_7  RES7  145.149564811
    MARKER15  'MARKER'  'INTEND'
    P0_7  COST  14.4542704886
    P0_7  MIN0_7  1
    P0_7  MAX0_7  1
    P0_7  RU0_7  1
    P0_7  RD0_7  -1
    P0_7  RU0_8  -1
    P0_7  RD0_8  1
    P0_7  BAL7  1
    MARKER16  'MARKER'  'INTORG'
    V0_7  COST  160.134877471
    V0_7  SU0_7  -1
    U0_8  MIN0_8  -8.17100435941
    U0_8  MAX0_8  -145.149564811
    U0_8  SU0_8  1
    U0_8  SU0_9  -1
    U0_8  RES8  145.149564811
    MARKER17  'MARKER'  'INTEND'
    P0_8  COST  14.4542704886
    P0_8  MIN0_8  1
    P0_8  MAX0_8  1
    P0_8  RU0_8  1
    P0_8  RD0_8  -1
    P0_8  RU0_9  -1
    P0_8  RD0_9  1
    P0_8  BAL8  1
    MARKER18  'MARKER'  'INTORG'
    V0_8  COST  160.134877471
    V0_8  SU0_8  -1
    U0_9  MIN0_9  -8.17100435941
    U0_9  MAX0_9  -145.149564811
    U0_9  SU0_9  1
    U0_9  SU0_10  -1
    U0_9  RES9  145.149564811
    MARKER19  'MARKER'  'INTEND'
    P0_9  COST  14.4542704886
    P0_9  MIN0_9  1
    P0_9  MAX0_9  1
    P0_9  RU0_9  1
    P0_9  RD0_9  -1
    P0_9  RU0_10  -1
    P0_9  RD0_10  1
    P0_9  BAL9  1
    MARKER20  'MARKER'  'INTORG'
    V0_9  COST  160.134877471
    V0_9  SU0_9  -1
    U0_10  MIN0_10  -8.17100435941
    U0_10  MAX0_10  -145.149564811
    U0_10  SU0_10  1
    U0_10  SU0_11  -1
    U0_10  RES10  145.149564811
    MARKER21  'MARKER'  'INTEND'
    P0_10  COST  14.4542704886
    P0_10  MIN0_10  1
    P0_10  MAX0_10  1
    P0_10  RU0_10  1
    P0_10  RD0_10  -1
    P0_10  RU0_11  -1
    P0_10  RD0_11  1
    P0_10  BAL10  1
    MARKER22  'MARKER'  'INTORG'
    V0_10  COST  160.134877471
    V0_10  SU0_10  -1
    U0_11  MIN0_11  -8.17100435941
    U0_11  MAX0_11  -145.149564811
    U0_11  SU0_11  1
    U0_11  RES11  145.149564811
    MARKER23  'MARKER'  'INTEND'
    P0_11  COST  14.4542704886
    P0_11  MIN0_11  1
    P0_11  MAX0_11  1
    P0_11  RU0_11  1
    P0_11  RD0_11  -1
    P0_11  BAL11  1
    MARKER24  'MARKER'  'INTORG'
    V0_11  COST  160.134877471
    V0_11  SU0_11  -1
    U1_0  MIN1_0  -9.42388832945
    U1_0  MAX1_0  -72.4482306311
    U1_0  SU1_1  -1
    U1_0  RES0  72.4482306311
    MARKER25  'MARKER'  'INTEND'
    P1_0  COST  35.6738620407
    P1_0  MIN1_0  1
    P1_0  MAX1_0  1
    P1_0  RU1_1  -1
    P1_0  RD1_1  1
    P1_0  BAL0  1
    MARKER26  'MARKER'  'INTORG'
    V1_0  COST  668.848441778
    U1_1  MIN1_1  -9.42388832945
    U1_1  MAX1_1  -72.4482306311
    U1_1  SU1_1  1
    U1_1  SU1_2  -1
    U1_1  RES1  72.4482306311
    MARKER27  'MARKER'  'INTEND'
    P1_1  COST  35.6738620407
    P1_1  MIN1_1  1
    P1_1  MAX1_1  1
    P1_1  RU1_1  1
    P1_1  RD1_1  -1
    P1_1  RU1_2  -1
    P1_1  RD1_2  1
    P1_1  BAL1  1
    MARKER28  'MARKER'  'INTORG'
    V1_1  COST  668.848441778
    V1_1  SU1_1  -1
    U1_2  MIN1_2  -9.42388832945
    U1_2  MAX1_2  -72.4482306311
    U1_2  SU1_2  1
    U1_2  SU1_3  -1
    U1_2  RES2  72.4482306311
    MARKER29  'MARKER'  'INTEND'
    P1_2  COST  35.6738620407
    P1_2  MIN1_2  1
    P1_2  MAX1_2  1
    P1_2  RU1_2  1
    P1_2  RD1_2  -1
    P1_2  RU1_3  -1
    P1_2  RD1_3  1
    P1_2  BAL2  1
    MARKER30  'MARKER'  'INTORG'
    V1_2  COST  668.848441778
    V1_2  SU1_2  -1
    U1_3  MIN1_3  -9.42388832945
    U1_3  MAX1_3  -72.4482306311
    U1_3  SU1_3  1
    U1_3  SU1_4  -1
    U1_3  RES3  72.4482306311
    MARKER31  'MARKER'  'INTEND'
    P1_3  COST  35.6738620407
    P1_3  MIN1_3  1
    P1_3  MAX1_3  1
    P1_3  RU1_3  1
    P1_3  RD1_3  -1
    P1_3  RU1_4  -1
    P1_3  RD1_4  1
    P1_3  BAL3  1
    MARKER32  'MARKER'  'INTORG'
    V1_3  COST  668.848441778
    V1_3  SU1_3  -1
    U1_4  MIN1_4  -9.42388832945
    U1_4  MAX1_4  -72.4482306311
    U1_4  SU1_4  1
    U1_4  SU1_5  -1
    U1_4  RES4  72.4482306311
    MARKER33  'MARKER'  'INTEND'
    P1_4  COST  35.6738620407
    P1_4  MIN1_4  1
    P1_4  MAX1_4  1
    P1_4  RU1_4  1
    P1_4  RD1_4  -1
    P1_4  RU1_5  -1
    P1_4  RD1_5  1
    P1_4  BAL4  1
    MARKER34  'MARKER'  'INTORG'
    V1_4  COST  668.848441778
    V1_4  SU1_4  -1
    U1_5  MIN1_5  -9.42388832945
    U1_5  MAX1_5  -72.4482306311
    U1_5  SU1_5  1
    U1_5  SU1_6  -1
    U1_5  RES5  72.4482306311
    MARKER35  'MARKER'  'INTEND'
    P1_5  COST  35.6738620407
    P1_5  MIN1_5  1
    P1_5  MAX1_5  1
    P1_5  RU1_5  1
    P1_5  RD1_5  -1
    P1_5  RU1_6  -1
    P1_5  RD1_6  1
    P1_5  BAL5  1
    MARKER36  'MARKER'  'INTORG'
    V1_5  COST  668.848441778
    V1_5  SU1_5  -1
    U1_6  MIN1_6  -9.42388832945
    U1_6  MAX1_6  -72.4482306311
    U1_6  SU1_6  1
    U1_6  SU1_7  -1
    U1_6  RES6  72.4482306311
    MARKER37  'MARKER'  'INTEND'
    P1_6  COST  35.6738620407
    P1_6  MIN1_6  1
    P1_6  MAX1_6  1
    P1_6  RU1_6  1
    P1_6  RD1_6  -1
    P1_6  RU1_7  -1
    P1_6  RD1_7  1
    P1_6  BAL6  1
    MARKER38  'MARKER'  'INTORG'
    V1_6  COST  668.848441778
    V1_6  SU1_6  -1
    U1_7  MIN1_7  -9.42388832945
    U1_7  MAX1_7  -72.4482306311
    U1_7  SU1_7  1
    U1_7  SU1_8  -1
    U1_7  RES7  72.4482306311
    MARKER39  'MARKER'  'INTEND'
    P1_7  COST  35.6738620407
    P1_7  MIN1_7  1
    P1_7  MAX1_7  1
    P1_7  RU1_7  1
    P1_7  RD1_7  -1
    P1_7  RU1_8  -1
    P1_7  RD1_8  1
    P1_7  BAL7  1
    MARKER40  'MARKER'  'INTORG'
    V1_7  COST  668.848441778
    V1_7  SU1_7  -1
    U1_8  MIN1_8  -9.42388832945
    U1_8  MAX1_8  -72.4482306311
    U1_8  SU1_8  1
    U1_8  SU1_9  -1
    U1_8  RES8  72.4482306311
    MARKER41  'MARKER'  'INTEND'
    P1_8  COST  35.6738620407
    P1_8  MIN1_8  1
    P1_8  MAX1_8  1
    P1_8  RU1_8  1
    P1_8  RD1_8  -1
    P1_8  RU1_9  -1
    P1_8  RD1_9  1
    P1_8  BAL8  1
    MARKER42  'MARKER'  'INTORG'
    V1_8  COST  668.848441778
    V1_8  SU1_8  -1
    U1_9  MIN1_9  -9.42388832945
    U1_9  MAX1_9  -72.4482306311
    U1_9  SU1_9  1
    U1_9  SU1_10  -1
    U1_9  RES9  72.4482306311
    MARKER43  'MARKER'  'INTEND'
    P1_9  COST  35.6738620407
    P1_9  MIN1_9  1
    P1_9  MAX1_9  1
    P1_9  RU1_9  1
    P1_9  RD1_9  -1
    P1_9  RU1_10  -1
    P1_9  RD1_10  1
    P1_9  BAL9  1
    MARKER44  'MARKER'  'INTORG'
    V1_9  COST  668.848441778
    V1_9  SU1_9  -1
    U1_10  MIN1_10  -9.42388832945
    U1_10  MAX1_10  -72.4482306311
    U1_10  SU1_10  1
    U1_10  SU1_11  -1
    U1_10  RES10  72.4482306311
    MARKER45  'MARKER'  'INTEND'
    P1_10  COST  35.6738620407
    P1_10  MIN1_10  1
    P1_10  MAX1_10  1
    P1_10  RU1_10  1
    P1_10  RD1_10  -1
    P1_10  RU1_11  -1
    P1_10  RD1_11  1
    P1_10  BAL10  1
    MARKER46  'MARKER'  'INTORG'
    V1_10  COST  668.848441778
    V1_10  SU1_10  -1
    U1_11  MIN1_11  -9.42388832945
    U1_11  MAX1_11  -72.4482306311
    U1_11  SU1_11  1
    U1_11  RES11  72.4482306311
    MARKER47  'MARKER'  'INTEND'
    P1_11  COST  35.6738620407
    P1_11  MIN1_11  1
    P1_11  MAX1_11  1
    P1_11  RU1_11  1
    P1_11  RD1_11  -1
    P1_11  BAL11  1
    MARKER48  'MARKER'  'INTORG'
    V1_11  COST  668.848441778
    V1_11  SU1_11  -1
    U2_0  MIN2_0  -37.0363278468
    U2_0  MAX2_0  -137.861356584
    U2_0  SU2_1  -1
    U2_0  RES0  137.861356584
    MARKER49  'MARKER'  'INTEND'
    P2_0  COST  30.4097545876
    P2_0  MIN2_0  1
    P2_0  MAX2_0  1
    P2_0  RU2_1  -1
    P2_0  RD2_1  1
    P2_0  BAL0  1
    MARKER50  'MARKER'  'INTORG'
    V2_0  COST  199.169972992
    U2_1  MIN2_1  -37.0363278468
    U2_1  MAX2_1  -137.861356584
    U2_1  SU2_1  1
    U2_1  SU2_2  -1
    U2_1  RES1  137.861356584
    MARKER51  'MARKER'  'INTEND'
    P2_1  COST  30.4097545876
    P2_1  MIN2_1  1
    P2_1  MAX2_1  1
    P2_1  RU2_1  1
    P2_1  RD2_1  -1
    P2_1  RU2_2  -1
    P2_1  RD2_2  1
    P2_1  BAL1  1
    MARKER52  'MARKER'  'INTORG'
    V2_1  COST  199.169972992
    V2_1  SU2_1  -1
    U2_2  MIN2_2  -37.0363278468
    U2_2  MAX2_2  -137.861356584
    U2_2  SU2_2  1
    U2_2  SU2_3  -1
    U2_2  RES2  137.861356584
    MARKER53  'MARKER'  'INTEND'
    P2_2  COST  30.4097545876
    P2_2  MIN2_2  1
    P2_2  MAX2_2  1
    P2_2  RU2_2  1
    P2_2  RD2_2  -1
    P2_2  RU2_3  -1
    P2_2  RD2_3  1
    P2_2  BAL2  1
    MARKER54  'MARKER'  'INTORG'
    V2_2  COST  199.169972992
    V2_2  SU2_2  -1
    U2_3  MIN2_3  -37.0363278468
    U2_3  MAX2_3  -137.861356584
    U2_3  SU2_3  1
    U2_3  SU2_4  -1
    U2_3  RES3  137.861356584
    MARKER55  'MARKER'  'INTEND'
    P2_3  COST  30.4097545876
    P2_3  MIN2_3  1
    P2_3  MAX2_3  1
    P2_3  RU2_3  1
    P2_3  RD2_3  -1
    P2_3  RU2_4  -1
    P2_3  RD2_4  1
    P2_3  BAL3  1
    MARKER56  'MARKER'  'INTORG'
    V2_3  COST  199.169972992
    V2_3  SU2_3  -1
    U2_4  MIN2_4  -37.0363278468
    U2_4  MAX2_4  -137.861356584
    U2_4  SU2_4  1
    U2_4  SU2_5  -1
    U2_4  RES4  137.861356584
    MARKER57  'MARKER'  'INTEND'
    P2_4  COST  30.4097545876
    P2_4  MIN2_4  1
    P2_4  MAX2_4  1
    P2_4  RU2_4  1
    P2_4  RD2_4  -1
    P2_4  RU2_5  -1
    P2_4  RD2_5  1
    P2_4  BAL4  1
    MARKER58  'MARKER'  'INTORG'
    V2_4  COST  199.169972992
    V2_4  SU2_4  -1
    U2_5  MIN2_5  -37.0363278468
    U2_5  MAX2_5  -137.861356584
    U2_5  SU2_5  1
    U2_5  SU2_6  -1
    U2_5  RES5  137.861356584
    MARKER59  'MARKER'  'INTEND'
    P2_5  COST  30.4097545876
    P2_5  MIN2_5  1
    P2_5  MAX2_5  1
    P2_5  RU2_5  1
    P2_5  RD2_5  -1
    P2_5  RU2_6  -1
    P2_5  RD2_6  1
    P2_5  BAL5  1
    MARKER60  'MARKER'  'INTORG'
    V2_5  COST  199.169972992
    V2_5  SU2_5  -1
    U2_6  MIN2_6  -37.0363278468
    U2_6  MAX2_6  -137.861356584
    U2_6  SU2_6  1
    U2_6  SU2_7  -1
    U2_6  RES6  137.861356584
    MARKER61  'MARKER'  'INTEND'
    P2_6  COST  30.4097545876
    P2_6  MIN2_6  1
    P2_6  MAX2_6  1
    P2_6  RU2_6  1
    P2_6  RD2_6  -1
    P2_6  RU2_7  -1
    P2_6  RD2_7  1
    P2_6  BAL6  1
    MARKER62  'MARKER'  'INTORG'
    V2_6  COST  199.169972992
    V2_6  SU2_6  -1
    U2_7  MIN2_7  -37.0363278468
    U2_7  MAX2_7  -137.861356584
    U2_7  SU2_7  1
    U2_7  SU2_8  -1
    U2_7  RES7  137.861356584
    MARKER63  'MARKER'  'INTEND'
    P2_7  COST  30.4097545876
    P2_7  MIN2_7  1
    P2_7  MAX2_7  1
    P2_7  RU2_7  1
    P2_7  RD2_7  -1
    P2_7  RU2_8  -1
    P2_7  RD2_8  1
    P2_7  BAL7  1
    MARKER64  'MARKER'  'INTORG'
    V2_7  COST  199.169972992
    V2_7  SU2_7  -1
    U2_8  MIN2_8  -37.0363278468
    U2_8  MAX2_8  -137.861356584
    U2_8  SU2_8  1
    U2_8  SU2_9  -1
    U2_8  RES8  137.861356584
    MARKER65  'MARKER'  'INTEND'
    P2_8  COST  30.4097545876
    P2_8  MIN2_8  1
    P2_8  MAX2_8  1
    P2_8  RU2_8  1
    P2_8  RD2_8  -1
    P2_8  RU2_9  -1
    P2_8  RD2_9  1
    P2_8  BAL8  1
    MARKER66  'MARKER'  'INTORG'
    V2_8  COST  199.169972992
    V2_8  SU2_8  -1
    U2_9  MIN2_9  -37.0363278468
    U2_9  MAX2_9  -137.861356584
    U2_9  SU2_9  1
    U2_9  SU2_10  -1
    U2_9  RES9  137.861356584
    MARKER67  'MARKER'  'INTEND'
    P2_9  COST  30.4097545876
    P2_9  MIN2_9  1
    P2_9  MAX2_9  1
    P2_9  RU2_9  1
    P2_9  RD2_9  -1
    P2_9  RU2_10  -1
    P2_9  RD2_10  1
    P2_9  BAL9  1
    MARKER68  'MARKER'  'INTORG'
    V2_9  COST  199.169972992
    V2_9  SU2_9  -1
    U2_10  MIN2_10  -37.0363278468
    U2_10  MAX2_10  -137.861356584
    U2_10  SU2_10  1
    U2_10  SU2_11  -1
    U2_10  RES10  137.861356584
    MARKER69  'MARKER'  'INTEND'
    P2_10  COST  30.4097545876
    P2_10  MIN2_10  1
    P2_10  MAX2_10  1
    P2_10  RU2_10  1
    P2_10  RD2_10  -1
    P2_10  RU2_11  -1
    P2_10  RD2_11  1
    P2_10  BAL10  1
    MARKER70  'MARKER'  'INTORG'
    V2_10  COST  199.169972992
    V2_10  SU2_10  -1
    U2_11  MIN2_11  -37.0363278468
    U2_11  MAX2_11  -137.861356584
    U2_11  SU2_11  1
    U2_11  RES11  137.861356584
    MARKER71  'MARKER'  'INTEND'
    P2_11  COST  30.4097545876
    P2_11  MIN2_11  1
    P2_11  MAX2_11  1
    P2_11  RU2_11  1
    P2_11  RD2_11  -1
    P2_11  BAL11  1
    MARKER72  'MARKER'  'INTORG'
    V2_11  COST  199.169972992
    V2_11  SU2_11  -1
    U3_0  MIN3_0  -13.1981228056
    U3_0  MAX3_0  -93.5304035794
    U3_0  SU3_1  -1
    U3_0  RES0  93.5304035794
    MARKER73  'MARKER'  'INTEND'
    P3_0  COST  29.1645310327
    P3_0  MIN3_0  1
    P3_0  MAX3_0  1
    P3_0  RU3_1  -1
    P3_0  RD3_1  1
    P3_0  BAL0  1
    MARKER74  'MARKER'  'INTORG'
    V3_0  COST  350.992106335
    U3_1  MIN3_1  -13.1981228056
    U3_1  MAX3_1  -93.5304035794
    U3_1  SU3_1  1
    U3_1  SU3_2  -1
    U3_1  RES1  93.5304035794
    MARKER75  'MARKER'  'INTEND'
    P3_1  COST  29.1645310327
    P3_1  MIN3_1  1
    P3_1  MAX3_1  1
    P3_1  RU3_1  1
    P3_1  RD3_1  -1
    P3_1  RU3_2  -1
    P3_1  RD3_2  1
    P3_1  BAL1  1
    MARKER76  'MARKER'  'INTORG'
    V3_1  COST  350.992106335
    V3_1  SU3_1  -1
    U3_2  MIN3_2  -13.1981228056
    U3_2  MAX3_2  -93.5304035794
    U3_2  SU3_2  1
    U3_2  SU3_3  -1
    U3_2  RES2  93.5304035794
    MARKER77  'MARKER'  'INTEND'
    P3_2  COST  29.1645310327
    P3_2  MIN3_2  1
    P3_2  MAX3_2  1
    P3_2  RU3_2  1
    P3_2  RD3_2  -1
    P3_2  RU3_3  -1
    P3_2  RD3_3  1
    P3_2  BAL2  1
    MARKER78  'MARKER'  'INTORG'
    V3_2  COST  350.992106335
    V3_2  SU3_2  -1
    U3_3  MIN3_3  -13.1981228056
    U3_3  MAX3_3  -93.5304035794
    U3_3  SU3_3  1
    U3_3  SU3_4  -1
    U3_3  RES3  93.5304035794
    MARKER79  'MARKER'  'INTEND'
    P3_3  COST  29.1645310327
    P3_3  MIN3_3  1
    P3_3  MAX3_3  1
    P3_3  RU3_3  1
    P3_3  RD3_3  -1
    P3_3  RU3_4  -1
    P3_3  RD3_4  1
    P3_3  BAL3  1
    MARKER80  'MARKER'  'INTORG'
    V3_3  COST  350.992106335
    V3_3  SU3_3  -1
    U3_4  MIN3_4  -13.1981228056
    U3_4  MAX3_4  -93.5304035794
    U3_4  SU3_4  1
    U3_4  SU3_5  -1
    U3_4  RES4  93.5304035794
    MARKER81  'MARKER'  'INTEND'
    P3_4  COST  29.1645310327
    P3_4  MIN3_4  1
    P3_4  MAX3_4  1
    P3_4  RU3_4  1
    P3_4  RD3_4  -1
    P3_4  RU3_5  -1
    P3_4  RD3_5  1
    P3_4  BAL4  1
    MARKER82  'MARKER'  'INTORG'
    V3_4  COST  350.992106335
    V3_4  SU3_4  -1
    U3_5  MIN3_5  -13.1981228056
    U3_5  MAX3_5  -93.5304035794
    U3_5  SU3_5  1
    U3_5  SU3_6  -1
    U3_5  RES5  93.5304035794
    MARKER83  'MARKER'  'INTEND'
    P3_5  COST  29.1645310327
    P3_5  MIN3_5  1
    P3_5  MAX3_5  1
    P3_5  RU3_5  1
    P3_5  RD3_5  -1
    P3_5  RU3_6  -1
    P3_5  RD3_6  1
    P3_5  BAL5  1
    MARKER84  'MARKER'  'INTORG'
    V3_5  COST  350.992106335
    V3_5  SU3_5  -1
    U3_6  MIN3_6  -13.1981228056
    U3_6  MAX3_6  -93.5304035794
    U3_6  SU3_6  1
    U3_6  SU3_7  -1
    U3_6  RES6  93.5304035794
    MARKER85  'MARKER'  'INTEND'
    P3_6  COST  29.1645310327
    P3_6  MIN3_6  1
    P3_6  MAX3_6  1
    P3_6  RU3_6  1
    P3_6  RD3_6  -1
    P3_6  RU3_7  -1
    P3_6  RD3_7  1
    P3_6  BAL6  1
    MARKER86  'MARKER'  'INTORG'
    V3_6  COST  350.992106335
    V3_6  SU3_6  -1
    U3_7  MIN3_7  -13.1981228056
    U3_7  MAX3_7  -93.5304035794
    U3_7  SU3_7  1
    U3_7  SU3_8  -1
    U3_7  RES7  93.5304035794
    MARKER87  'MARKER'  'INTEND'
    P3_7  COST  29.1645310327
    P3_7  MIN3_7  1
    P3_7  MAX3_7  1
    P3_7  RU3_7  1
    P3_7  RD3_7  -1
    P3_7  RU3_8  -1
    P3_7  RD3_8  1
    P3_7  BAL7  1
    MARKER88  'MARKER'  'INTORG'
    V3_7  COST  350.992106335
    V3_7  SU3_7  -1
    U3_8  MIN3_8  -13.1981228056
    U3_8  MAX3_8  -93.5304035794
    U3_8  SU3_8  1
    U3_8  SU3_9  -1
    U3_8  RES8  93.5304035794
    MARKER89  'MARKER'  'INTEND'
    P3_8  COST  29.1645310327
    P3_8  MIN3_8  1
    P3_8  MAX3_8  1
    P3_8  RU3_8  1
    P3_8  RD3_8  -1
    P3_8  RU3_9  -1
    P3_8  RD3_9  1
    P3_8  BAL8  1
    MARKER90  'MARKER'  'INTORG'
    V3_8  COST  350.992106335
    V3_8  SU3_8  -1
    U3_9  MIN3_9  -13.1981228056
    U3_9  MAX3_9  -93.5304035794
    U3_9  SU3_9  1
    U3_9  SU3_10  -1
    U3_9  RES9  93.5304035794
    MARKER91  'MARKER'  'INTEND'
    P3_9  COST  29.1645310327
    P3_9  MIN3_9  1
    P3_9  MAX3_9  1
    P3_9  RU3_9  1
    P3_9  RD3_9  -1
    P3_9  RU3_10  -1
    P3_9  RD3_10  1
    P3_9  BAL9  1
    MARKER92  'MARKER'  'INTORG'
    V3_9  COST  350.992106335
    V3_9  SU3_9  -1
    U3_10  MIN3_10  -13.1981228056
    U3_10  MAX3_10  -93.5304035794
    U3_10  SU3_10  1
    U3_10  SU3_11  -1
    U3_10  RES10  93.5304035794
    MARKER93  'MARKER'  'INTEND'
    P3_10  COST  29.1645310327
    P3_10  MIN3_10  1
    P3_10  MAX3_10  1
    P3_10  RU3_10  1
    P3_10  RD3_10  -1
    P3_10  RU3_11  -1
    P3_10  RD3_11  1
    P3_10  BAL10  1
    MARKER94  'MARKER'  'INTORG'
    V3_10  COST  350.992106335
    V3_10  SU3_10  -1
    U3_11  MIN3_11  -13.1981228056
    U3_11  MAX3_11  -93.5304035794
    U3_11  SU3_11  1
    U3_11  RES11  93.5304035794
    MARKER95  'MARKER'  'INTEND'
    P3_11  COST  29.1645310327
    P3_11  MIN3_11  1
    P3_11  MAX3_11  1
    P3_11  RU3_11  1
    P3_11  RD3_11  -1
    P3_11  BAL11  1
    MARKER96  'MARKER'  'INTORG'
    V3_11  COST  350.992106335
    V3_11  SU3_11  -1
    U4_0  MIN4_0  -32.476896021
    U4_0  MAX4_0  -100.263529375
    U4_0  SU4_1  -1
    U4_0  RES0  100.263529375
    MARKER97  'MARKER'  'INTEND'
    P4_0  COST  14.9593466812
    P4_0  MIN4_0  1
    P4_0  MAX4_0  1
    P4_0  RU4_1  -1
    P4_0  RD4_1  1
    P4_0  BAL0  1
    MARKER98  'MARKER'  'INTORG'
    V4_0  COST  426.941640278
    U4_1  MIN4_1  -32.476896021
    U4_1  MAX4_1  -100.263529375
    U4_1  SU4_1  1
    U4_1  SU4_2  -1
    U4_1  RES1  100.263529375
    MARKER99  'MARKER'  'INTEND'
    P4_1  COST  14.9593466812
    P4_1  MIN4_1  1
    P4_1  MAX4_1  1
    P4_1  RU4_1  1
    P4_1  RD4_1  -1
    P4_1  RU4_2  -1
    P4_1  RD4_2  1
    P4_1  BAL1  1
    MARKER100  'MARKER'  'INTORG'
    V4_1  COST  426.941640278
    V4_1  SU4_1  -1
    U4_2  MIN4_2  -32.476896021
    U4_2  MAX4_2  -100.263529375
    U4_2  SU4_2  1
    U4_2  SU4_3  -1
    U4_2  RES2  100.263529375
    MARKER101  'MARKER'  'INTEND'
    P4_2  COST  14.9593466812
    P4_2  MIN4_2  1
    P4_2  MAX4_2  1
    P4_2  RU4_2  1
    P4_2  RD4_2  -1
    P4_2  RU4_3  -1
    P4_2  RD4_3  1
    P4_2  BAL2  1
    MARKER102  'MARKER'  'INTORG'
    V4_2  COST  426.941640278
    V4_2  SU4_2  -1
    U4_3  MIN4_3  -32.476896021
    U4_3  MAX4_3  -100.263529375
    U4_3  SU4_3  1
    U4_3  SU4_4  -1
    U4_3  RES3  100.263529375
    MARKER103  'MARKER'  'INTEND'
    P4_3  COST  14.9593466812
    P4_3  MIN4_3  1
    P4_3  MAX4_3  1
    P4_3  RU4_3  1
    P4_3  RD4_3  -1
    P4_3  RU4_4  -1
    P4_3  RD4_4  1
    P4_3  BAL3  1
    MARKER104  'MARKER'  'INTORG'
    V4_3  COST  426.941640278
    V4_3  SU4_3  -1
    U4_4  MIN4_4  -32.476896021
    U4_4  MAX4_4  -100.263529375
    U4_4  SU4_4  1
    U4_4  SU4_5  -1
    U4_4  RES4  100.263529375
    MARKER105  'MARKER'  'INTEND'
    P4_4  COST  14.9593466812
    P4_4  MIN4_4  1
    P4_4  MAX4_4  1
    P4_4  RU4_4  1
    P4_4  RD4_4  -1
    P4_4  RU4_5  -1
    P4_4  RD4_5  1
    P4_4  BAL4  1
    MARKER106  'MARKER'  'INTORG'
    V4_4  COST  426.941640278
    V4_4  SU4_4  -1
    U4_5  MIN4_5  -32.476896021
    U4_5  MAX4_5  -100.263529375
    U4_5  SU4_5  1
    U4_5  SU4_6  -1
    U4_5  RES5  100.263529375
    MARKER107  'MARKER'  'INTEND'
    P4_5  COST  14.9593466812
    P4_5  MIN4_5  1
    P4_5  MAX4_5  1
    P4_5  RU4_5  1
    P4_5  RD4_5  -1
    P4_5  RU4_6  -1
    P4_5  RD4_6  1
    P4_5  BAL5  1
    MARKER108  'MARKER'  'INTORG'
    V4_5  COST  426.941640278
    V4_5  SU4_5  -1
    U4_6  MIN4_6  -32.476896021
    U4_6  MAX4_6  -100.263529375
    U4_6  SU4_6  1
    U4_6  SU4_7  -1
    U4_6  RES6  100.263529375
    MARKER109  'MARKER'  'INTEND'
    P4_6  COST  14.9593466812
    P4_6  MIN4_6  1
    P4_6  MAX4_6  1
    P4_6  RU4_6  1
    P4_6  RD4_6  -1
    P4_6  RU4_7  -1
    P4_6  RD4_7  1
    P4_6  BAL6  1
    MARKER110  'MARKER'  'INTORG'
    V4_6  COST  426.941640278
    V4_6  SU4_6  -1
    U4_7  MIN4_7  -32.476896021
    U4_7  MAX4_7  -100.263529375
    U4_7  SU4_7  1
    U4_7  SU4_8  -1
    U4_7  RES7  100.263529375
    MARKER111  'MARKER'  'INTEND'
    P4_7  COST  14.9593466812
    P4_7  MIN4_7  1
    P4_7  MAX4_7  1
    P4_7  RU4_7  1
    P4_7  RD4_7  -1
    P4_7  RU4_8  -1
    P4_7  RD4_8  1
    P4_7  BAL7  1
    MARKER112  'MARKER'  'INTORG'
    V4_7  COST  426.941640278
    V4_7  SU4_7  -1
    U4_8  MIN4_8  -32.476896021
    U4_8  MAX4_8  -100.263529375
    U4_8  SU4_8  1
    U4_8  SU4_9  -1
    U4_8  RES8  100.263529375
    MARKER113  'MARKER'  'INTEND'
    P4_8  COST  14.9593466812
    P4_8  MIN4_8  1
    P4_8  MAX4_8  1
    P4_8  RU4_8  1
    P4_8  RD4_8  -1
    P4_8  RU4_9  -1
    P4_8  RD4_9  1
    P4_8  BAL8  1
    MARKER114  'MARKER'  'INTORG'
    V4_8  COST  426.941640278
    V4_8  SU4_8  -1
    U4_9  MIN4_9  -32.476896021
    U4_9  MAX4_9  -100.263529375
    U4_9  SU4_9  1
    U4_9  SU4_10  -1
    U4_9  RES9  100.263529375
    MARKER115  'MARKER'  'INTEND'
    P4_9  COST  14.9593466812
    P4_9  MIN4_9  1
    P4_9  MAX4_9  1
    P4_9  RU4_9  1
    P4_9  RD4_9  -1
    P4_9  RU4_10  -1
    P4_9  RD4_10  1
    P4_9  BAL9  1
    MARKER116  'MARKER'  'INTORG'
    V4_9  COST  426.941640278
    V4_9  SU4_9  -1
    U4_10  MIN4_10  -32.476896021
    U4_10  MAX4_10  -100.263529375
    U4_10  SU4_10  1
    U4_10  SU4_11  -1
    U4_10  RES10  100.263529375
    MARKER117  'MARKER'  'INTEND'
    P4_10  COST  14.9593466812
    P4_10  MIN4_10  1
    P4_10  MAX4_10  1
    P4_10  RU4_10  1
    P4_10  RD4_10  -1
    P4_10  RU4_11  -1
    P4_10  RD4_11  1
    P4_10  BAL10  1
    MARKER118  'MARKER'  'INTORG'
    V4_10  COST  426.941640278
    V4_10  SU4_10  -1
    U4_11  MIN4_11  -32.476896021
    U4_11  MAX4_11  -100.263529375
    U4_11  SU4_11  1
    U4_11  RES11  100.263529375
    MARKER119  'MARKER'  'INTEND'
    P4_11  COST  14.9593466812
    P4_11  MIN4_11  1
    P4_11  MAX4_11  1
    P4_11  RU4_11  1
    P4_11  RD4_11  -1
    P4_11  BAL11  1
    MARKER120  'MARKER'  'INTORG'
    V4_11  COST  426.941640278
    V4_11  SU4_11  -1
    U5_0  MIN5_0  -23.9391526316
    U5_0  MAX5_0  -87.6127272146
    U5_0  SU5_1  -1
    U5_0  RES0  87.6127272146
    MARKER121  'MARKER'  'INTEND'
    P5_0  COST  38.9519075485
    P5_0  MIN5_0  1
    P5_0  MAX5_0  1
    P5_0  RU5_1  -1
    P5_0  RD5_1  1
    P5_0  BAL0  1
    MARKER122  'MARKER'  'INTORG'
    V5_0  COST  519.112966498
    U5_1  MIN5_1  -23.9391526316
    U5_1  MAX5_1  -87.6127272146
    U5_1  SU5_1  1
    U5_1  SU5_2  -1
    U5_1  RES1  87.6127272146
    MARKER123  'MARKER'  'INTEND'
    P5_1  COST  38.9519075485
    P5_1  MIN5_1  1
    P5_1  MAX5_1  1
    P5_1  RU5_1  1
    P5_1  RD5_1  -1
    P5_1  RU5_2  -1
    P5_1  RD5_2  1
    P5_1  BAL1  1
    MARKER124  'MARKER'  'INTORG'
    V5_1  COST  519.112966498
    V5_1  SU5_1  -1
    U5_2  MIN5_2  -23.9391526316
    U5_2  MAX5_2  -87.6127272146
    U5_2  SU5_2  1
    U5_2  SU5_3  -1
    U5_2  RES2  87.6127272146
    MARKER125  'MARKER'  'INTEND'
    P5_2  COST  38.9519075485
    P5_2  MIN5_2  1
    P5_2  MAX5_2  1
    P5_2  RU5_2  1
    P5_2  RD5_2  -1
    P5_2  RU5_3  -1
    P5_2  RD5_3  1
    P5_2  BAL2  1
    MARKER126  'MARKER'  'INTORG'
    V5_2  COST  519.112966498
    V5_2  SU5_2  -1
    U5_3  MIN5_3  -23.9391526316
    U5_3  MAX5_3  -87.6127272146
    U5_3  SU5_3  1
    U5_3  SU5_4  -1
    U5_3  RES3  87.6127272146
    MARKER127  'MARKER'  'INTEND'
    P5_3  COST  38.9519075485
    P5_3  MIN5_3  1
    P5_3  MAX5_3  1
    P5_3  RU5_3  1
    P5_3  RD5_3  -1
    P5_3  RU5_4  -1
    P5_3  RD5_4  1
    P5_3  BAL3  1
    MARKER128  'MARKER'  'INTORG'
    V5_3  COST  519.112966498
    V5_3  SU5_3  -1
    U5_4  MIN5_4  -23.9391526316
    U5_4  MAX5_4  -87.6127272146
    U5_4  SU5_4  1
    U5_4  SU5_5  -1
    U5_4  RES4  87.6127272146
    MARKER129  'MARKER'  'INTEND'
    P5_4  COST  38.9519075485
    P5_4  MIN5_4  1
    P5_4  MAX5_4  1
    P5_4  RU5_4  1
    P5_4  RD5_4  -1
    P5_4  RU5_5  -1
    P5_4  RD5_5  1
    P5_4  BAL4  1
    MARKER130  'MARKER'  'INTORG'
    V5_4  COST  519.112966498
    V5_4  SU5_4  -1
    U5_5  MIN5_5  -23.9391526316
    U5_5  MAX5_5  -87.6127272146
    U5_5  SU5_5  1
    U5_5  SU5_6  -1
    U5_5  RES5  87.6127272146
    MARKER131  'MARKER'  'INTEND'
    P5_5  COST  38.9519075485
    P5_5  MIN5_5  1
    P5_5  MAX5_5  1
    P5_5  RU5_5  1
    P5_5  RD5_5  -1
    P5_5  RU5_6  -1
    P5_5  RD5_6  1
    P5_5  BAL5  1
    MARKER132  'MARKER'  'INTORG'
    V5_5  COST  519.112966498
    V5_5  SU5_5  -1
    U5_6  MIN5_6  -23.9391526316
    U5_6  MAX5_6  -87.6127272146
    U5_6  SU5_6  1
    U5_6  SU5_7  -1
    U5_6  RES6  87.6127272146
    MARKER133  'MARKER'  'INTEND'
    P5_6  COST  38.9519075485
    P5_6  MIN5_6  1
    P5_6  MAX5_6  1
    P5_6  RU5_6  1
    P5_6  RD5_6  -1
    P5_6  RU5_7  -1
    P5_6  RD5_7  1
    P5_6  BAL6  1
    MARKER134  'MARKER'  'INTORG'
    V5_6  COST  519.112966498
    V5_6  SU5_6  -1
    U5_7  MIN5_7  -23.9391526316
    U5_7  MAX5_7  -87.6127272146
    U5_7  SU5_7  1
    U5_7  SU5_8  -1
    U5_7  RES7  87.6127272146
    MARKER135  'MARKER'  'INTEND'
    P5_7  COST  38.9519075485
    P5_7  MIN5_7  1
    P5_7  MAX5_7  1
    P5_7  RU5_7  1
    P5_7  RD5_7  -1
    P5_7  RU5_8  -1
    P5_7  RD5_8  1
    P5_7  BAL7  1
    MARKER136  'MARKER'  'INTORG'
    V5_7  COST  519.112966498
    V5_7  SU5_7  -1
    U5_8  MIN5_8  -23.9391526316
    U5_8  MAX5_8  -87.6127272146
    U5_8  SU5_8  1
    U5_8  SU5_9  -1
    U5_8  RES8  87.6127272146
    MARKER137  'MARKER'  'INTEND'
    P5_8  COST  38.9519075485
    P5_8  MIN5_8  1
    P5_8  MAX5_8  1
    P5_8  RU5_8  1
    P5_8  RD5_8  -1
    P5_8  RU5_9  -1
    P5_8  RD5_9  1
    P5_8  BAL8  1
    MARKER138  'MARKER'  'INTORG'
    V5_8  COST  519.112966498
    V5_8  SU5_8  -1
    U5_9  MIN5_9  -23.9391526316
    U5_9  MAX5_9  -87.6127272146
    U5_9  SU5_9  1
    U5_9  SU5_10  -1
    U5_9  RES9  87.6127272146
    MARKER139  'MARKER'  'INTEND'
    P5_9  COST  38.9519075485
    P5_9  MIN5_9  1
    P5_9  MAX5_9  1
    P5_9  RU5_9  1
    P5_9  RD5_9  -1
    P5_9  RU5_10  -1
    P5_9  RD5_10  1
    P5_9  BAL9  1
    MARKER140  'MARKER'  'INTORG'
    V5_9  COST  519.112966498
    V5_9  SU5_9  -1
    U5_10  MIN5_10  -23.9391526316
    U5_10  MAX5_10  -87.6127272146
    U5_10  SU5_10  1
    U5_10  SU5_11  -1
    U5_10  RES10  87.6127272146
    MARKER141  'MARKER'  'INTEND'
    P5_10  COST  38.9519075485
    P5_10  MIN5_10  1
    P5_10  MAX5_10  1
    P5_10  RU5_10  1
    P5_10  RD5_10  -1
    P5_10  RU5_11  -1
    P5_10  RD5_11  1
    P5_10  BAL10  1
    MARKER142  'MARKER'  'INTORG'
    V5_10  COST  519.112966498
    V5_10  SU5_10  -1
    U5_11  MIN5_11  -23.9391526316
    U5_11  MAX5_11  -87.6127272146
    U5_11  SU5_11  1
    U5_11  RES11  87.6127272146
    MARKER143  'MARKER'  'INTEND'
    P5_11  COST  38.9519075485
    P5_11  MIN5_11  1
    P5_11  MAX5_11  1
    P5_11  RU5_11  1
    P5_11  RD5_11  -1
    P5_11  BAL11  1
    MARKER144  'MARKER'  'INTORG'
    V5_11  COST  519.112966498
    V5_11  SU5_11  -1
    MARKER145  'MARKER'  'INTEND'
RHS
    RHS  MIN0_0  0
    RHS  MAX0_0  0
    RHS  MIN0_1  0
    RHS  MAX0_1  0
    RHS  SU0_1  0
    RHS  RU0_1  69.5345466295
    RHS  RD0_1  69.5345466295
    RHS  MIN0_2  0
    RHS  MAX0_2  0
    RHS  SU0_2  0
    RHS  RU0_2  69.5345466295
    RHS  RD0_2  69.5345466295
    RHS  MIN0_3  0
    RHS  MAX0_3  0
    RHS  SU0_3  0
    RHS  RU0_3  69.5345466295
    RHS  RD0_3  69.5345466295
    RHS  MIN0_4  0
    RHS  MAX0_4  0
    RHS  SU0_4  0
    RHS  RU0_4  69.5345466295
    RHS  RD0_4  69.5345466295
    RHS  MIN0_5  0
    RHS  MAX0_5  0
    RHS  SU0_5  0
    RHS  RU0_5  69.5345466295
    RHS  RD0_5  69.5345466295
    RHS  MIN0_6  0
    RHS  MAX0_6  0
    RHS  SU0_6  0
    RHS  RU0_6  69.5345466295
    RHS  RD0_6  69.5345466295
    RHS  MIN0_7  0
    RHS  MAX0_7  0
    RHS  SU0_7  0
    RHS  RU0_7  69.5345466295
    RHS  RD0_7  69.5345466295
    RHS  MIN0_8  0
    RHS  MAX0_8  0
    RHS  SU0_8  0
    RHS  RU0_8  69.5345466295
    RHS  RD0_8  69.5345466295
    RHS  MIN0_9  0
    RHS  MAX0_9  0
    RHS  SU0_9  0
    RHS  RU0_9  69.5345466295
    RHS  RD0_9  69.5345466295
    RHS  MIN0_10  0
    RHS  MAX0_10  0
    RHS  SU0_10  0
    RHS  RU0_10  69.5345466295
    RHS  RD0_10  69.5345466295
    RHS  MIN0_11  0
    RHS  MAX0_11  0
    RHS  SU0_11  0
    RHS  RU0_11  69.5345466295
    RHS  RD0_11  69.5345466295
    RHS  MIN1_0  0
    RHS  MAX1_0  0
    RHS  MIN1_1  0
    RHS  MAX1_1  0
    RHS  SU1_1  0
    RHS  RU1_1  32.2779697538
    RHS  RD1_1  32.2779697538
    RHS  MIN1_2  0
    RHS  MAX1_2  0
    RHS  SU1_2  0
    RHS  RU1_2  32.2779697538
    RHS  RD1_2  32.2779697538
    RHS  MIN1_3  0
    RHS  MAX1_3  0
    RHS  SU1_3  0
    RHS  RU1_3  32.2779697538
    RHS  RD1_3  32.2779697538
    RHS  MIN1_4  0
    RHS  MAX1_4  0
    RHS  SU1_4  0
    RHS  RU1_4  32.2779697538
    RHS  RD1_4  32.2779697538
    RHS  MIN1_5  0
    RHS  MAX1_5  0
    RHS  SU1_5  0
    RHS  RU1_5  32.2779697538
    RHS  RD1_5  32.2779697538
    RHS  MIN1_6  0
    RHS  MAX1_6  0
    RHS  SU1_6  0
    RHS  RU1_6  32.2779697538
    RHS  RD1_6  32.2779697538
    RHS  MIN1_7  0
    RHS  MAX1_7  0
    RHS  SU1_7  0
    RHS  RU1_7  32.2779697538
    RHS  RD1_7  32.2779697538
    RHS  MIN1_8  0
    RHS  MAX1_8  0
    RHS  SU1_8  0
    RHS  RU1_8  32.2779697538
    RHS  RD1_8  32.2779697538
    RHS  MIN1_9  0
    RHS  MAX1_9  0
    RHS  SU1_9  0
    RHS  RU1_9  32.2779697538
    RHS  RD1_9  32.2779697538
    RHS  MIN1_10  0
    RHS  MAX1_10  0
    RHS  SU1_10  0
    RHS  RU1_10  32.2779697538
    RHS  RD1_10  32.2779697538
    RHS  MIN1_11  0
    RHS  MAX1_11  0
    RHS  SU1_11  0
    RHS  RU1_11  32.2779697538
    RHS  RD1_11  32.2779697538
    RHS  MIN2_0  0
    RHS  MAX2_0  0
    RHS  MIN2_1  0
    RHS  MAX2_1  0
    RHS  SU2_1  0
    RHS  RU2_1  60.5308463451
    RHS  RD2_1  60.5308463451
    RHS  MIN2_2  0
    RHS  MAX2_2  0
    RHS  SU2_2  0
    RHS  RU2_2  60.5308463451
    RHS  RD2_2  60.5308463451
    RHS  MIN2_3  0
    RHS  MAX2_3  0
    RHS  SU2_3  0
    RHS  RU2_3  60.5308463451
    RHS  RD2_3  60.5308463451
    RHS  MIN2_4  0
    RHS  MAX2_4  0
    RHS  SU2_4  0
    RHS  RU2_4  60.5308463451
    RHS  RD2_4  60.5308463451
    RHS  MIN2_5  0
    RHS  MAX2_5  0
    RHS  SU2_5  0
    RHS  RU2_5  60.5308463451
    RHS  RD2_5  60.5308463451
    RHS  MIN2_6  0
    RHS  MAX2_6  0
    RHS  SU2_6  0
    RHS  RU2_6  60.5308463451
    RHS  RD2_6  60.5308463451
    RHS  MIN2_7  0
    RHS  MAX2_7  0
    RHS  SU2_7  0
    RHS  RU2_7  60.5308463451
    RHS  RD2_7  60.5308463451
    RHS  MIN2_8  0
    RHS  MAX2_8  0
    RHS  SU2_8  0
    RHS  RU2_8  60.5308463451
    RHS  RD2_8  60.5308463451
    RHS  MIN2_9  0
    RHS  MAX2_9  0
    RHS  SU2_9  0
    RHS  RU2_9  60.5308463451
    RHS  RD2_9  60.5308463451
    RHS  MIN2_10  0
    RHS  MAX2_10  0
    RHS  SU2_10  0
    RHS  RU2_10  60.5308463451
    RHS  RD2_10  60.5308463451
    RHS  MIN2_11  0
    RHS  MAX2_11  0
    RHS  SU2_11  0
    RHS  RU2_11  60.5308463451
    RHS  RD2_11  60.5308463451
    RHS  MIN3_0  0
    RHS  MAX3_0  0
    RHS  MIN3_1  0
    RHS  MAX3_1  0
    RHS  SU3_1  0
    RHS  RU3_1  29.8901400498
    RHS  RD3_1  29.8901400498
    RHS  MIN3_2  0
    RHS  MAX3_2  0
    RHS  SU3_2  0
    RHS  RU3_2  29.8901400498
    RHS  RD3_2  29.8901400498
    RHS  MIN3_3  0
    RHS  MAX3_3  0
    RHS  SU3_3  0
    RHS  RU3_3  29.8901400498
    RHS  RD3_3  29.8901400498
    RHS  MIN3_4  0
    RHS  MAX3_4  0
    RHS  SU3_4  0
    RHS  RU3_4  29.8901400498
    RHS  RD3_4  29.8901400498
    RHS  MIN3_5  0
    RHS  MAX3_5  0
    RHS  SU3_5  0
    RHS  RU3_5  29.8901400498
    RHS  RD3_5  29.8901400498
    RHS  MIN3_6  0
    RHS  MAX3_6  0
    RHS  SU3_6  0
    RHS  RU3_6  29.8901400498
    RHS  RD3_6  29.8901400498
    RHS  MIN3_7  0
    RHS  MAX3_7  0
    RHS  SU3_7  0
    RHS  RU3_7  29.8901400498
    RHS  RD3_7  29.8901400498
    RHS  MIN3_8  0
    RHS  MAX3_8  0
    RHS  SU3_8  0
    RHS  RU3_8  29.8901400498
    RHS  RD3_8  29.8901400498
    RHS  MIN3_9  0
    RHS  MAX3_9  0
    RHS  SU3_9  0
    RHS  RU3_9  29.8901400498
    RHS  RD3_9  29.8901400498
    RHS  MIN3_10  0
    RHS  MAX3_10  0
    RHS  SU3_10  0
    RHS  RU3_10  29.8901400498
    RHS  RD3_10  29.8901400498
    RHS  MIN3_11  0
    RHS  MAX3_11  0
    RHS  SU3_11  0
    RHS  RU3_11  29.8901400498
    RHS  RD3_11  29.8901400498
    RHS  MIN4_0  0
    RHS  MAX4_0  0
    RHS  MIN4_1  0
    RHS  MAX4_1  0
    RHS  SU4_1  0
    RHS  RU4_1  69.3967243355
    RHS  RD4_1  69.3967243355
    RHS  MIN4_2  0
    RHS  MAX4_2  0
    RHS  SU4_2  0
    RHS  RU4_2  69.3967243355
    RHS  RD4_2  69.3967243355
    RHS  MIN4_3  0
    RHS  MAX4_3  0
    RHS  SU4_3  0
    RHS  RU4_3  69.3967243355
    RHS  RD4_3  69.3967243355
    RHS  MIN4_4  0
    RHS  MAX4_4  0
    RHS  SU4_4  0
    RHS  RU4_4  69.3967243355
    RHS  RD4_4  69.3967243355
    RHS  MIN4_5  0
    RHS  MAX4_5  0
    RHS  SU4_5  0
    RHS  RU4_5  69.3967243355
    RHS  RD4_5  69.3967243355
    RHS  MIN4_6  0
    RHS  MAX4_6  0
    RHS  SU4_6  0
    RHS  RU4_6  69.3967243355
    RHS  RD4_6  69.3967243355
    RHS  MIN4_7  0
    RHS  MAX4_7  0
    RHS  SU4_7  0
    RHS  RU4_7  69.3967243355
    RHS  RD4_7  69.3967243355
    RHS  MIN4_8  0
    RHS  MAX4_8  0
    RHS  SU4_8  0
    RHS  RU4_8  69.3967243355
    RHS  RD4_8  69.3967243355
    RHS  MIN4_9  0
    RHS  MAX4_9  0
    RHS  SU4_9  0
    RHS  RU4_9  69.3967243355
    RHS  RD4_9  69.3967243355
    RHS  MIN4_10  0
    RHS  MAX4_10  0
    RHS  SU4_10  0
    RHS  RU4_10  69.3967243355
    RHS  RD4_10  69.3967243355
    RHS  MIN4_11  0
    RHS  MAX4_11  0
    RHS  SU4_11  0
    RHS  RU4_11  69.3967243355
    RHS  RD4_11  69.3967243355
    RHS  MIN5_0  0
    RHS  MAX5_0  0
    RHS  MIN5_1  0
    RHS  MAX5_1  0
    RHS  SU5_1  0
    RHS  RU5_1  84.5255692563
    RHS  RD5_1  84.5255692563
    RHS  MIN5_2  0
    RHS  MAX5_2  0
    RHS  SU5_2  0
    RHS  RU5_2  84.5255692563
    RHS  RD5_2  84.5255692563
    RHS  MIN5_3  0
    RHS  MAX5_3  0
    RHS  SU5_3  0
    RHS  RU5_3  84.5255692563
    RHS  RD5_3  84.5255692563
    RHS  MIN5_4  0
    RHS  MAX5_4  0
    RHS  SU5_4  0
    RHS  RU5_4  84.5255692563
    RHS  RD5_4  84.5255692563
    RHS  MIN5_5  0
    RHS  MAX5_5  0
    RHS  SU5_5  0
    RHS  RU5_5  84.5255692563
    RHS  RD5_5  84.5255692563
    RHS  MIN5_6  0
    RHS  MAX5_6  0
    RHS  SU5_6  0
    RHS  RU5_6  84.5255692563
    RHS  RD5_6  84.5255692563
    RHS  MIN5_7  0
    RHS  MAX5_7  0
    RHS  SU5_7  0
    RHS  RU5_7  84.5255692563
    RHS  RD5_7  84.5255692563
    RHS  MIN5_8  0
    RHS  MAX5_8  0
    RHS  SU5_8  0
    RHS  RU5_8  84.5255692563
    RHS  RD5_8  84.5255692563
    RHS  MIN5_9  0
    RHS  MAX5_9  0
    RHS  SU5_9  0
    RHS  RU5_9  84.5255692563
    RHS  RD5_9  84.5255692563
    RHS  MIN5_10  0
    RHS  MAX5_10  0
    RHS  SU5_10  0
    RHS  RU5_10  84.5255692563
    RHS  RD5_10  84.5255692563
    RHS  MIN5_11  0
    RHS  MAX5_11  0
    RHS  SU5_11  0
    RHS  RU5_11  84.5255692563
    RHS  RD5_11  84.5255692563
    RHS  BAL0  251.995393394
    RHS  RES0  282.234840602
    RHS  BAL1  319.991900205
    RHS  RES1  358.39092823
    RHS  BAL2  370.872547973
    RHS  RES2  415.377253729
    RHS  BAL3  379.706356785
    RHS  RES3  425.2711196
    RHS  BAL4  359.961423035
    RHS  RES4  403.1567938
    RHS  BAL5  292.710901948
    RHS  RES5  327.836210181
    RHS  BAL6  207.221666554
    RHS  RES6  232.088266541
    RHS  BAL7  144.2236542
    RHS  RES7  161.530492704
    RHS  BAL8  112.160675569
    RHS  RES8  125.619956637
    RHS  BAL9  134.634146701
    RHS  RES9  150.790244305
    RHS  BAL10  177.782157321
    RHS  RES10  199.1160162
    RHS  BAL11  263.977793737
    RHS  RES11  295.655128985
RANGES
BOUNDS
 UP BND  U0_0  1
 UP BND  P0_0  145.149564811
 UP BND  V0_0  1
 UP BND  U0_1  1
 UP BND  P0_1  145.149564811
 UP BND  V0_1  1
 UP BND  U0_2  1
 UP BND  P0_2  145.149564811
 UP BND  V0_2  1
 UP BND  U0_3  1
 UP BND  P0_3  145.149564811
 UP BND  V0_3  1
 UP BND  U0_4  1
 UP BND  P0_4  145.149564811
 UP BND  V0_4  1
 UP BND  U0_5  1
 UP BND  P0_5  145.149564811
 UP BND  V0_5  1
 UP BND  U0_6  1
 UP BND  P0_6  145.149564811
 UP BND  V0_6  1
 UP BND  U0_7  1
 UP BND  P0_7  145.149564811
 UP BND  V0_7  1
 UP BND  U0_8  1
 UP BND  P0_8  145.149564811
 UP BND  V0_8  1
 UP BND  U0_9  1
 UP BND  P0_9  145.149564811
 UP BND  V0_9  1
 UP BND  U0_10  1
 UP BND  P0_10  145.149564811
 UP BND  V0_10  1
 UP BND  U0_11  1
 UP BND  P0_11  145.149564811
 UP BND  V0_11  1
 UP BND  U1_0  1
 UP BND  P1_0  72.4482306311
 UP BND  V1_0  1
 UP BND  U1_1  1
 UP BND  P1_1  72.4482306311
 UP BND  V1_1  1
 UP BND  U1_2  1
 UP BND  P1_2  72.4482306311
 UP BND  V1_2  1
 UP BND  U1_3  1
 UP BND  P1_3  72.4482306311
 UP BND  V1_3  1
 UP BND  U1_4  1
 UP BND  P1_4  72.4482306311
 UP BND  V1_4  1
 UP BND  U1_5  1
 UP BND  P1_5  72.4482306311
 UP BND  V1_5  1
 UP BND  U1_6  1
 UP BND  P1_6  72.4482306311
 UP BND  V1_6  1
 UP BND  U1_7  1
 UP BND  P1_7  72.4482306311
 UP BND  V1_7  1
 UP BND  U1_8  1
 UP BND  P1_8  72.4482306311
 UP BND  V1_8  1
 UP BND  U1_9  1
 UP BND  P1_9  72.4482306311
 UP BND  V1_9  1
 UP BND  U1_10  1
 UP BND  P1_10  72.4482306311
 UP BND  V1_10  1
 UP BND  U1_11  1
 UP BND  P1_11  72.4482306311
 UP BND  V1_11  1
 UP BND  U2_0  1
 UP BND  P2_0  137.861356584
 UP BND  V2_0  1
 UP BND  U2_1  1
 UP BND  P2_1  137.861356584
 UP BND  V2_1  1
 UP BND  U2_2  1
 UP BND  P2_2  137.861356584
 UP BND  V2_2  1
 UP BND  U2_3  1
 UP BND  P2_3  137.861356584
 UP BND  V2_3  1
 UP BND  U2_4  1
 UP BND  P2_4  137.861356584
 UP BND  V2_4  1
 UP BND  U2_5  1
 UP BND  P2_5  137.861356584
 UP BND  V2_5  1
 UP BND  U2_6  1
 UP BND  P2_6  137.861356584
 UP BND  V2_6  1
 UP BND  U2_7  1
 UP BND  P2_7  137.861356584
 UP BND  V2_7  1
 UP BND  U2_8  1
 UP BND  P2_8  137.861356584
 UP BND  V2_8  1
 UP BND  U2_9  1
 UP BND  P2_9  137.861356584
 UP BND  V2_9  1
 UP BND  U2_10  1
 UP BND  P2_10  137.861356584
 UP BND  V2_10  1
 UP BND  U2_11  1
 UP BND  P2_11  137.861356584
 UP BND  V2_11  1
 UP BND  U3_0  1
 UP BND  P3_0  93.5304035794
 UP BND  V3_0  1
 UP BND  U3_1  1
 UP BND  P3_1  93.5304035794
 UP BND  V3_1  1
 UP BND  U3_2  1
 UP BND  P3_2  93.5304035794
 UP BND  V3_2  1
 UP BND  U3_3  1
 UP BND  P3_3  93.5304035794
 UP BND  V3_3  1
 UP BND  U3_4  1
 UP BND  P3_4  93.5304035794
 UP BND  V3_4  1
 UP BND  U3_5  1
 UP BND  P3_5  93.5304035794
 UP BND  V3_5  1
 UP BND  U3_6  1
 UP BND  P3_6  93.5304035794
 UP BND  V3_6  1
 UP BND  U3_7  1
 UP BND  P3_7  93.5304035794
 UP BND  V3_7  1
 UP BND  U3_8  1
 UP BND  P3_8  93.5304035794
 UP BND  V3_8  1
 UP BND  U3_9  1
 UP BND  P3_9  93.5304035794
 UP BND  V3_9  1
 UP BND  U3_10  1
 UP BND  P3_10  93.5304035794
 UP BND  V3_10  1
 UP BND  U3_11  1
 UP BND  P3_11  93.5304035794
 UP BND  V3_11  1
 UP BND  U4_0  1
 UP BND  P4_0  100.263529375
 UP BND  V4_0  1
 UP BND  U4_1  1
 UP BND  P4_1  100.263529375
 UP BND  V4_1  1
 UP BND  U4_2  1
 UP BND  P4_2  100.263529375
 UP BND  V4_2  1
 UP BND  U4_3  1
 UP BND  P4_3  100.263529375
 UP BND  V4_3  1
 UP BND  U4_4  1
 UP BND  P4_4  100.263529375
 UP BND  V4_4  1
 UP BND  U4_5  1
 UP BND  P4_5  100.263529375
 UP BND  V4_5  1
 UP BND  U4_6  1
 UP BND  P4_6  100.263529375
 UP BND  V4_6  1
 UP BND  U4_7  1
 UP BND  P4_7  100.263529375
 UP BND  V4_7  1
 UP BND  U4_8  1
 UP BND  P4_8  100.263529375
 UP BND  V4_8  1
 UP BND  U4_9  1
 UP BND  P4_9  100.263529375
 UP BND  V4_9  1
 UP BND  U4_10  1
 UP BND  P4_10  100.263529375
 UP BND  V4_10  1
 UP BND  U4_11  1
 UP BND  P4_11  100.263529375
 UP BND  V4_11  1
 UP BND  U5_0  1
 UP BND  P5_0  87.6127272146
 UP BND  V5_0  1
 UP BND  U5_1  1
 UP BND  P5_1  87.6127272146
 UP BND  V5_1  1
 UP BND  U5_2  1
 UP BND  P5_2  87.6127272146
 UP BND  V5_2  1
 UP BND  U5_3  1
 UP BND  P5_3  87.6127272146
 UP BND  V5_3  1
 UP BND  U5_4  1
 UP BND  P5_4  87.6127272146
 UP BND  V5_4  1
 UP BND  U5_5  1
 UP BND  P5_5  87.6127272146
 UP BND  V5_5  1
 UP BND  U5_6  1
 UP BND  P5_6  87.6127272146
 UP BND  V5_6  1
 UP BND  U5_7  1
 UP BND  P5_7  87.6127272146
 UP BND  V5_7  1
 UP BND  U5_8  1
 UP BND  P5_8  87.6127272146
 UP BND  V5_8  1
 UP BND  U5_9  1
 UP BND  P5_9  87.6127272146
 UP BND  V5_9  1
 UP BND  U5_10  1
 UP BND  P5_10  87.6127272146
 UP BND  V5_10  1
 UP BND  U5_11  1
 UP BND  P5_11  87.6127272146
 UP BND  V5_11  1
ENDATA
